      54
 i =      112, E =     -1444.3207559636
 Ni         3.0936449172        1.0923389518        9.1446130556
 Ni         0.8196420472       -0.1901738366        7.5870158229
 Ni        -1.4654577157       -0.9004472174        9.4741995455
 Ni        -1.4477614689        8.6492388613        3.9600426097
 Ni         0.8190754982        6.6693649457        3.6312967102
 Ni         3.0875558072        7.3654874660        5.5105477317
  H         2.7962344440        3.5601248075        6.1666259800
  H        -1.7378248027       11.1235299737        6.9303916244
  H        -1.7377027006        0.4408448362       13.0993400666
  H        -1.9441478904        4.2660689900        7.3894601859
  H         2.5905728831       -3.2945005628        5.7065108827
  H         2.5901664570        6.5902340987        0.0005760751
  C         1.1053147965        2.7175379659        7.1919634297
  C        -1.1604637718       -2.6950193616        7.1475442666
  C         3.3707317013       -0.0257412203       11.8590854253
  C         3.3745196458       10.2789132893        5.8938356181
  C        -1.1611787890        7.5255945398        1.2481620541
  C         1.1094122960        4.8790723548        5.9575391861
  C         1.7531664603        3.7176154713        6.4372705062
  C        -2.7807424361       11.2772910232        6.6569359219
  C        -2.7816334792        0.1300217836       13.1029840114
  C        -0.2771585724        2.9411900284        7.5462106743
  C         4.2598944475       -2.4976833412        6.7684566038
  C         1.9916609303       -0.4560354001       11.8722392428
  C         1.9872102996       10.5021995674        5.5489583940
  C         4.2538779322        7.1123349692        1.2283388112
  C        -0.2771597389        5.0673099974        6.3228381443
  C        -1.1377463591        1.9557058029        8.2133281734
  C         3.3992381147       -1.4283293238        7.2848039834
  C         1.1323785395       -0.5374604213       10.6839601014
  C         1.1191789538        9.5195668249        4.8850636338
  C         3.3888607892        7.0238783128        2.4122408297
  C        -1.1430967370        6.1347720899        5.8037804266
  C        -0.8963137400        4.1180562978        7.1326156487
  C         3.6377378243       -3.4475355275        5.9624291001
  C         3.6369538478        6.8894246942       -0.0011877096
  O         1.7685699093        1.5932392714        7.5038061075
  O        -0.5030122186       -1.8645005016        7.9698597404
  O        -2.7623951075        0.2796895531       10.7375381103
  O        -2.7557352004        9.1487631723        5.6182353491
  O        -0.4887686062        7.8527737143        2.3616622946
  O         1.7779844388        5.6871631925        5.1223083370
  O        -0.7437853252        0.7233738444        8.3496672488
  O         3.7860869241       -0.7021320417        8.2831693766
  O         1.5345666436       -0.0270432562        9.5590785452
  O         1.5393299080        8.3025281795        4.7321396361
  O         3.7943749104        7.5156808970        3.5407392778
  O        -0.7381233866        6.8715480436        4.8161393432
  O        -2.2793713158        2.3246362457        8.6534187912
  O         2.2466912185       -1.2366404073        6.7631486569
  O        -0.0179446533       -1.0886554422       10.7791479273
  O        -0.0207536722        9.8979958558        4.4472683138
  O         2.2413965565        6.4706306388        2.3049364998
  O        -2.2826094438        6.3246838283        6.3493868244
      54
 i =      113, E =     -1444.3473196143
 Ni         3.0755392911        1.1198294595        9.1772078320
 Ni         0.8048153708       -0.1859854757        7.5642054599
 Ni        -1.4928320579       -0.9297695210        9.4867166947
 Ni        -1.4709452236        8.6693961108        3.9413364224
 Ni         0.7944566831        6.6386624668        3.6214493254
 Ni         3.0542367488        7.3810906557        5.5417305567
  H         2.8021547930        3.5570356080        6.1601209912
  H        -1.7313135668       11.1182062115        6.9337402468
  H        -1.7363742502        0.4489940988       13.1029179553
  H        -1.9392290876        4.2680439567        7.3909573829
  H         2.5960921582       -3.2949654821        5.7028738066
  H         2.5946825363        6.5884691374       -0.0017018607
  C         1.1064034037        2.7146063567        7.1964602887
  C        -1.1627101359       -2.6883702540        7.1439086995
  C         3.3735910690       -0.0228642080       11.8519857670
  C         3.3732611828       10.2670671738        5.9142221795
  C        -1.1656803625        7.5446655574        1.2505268063
  C         1.1053217536        4.8697709227        5.9388029685
  C         1.7589961357        3.7120426144        6.4317018610
  C        -2.7745709922       11.2766382428        6.6658704240
  C        -2.7786298416        0.1344753996       13.1015636829
  C        -0.2818882864        2.9330581990        7.5349084144
  C         4.2516255708       -2.5004737611        6.7783969627
  C         1.9885078663       -0.4402987802       11.8704443321
  C         1.9876201927       10.4968982225        5.5621273267
  C         4.2520850745        7.1188912117        1.2271697619
  C        -0.2804154360        5.0611080231        6.3128541355
  C        -1.1306881327        1.9453471420        8.2241471861
  C         3.3904549365       -1.4296284827        7.3053088551
  C         1.1326820632       -0.5231035086       10.6739775745
  C         1.1359039160        9.5150344075        4.8678835430
  C         3.3887640794        7.0290287711        2.4192490854
  C        -1.1385087494        6.1471988213        5.8038624719
  C        -0.8950861108        4.1140797262        7.1272918474
  C         3.6408473986       -3.4480018712        5.9640127060
  C         3.6410679904        6.8869538522       -0.0032333753
  O         1.7621868431        1.5819272177        7.5414417388
  O        -0.5160496477       -1.8247495318        7.9575443453
  O        -2.7571128539        0.2576505765       10.7121676293
  O        -2.7555035506        9.1404492585        5.5810414441
  O        -0.5015703916        7.8286066700        2.3924348565
  O         1.7715941823        5.7248361516        5.1305472075
  O        -0.7446025021        0.7084002494        8.2904079188
  O         3.7965603324       -0.7233695040        8.3016036888
  O         1.5464820873        0.0132835945        9.5716748580
  O         1.5466512973        8.3010444115        4.7404300110
  O         3.8059255472        7.5263676682        3.5332419579
  O        -0.7233748474        6.8519914908        4.8054121752
  O        -2.2878456180        2.3025360909        8.6463974153
  O         2.2392113794       -1.2290978199        6.7699542090
  O        -0.0177990651       -1.0850040212       10.7556288326
  O        -0.0222562992        9.8714673369        4.4516565676
  O         2.2323789720        6.4814471784        2.3201412439
  O        -2.2965846535        6.3335844974        6.3217575318
      54
 i =      114, E =     -1444.3493175486
 Ni         3.0417305390        1.1276510926        9.2322332379
 Ni         0.7598307681       -0.1645806772        7.5273553295
 Ni        -1.5128673460       -0.9510111823        9.4714819979
 Ni        -1.5072920107        8.6871749325        3.9073520898
 Ni         0.7540505462        6.6009008501        3.6199625229
 Ni         3.0179931945        7.4057511219        5.5600556005
  H         2.8126049487        3.5517905593        6.1523785717
  H        -1.7206642478       11.1163391232        6.9419044953
  H        -1.7291153529        0.4612081926       13.1075988991
  H        -1.9375142002        4.2713343751        7.3960686022
  H         2.5989997405       -3.2978859114        5.6927062012
  H         2.5973173265        6.5810245592       -0.0066343085
  C         1.1097066324        2.7086221057        7.1980234909
  C        -1.1645437924       -2.6804348244        7.1443388738
  C         3.3822902847       -0.0302870243       11.8484123866
  C         3.3804908094       10.2712728176        5.9145959734
  C        -1.1671959463        7.5482478167        1.2505622217
  C         1.1062905902        4.8691460838        5.9396868805
  C         1.7673620601        3.7019978163        6.4193059151
  C        -2.7664903632       11.2752974408        6.6829465973
  C        -2.7713615527        0.1481019537       13.1018706938
  C        -0.2749359857        2.9375400409        7.5395179909
  C         4.2436009855       -2.5130923794        6.7910605755
  C         1.9891874642       -0.4238296596       11.8706690444
  C         1.9927597766       10.4918703090        5.5683907708
  C         4.2483721162        7.1365892515        1.2208472170
  C        -0.2819920126        5.0493225538        6.3046447904
  C        -1.1542717724        1.9260720935        8.1658918865
  C         3.3859560274       -1.4304851172        7.3225463149
  C         1.1291024815       -0.4890093027       10.6677988336
  C         1.1350778422        9.5008404777        4.8831021743
  C         3.3870384942        7.0415298892        2.4212557372
  C        -1.1408341341        6.1348467252        5.7779967399
  C        -0.9034092261        4.0983999735        7.1056458085
  C         3.6332791112       -3.4658784024        5.9857371202
  C         3.6356381508        6.9061866255       -0.0060948243
  O         1.7609706456        1.5687554738        7.5878294938
  O        -0.5123856157       -1.7889271356        7.9466517119
  O        -2.7396178960        0.2110116348       10.6834529244
  O        -2.7595279664        9.1346861379        5.5274487298
  O        -0.5226771929        7.7823621421        2.4330123102
  O         1.7546321791        5.7791257104        5.1473451110
  O        -0.7320804457        0.7118216362        8.2232856315
  O         3.7913597305       -0.7857314681        8.3563266526
  O         1.5410866467        0.0734887889        9.5853138550
  O         1.5522537437        8.2931213035        4.7749014542
  O         3.8160991234        7.5715280477        3.5081894570
  O        -0.7132708234        6.8109517573        4.7710831282
  O        -2.2950485407        2.2508113878        8.6755566670
  O         2.2256616913       -1.2031933268        6.8021062267
  O        -0.0178435232       -1.0720045700       10.7061805431
  O        -0.0260543349        9.8281383960        4.4367676872
  O         2.2200534310        6.4964955122        2.3575289647
  O        -2.3019589866        6.3700845698        6.2848248750
      54
 i =      115, E =     -1444.3213842705
 Ni         3.0494762026        1.1202423374        9.2167768663
 Ni         0.7766064339       -0.1490007221        7.5329246850
 Ni        -1.4934499193       -0.9495369967        9.4563041535
 Ni        -1.4878340390        8.6766879490        3.8983009548
 Ni         0.7699363975        6.5995597125        3.6346593172
 Ni         3.0451123221        7.4059720603        5.5530423490
  H         2.8087252246        3.5519793200        6.1547131516
  H        -1.7246516891       11.1216576249        6.9433416711
  H        -1.7289584803        0.4589879826       13.1082363931
  H        -1.9447675908        4.2674718672        7.3923429602
  H         2.5922637877       -3.3014903250        5.6953322347
  H         2.5919889440        6.5824530699       -0.0090693804
  C         1.1048185912        2.7188389021        7.2036060232
  C        -1.1647951704       -2.6885326530        7.1469577692
  C         3.3807086080       -0.0375574992       11.8543863124
  C         3.3765615288       10.2817114922        5.8958499390
  C        -1.1685450237        7.5331165162        1.2486764960
  C         1.1047186864        4.8746340076        5.9549819971
  C         1.7640843289        3.7065771001        6.4243137383
  C        -2.7693335500       11.2747177041        6.6729437103
  C        -2.7715453759        0.1429161693       13.1043801411
  C        -0.2855664305        2.9329825849        7.5251144163
  C         4.2488883032       -2.5109347867        6.7850945843
  C         1.9881265034       -0.4274972426       11.8684186474
  C         1.9843708475       10.4915976158        5.5680924867
  C         4.2447205525        7.1337612407        1.2184468096
  C        -0.2855006186        5.0488814755        6.3029553024
  C        -1.1438212426        1.9333758835        8.1886265456
  C         3.3821366862       -1.4431567049        7.3280214129
  C         1.1254404157       -0.4958929860       10.6696665201
  C         1.1260032794        9.4982133051        4.8893288512
  C         3.3828017116        7.0535396000        2.4174895249
  C        -1.1443268157        6.1280806972        5.7733875035
  C        -0.9057641688        4.1059774188        7.1135009753
  C         3.6286304782       -3.4640582929        5.9859812629
  C         3.6292016066        6.9133768371       -0.0085964720
  O         1.7721133570        1.5870716067        7.5661417586
  O        -0.4957999031       -1.8023089535        7.9374083880
  O        -2.7446376180        0.2176074664       10.6929589175
  O        -2.7542875509        9.1463963897        5.5386993246
  O        -0.5047805466        7.7854875202        2.4115857010
  O         1.7650818484        5.7599377880        5.1542387485
  O        -0.7449250765        0.7079061528        8.2071474929
  O         3.7811812684       -0.7955173077        8.3651214386
  O         1.5297773765        0.0870663078        9.5921368647
  O         1.5471115989        8.2844836712        4.8015105099
  O         3.8115856465        7.5876326146        3.5064769266
  O        -0.7250775361        6.8014272663        4.7588655501
  O        -2.2905031160        2.2635793441        8.6675583607
  O         2.2308494274       -1.2060373577        6.7998132165
  O        -0.0200332304       -1.0750934447       10.7202323684
  O        -0.0273429694        9.8428794139        4.4401481693
  O         2.2260654396        6.4928359693        2.3522101976
  O        -2.2931370001        6.3571023142        6.3020059848
      54
 i =      116, E =     -1444.3107706886
 Ni         3.0987587728        1.0812874402        9.1379515643
 Ni         0.8504723551       -0.1328876404        7.6064804636
 Ni        -1.4148497900       -0.9168535139        9.4417102913
 Ni        -1.4133716210        8.6302970392        3.9409991344
 Ni         0.8611577415        6.6624546466        3.6682013442
 Ni         3.1213195962        7.3937281609        5.5024726291
  H         2.7879238604        3.5578305021        6.1700015552
  H        -1.7472817522       11.1309892313        6.9371489922
  H        -1.7429597792        0.4404318929       13.1073806016
  H        -1.9653376344        4.2588616859        7.3787229926
  H         2.5741156204       -3.3108811888        5.7169061094
  H         2.5760900911        6.6008850029       -0.0121840894
  C         1.0890395357        2.7299043978        7.1801187175
  C        -1.1616074648       -2.6941084375        7.1185129992
  C         3.3638190090       -0.0330993891       11.8670816126
  C         3.3612399129       10.2910159862        5.8782571662
  C        -1.1709567834        7.5046408103        1.2425421541
  C         1.0911074244        4.8789202576        5.9688972321
  C         1.7512619705        3.7392908073        6.4582496766
  C        -2.7903766124       11.2722077055        6.6477062891
  C        -2.7842021356        0.1107606274       13.1056810448
  C        -0.2826328445        2.9513332782        7.5468479518
  C         4.2556496438       -2.5026682437        6.7696599977
  C         1.9881349646       -0.4572702764       11.8680051186
  C         1.9725560050       10.5007532777        5.5498744154
  C         4.2401097314        7.1221937899        1.2176474491
  C        -0.2886971279        5.0638523064        6.3242852344
  C        -1.1229434385        1.9593267080        8.2140988582
  C         3.3880814295       -1.4539821222        7.3116703222
  C         1.1149188416       -0.5239631367       10.6913740694
  C         1.0970532914        9.5113287388        4.9088606001
  C         3.3802996610        7.0596952776        2.4068741746
  C        -1.1519596239        6.1156857085        5.7832254140
  C        -0.9111897523        4.1226150963        7.1346525408
  C         3.6241787286       -3.4524389625        5.9709077393
  C         3.6221171316        6.9059984912       -0.0088617041
  O         1.8115765835        1.6356438397        7.4564696169
  O        -0.4711034117       -1.8778499154        7.9284684517
  O        -2.7609528708        0.2590593703       10.7379471572
  O        -2.7330879245        9.1852675973        5.5853323063
  O        -0.4713131114        7.8274099861        2.3447820981
  O         1.8068151155        5.6669699552        5.1475589768
  O        -0.7805458207        0.7053966885        8.2139547469
  O         3.7500499403       -0.8004755784        8.3695360237
  O         1.4938225137        0.0825852935        9.6113462711
  O         1.5238666195        8.2941658403        4.8245497859
  O         3.7890641425        7.6088209757        3.5043694235
  O        -0.7651292976        6.7809893823        4.7456773237
  O        -2.2679133511        2.3231807022        8.6284617574
  O         2.2463841801       -1.2372435208        6.7927573789
  O        -0.0201052822       -1.0932331087       10.7976181933
  O        -0.0224964668        9.9044566199        4.4327851977
  O         2.2557507045        6.4697696628        2.3087915407
  O        -2.2737498214        6.3154161749        6.3488311259
      54
 i =      117, E =     -1444.3565299967
 Ni         3.0699941469        1.1025442451        9.1878849982
 Ni         0.8056995275       -0.1291025025        7.5661225043
 Ni        -1.4552416167       -0.9474542421        9.4550617243
 Ni        -1.4577644768        8.6604511531        3.9165395614
 Ni         0.8101228190        6.6232369320        3.6496368132
 Ni         3.0751240073        7.4028137246        5.5364384832
  H         2.7985864502        3.5577002426        6.1630401761
  H        -1.7378217002       11.1229517755        6.9396087018
  H        -1.7379952401        0.4487965438       13.1092230634
  H        -1.9518622160        4.2622270417        7.3833336951
  H         2.5822335967       -3.3085844999        5.7104299523
  H         2.5827376534        6.5964652585       -0.0121044602
  C         1.1036837254        2.7268237673        7.1973644311
  C        -1.1646907056       -2.6878630258        7.1310408677
  C         3.3744912367       -0.0385587936       11.8554922071
  C         3.3706972611       10.2829390271        5.8942500126
  C        -1.1687688014        7.5291535150        1.2447525683
  C         1.1005637144        4.8787359119        5.9587980657
  C         1.7569754044        3.7229451344        6.4369432843
  C        -2.7800844599       11.2768850825        6.6595973959
  C        -2.7789994713        0.1254611302       13.1015524180
  C        -0.2770066935        2.9433076084        7.5423469127
  C         4.2505898445       -2.5040140253        6.7760093060
  C         1.9889113587       -0.4399749524       11.8717277712
  C         1.9812262769       10.4969313524        5.5630638037
  C         4.2459165594        7.1315514773        1.2174084145
  C        -0.2846173604        5.0549904099        6.3126756812
  C        -1.1414894089        1.9396608057        8.1782402066
  C         3.3827939679       -1.4533963569        7.3342279254
  C         1.1219974280       -0.4941583356       10.6824768051
  C         1.1236319114        9.5040942872        4.8933086310
  C         3.3862015936        7.0614196230        2.4128051925
  C        -1.1472381733        6.1184502467        5.7736126742
  C        -0.9041404097        4.1126945408        7.1245437159
  C         3.6265508858       -3.4581689590        5.9798631734
  C         3.6277845707        6.9040388841       -0.0066634563
  O         1.7943236778        1.6087814692        7.5149940083
  O        -0.4873410569       -1.8288506421        7.9271022102
  O        -2.7478211230        0.2290595242       10.7081101904
  O        -2.7496059716        9.1641349298        5.5364367173
  O        -0.4949857965        7.7972520615        2.3900104175
  O         1.7852705281        5.7251286411        5.1502163377
  O        -0.7701632653        0.7012403194        8.1848371535
  O         3.7665943879       -0.8171868421        8.3883247242
  O         1.5033380306        0.1121943842        9.6082288115
  O         1.5252041570        8.2819187472        4.8330010675
  O         3.7956966816        7.6186144840        3.4997227113
  O        -0.7474098612        6.7763027890        4.7408648820
  O        -2.2793562968        2.2816061160        8.6536178952
  O         2.2382414906       -1.2110115959        6.8105518949
  O        -0.0118319036       -1.0848983183       10.7474233735
  O        -0.0205619655        9.8573351462        4.4374530508
  O         2.2444502372        6.4863788240        2.3406921065
  O        -2.2842247690        6.3433540990        6.3153458159
      54
 i =      118, E =     -1444.3548877607
 Ni         3.0360751170        1.1221056353        9.2365234921
 Ni         0.7602479272       -0.1466080815        7.5112513490
 Ni        -1.5081170916       -0.9746520723        9.4649824628
 Ni        -1.5111322998        8.6886229746        3.8734780702
 Ni         0.7515913530        6.5683593030        3.6230979997
 Ni         3.0153912265        7.4296304854        5.5794270820
  H         2.8099250573        3.5571158573        6.1524541106
  H        -1.7250522429       11.1202897054        6.9414526976
  H        -1.7248149609        0.4577160159       13.1107122659
  H        -1.9425973218        4.2620091883        7.3849565220
  H         2.5824787458       -3.3090288409        5.7093321272
  H         2.5877378667        6.5958134604       -0.0129506171
  C         1.1113593662        2.7184529146        7.2019962741
  C        -1.1613311974       -2.6778820745        7.1240362543
  C         3.3828868565       -0.0428735320       11.8523636819
  C         3.3821290623       10.2833807400        5.8890453258
  C        -1.1664966015        7.5287109922        1.2393502348
  C         1.1076853783        4.8711115941        5.9468518036
  C         1.7712943621        3.7172498139        6.4386012858
  C        -2.7673075922       11.2771506839        6.6666346136
  C        -2.7641145434        0.1342849165       13.0988270323
  C        -0.2757017684        2.9354152761        7.5371314959
  C         4.2406833073       -2.5222154258        6.7988307768
  C         1.9906409578       -0.4259875384       11.8688851204
  C         1.9909918338       10.4965467593        5.5624895969
  C         4.2464212256        7.1400146913        1.2151413314
  C        -0.2780738690        5.0509137161        6.3074732036
  C        -1.1491379570        1.9159629732        8.1551850040
  C         3.3846287346       -1.4528894106        7.3541004301
  C         1.1289327328       -0.4622556696       10.6678376762
  C         1.1263323053        9.4797021939        4.9223510258
  C         3.3927037495        7.0799970816        2.4208180572
  C        -1.1347841529        6.1233076678        5.7559635697
  C        -0.9027855878        4.0987347684        7.1046696962
  C         3.6253129312       -3.4645861136        5.9834189507
  C         3.6290076331        6.9155770409       -0.0095230988
  O         1.7665421258        1.5821382212        7.6034853773
  O        -0.5145101289       -1.7990137797        7.9440840272
  O        -2.7434170805        0.2109428260       10.6856347158
  O        -2.7481969500        9.1466500696        5.5189704220
  O        -0.5177659801        7.7703691625        2.4185085976
  O         1.7640048678        5.7872574519        5.1633625128
  O        -0.7671422370        0.6846962407        8.1121600063
  O         3.7619237661       -0.8720518971        8.4402673807
  O         1.4883431948        0.1913150973        9.6147432095
  O         1.5158043489        8.2571979100        4.8642907304
  O         3.7885695919        7.6608669947        3.4945669943
  O        -0.7347275600        6.7502698303        4.7051758198
  O        -2.2915919025        2.2282667721        8.6603556515
  O         2.2429636999       -1.1868106853        6.8205866665
  O        -0.0079879954       -1.0624313651       10.6864194133
  O        -0.0162155630        9.7977583711        4.4196656431
  O         2.2416967083        6.5059853145        2.3920308313
  O        -2.2920030763        6.3871049312        6.2546801041
      54
 i =      119, E =     -1444.3631536946
 Ni         3.0496857362        1.1175021836        9.2118010135
 Ni         0.7859518637       -0.1403747305        7.5380703502
 Ni        -1.4800162634       -0.9684786655        9.4635707350
 Ni        -1.4846151927        8.6780531880        3.8925465548
 Ni         0.7857230328        6.5950838932        3.6341597465
 Ni         3.0485123707        7.4130838844        5.5635562396
  H         2.8052952352        3.5612876126        6.1605013582
  H        -1.7332463500       11.1221847263        6.9379675142
  H        -1.7321728987        0.4493714341       13.1094668175
  H        -1.9482771046        4.2592163666        7.3795358292
  H         2.5792694787       -3.3134539047        5.7171907591
  H         2.5828004971        6.6038557265       -0.0138489719
  C         1.1131179372        2.7286990164        7.2115589162
  C        -1.1671726627       -2.6888887493        7.1363798654
  C         3.3800999233       -0.0425846544       11.8522463642
  C         3.3763052952       10.2864598975        5.8880127340
  C        -1.1667613497        7.5275975031        1.2406235729
  C         1.1089828016        4.8815301166        5.9642066469
  C         1.7638460834        3.7200889072        6.4375773454
  C        -2.7713247413       11.2852136639        6.6494447085
  C        -2.7706952471        0.1208210952       13.0988506661
  C        -0.2745813328        2.9397327854        7.5407827908
  C         4.2482760137       -2.5093931615        6.7798129985
  C         1.9921392053       -0.4351860435       11.8704288455
  C         1.9850612672       10.4939813387        5.5613218393
  C         4.2474892984        7.1364410397        1.2162322767
  C        -0.2802512494        5.0534447858        6.3087924242
  C        -1.1511389619        1.9195919942        8.1458470753
  C         3.3816552065       -1.4652801468        7.3612375997
  C         1.1201317155       -0.4612123855       10.6808685051
  C         1.1259400635        9.4895524324        4.9039985857
  C         3.3891585336        7.0796179202        2.4151385990
  C        -1.1428324566        6.1134206854        5.7539250075
  C        -0.9019790637        4.1069631765        7.1156796116
  C         3.6251827323       -3.4641701963        5.9829001356
  C         3.6287080078        6.9096285316       -0.0080059984
  O         1.7806910272        1.5934105874        7.5549756519
  O        -0.5014173827       -1.8156061926        7.9377770335
  O        -2.7458450477        0.2235078028       10.6955479573
  O        -2.7522717340        9.1562043149        5.5255190003
  O        -0.5069134090        7.7806456667        2.4042775068
  O         1.7752046775        5.7542866179        5.1560775983
  O        -0.7839954217        0.6826757345        8.1122958286
  O         3.7496214336       -0.8757388626        8.4485237225
  O         1.4786747374        0.1933160060        9.6279696019
  O         1.5083165616        8.2578994771        4.8906563678
  O         3.7772055812        7.6819837006        3.4855955214
  O        -0.7462196690        6.7382745873        4.6988861767
  O        -2.2803926354        2.2504497615        8.6599397120
  O         2.2512328380       -1.1914122831        6.8160425781
  O        -0.0049557829       -1.0775638367       10.7115019599
  O        -0.0157306682        9.8243901845        4.4219180261
  O         2.2500607747        6.4923591303        2.3697275309
  O        -2.2818659374        6.3719379956        6.2843093467
      54
 i =      120, E =     -1444.3643506459
 Ni         3.0545633619        1.1155867469        9.1985511549
 Ni         0.7928206678       -0.1503868348        7.5390209492
 Ni        -1.4711325284       -0.9684474977        9.4677539888
 Ni        -1.4704995893        8.6754410189        3.9022764017
 Ni         0.8050476979        6.6036702402        3.6363792274
 Ni         3.0603721069        7.4045815896        5.5525689587
  H         2.8040553550        3.5646532135        6.1649152125
  H        -1.7351320431       11.1253566826        6.9305459380
  H        -1.7326227445        0.4412181765       13.1074327868
  H        -1.9498988135        4.2557051789        7.3732662600
  H         2.5752329633       -3.3172243504        5.7238491707
  H         2.5802921118        6.6109364892       -0.0136887779
  C         1.1117181707        2.7260652965        7.2066271839
  C        -1.1599391847       -2.6831165704        7.1254364059
  C         3.3807518261       -0.0471366079       11.8521424525
  C         3.3773882109       10.2881937711        5.8790508342
  C        -1.1619605566        7.5228493764        1.2431627739
  C         1.1082293256        4.8795618859        5.9620856850
  C         1.7659044656        3.7282936611        6.4519756273
  C        -2.7755575623       11.2821342921        6.6488261975
  C        -2.7725225732        0.1169065999       13.0992526101
  C        -0.2746603525        2.9374976344        7.5398838917
  C         4.2492957447       -2.5143443925        6.7899144646
  C         1.9912784976       -0.4345911592       11.8695545580
  C         1.9870901754       10.5011741860        5.5552064718
  C         4.2527943084        7.1313372185        1.2152785358
  C        -0.2772131799        5.0580202726        6.3160640147
  C        -1.1489091859        1.9203361699        8.1493656665
  C         3.3861518406       -1.4686595624        7.3638083850
  C         1.1204916110       -0.4598211813       10.6817398979
  C         1.1216794871        9.4902910918        4.9203680138
  C         3.3864996777        7.0905370102        2.4059479791
  C        -1.1458638146        6.1067647176        5.7535416555
  C        -0.8993995421        4.1097419964        7.1216148574
  C         3.6254886617       -3.4585366182        5.9791804401
  C         3.6297221974        6.9064090057       -0.0078622444
  O         1.7842610744        1.5923194880        7.5370453583
  O        -0.4987611702       -1.8300656641        7.9471975505
  O        -2.7469923895        0.2385886096       10.7026698563
  O        -2.7543428460        9.1561456151        5.5275452502
  O        -0.4995511433        7.7878036917        2.3999391059
  O         1.7820118719        5.7441510314        5.1557773505
  O        -0.7904723751        0.6787107186        8.1002661022
  O         3.7419074214       -0.8911691046        8.4642204933
  O         1.4642718885        0.2133499794        9.6332263776
  O         1.4921266448        8.2528949559        4.9283717507
  O         3.7620712526        7.7152380236        3.4712347585
  O        -0.7578058951        6.7168680025        4.6838655946
  O        -2.2787258093        2.2627223658        8.6501108556
  O         2.2590177284       -1.1995094193        6.8162776160
  O        -0.0005521169       -1.0799981390       10.7224982553
  O        -0.0091614313        9.8359179970        4.4232657959
  O         2.2571363194        6.4880399018        2.3534093750
  O        -2.2810913443        6.3569392806        6.2941224314
      54
 i =      121, E =     -1444.3667317894
 Ni         3.0485137214        1.1187908228        9.1996396118
 Ni         0.7920462190       -0.1598999963        7.5304027261
 Ni        -1.4763659293       -0.9801206137        9.4693512705
 Ni        -1.4755900082        8.6818666468        3.8922963913
 Ni         0.8014414158        6.5973410874        3.6390558033
 Ni         3.0546280241        7.4070289497        5.5510760747
  H         2.8090181215        3.5686676892        6.1707328691
  H        -1.7306981135       11.1265814016        6.9238160553
  H        -1.7272528846        0.4348890797       13.1048682608
  H        -1.9512773745        4.2523747084        7.3682107145
  H         2.5741946800       -3.3206262433        5.7323395650
  H         2.5810235046        6.6196701826       -0.0131157294
  C         1.1139008363        2.7229494761        7.2060821469
  C        -1.1608422729       -2.6922345077        7.1340538074
  C         3.3810091413       -0.0380890971       11.8529817570
  C         3.3787126894       10.2883080089        5.8775995150
  C        -1.1583719326        7.5194102779        1.2418860729
  C         1.1143307453        4.8822969572        5.9692745521
  C         1.7705373025        3.7293934607        6.4582999831
  C        -2.7690187018       11.2861777188        6.6374026049
  C        -2.7662272630        0.1081690693       13.0991870690
  C        -0.2724723611        2.9358213807        7.5405190786
  C         4.2539383944       -2.5110794068        6.7879597861
  C         1.9953189037       -0.4378381165       11.8653259659
  C         1.9909223668       10.5050937685        5.5481620682
  C         4.2565147033        7.1276440358        1.2139346568
  C        -0.2730365707        5.0587332983        6.3200764135
  C        -1.1497656988        1.9128691146        8.1379265535
  C         3.3828847064       -1.4828072546        7.3809503415
  C         1.1165663673       -0.4434407619       10.6830411592
  C         1.1189887643        9.4876190585        4.9341738460
  C         3.3863731343        7.1051015119        2.4010284087
  C        -1.1446696100        6.0990430085        5.7456490302
  C        -0.8983624324        4.1088987501        7.1233737223
  C         3.6269828971       -3.4582490575        5.9811948874
  C         3.6331639880        6.9066329696       -0.0107312754
  O         1.7892334153        1.5865947891        7.5265432997
  O        -0.4952149563       -1.8389187498        7.9531697004
  O        -2.7445615608        0.2489804609       10.7053837632
  O        -2.7507116852        9.1568454567        5.5280117665
  O        -0.4954413061        7.7925513589        2.3959851920
  O         1.7890398460        5.7363940922        5.1525850726
  O        -0.7984693001        0.6704980022        8.0759993249
  O         3.7297424473       -0.9138655969        8.4872601017
  O         1.4506644459        0.2451120846        9.6430694815
  O         1.4701255285        8.2441869795        4.9729839749
  O         3.7393635988        7.7643609912        3.4555124422
  O        -0.7863557412        6.6859852361        4.6503891064
  O        -2.2777631960        2.2586143236        8.6421107558
  O         2.2661567266       -1.2021565255        6.8180086754
  O         0.0013535026       -1.0747787752       10.7217611490
  O        -0.0065830443        9.8305486423        4.4248256867
  O         2.2609931804        6.4945568471        2.3608742134
  O        -2.2812854933        6.3555766415        6.2809733036
      54
 i =      122, E =     -1444.3681957531
 Ni         3.0258683292        1.1325335054        9.2100842147
 Ni         0.7829733167       -0.1606393527        7.4974240588
 Ni        -1.4915119537       -1.0054677743        9.4786935674
 Ni        -1.4943886385        8.7039853912        3.8671624254
 Ni         0.7830445882        6.5811095644        3.6300486054
 Ni         3.0342593845        7.4154697648        5.5608988757
  H         2.8276370097        3.5783422377        6.1912605821
  H        -1.7129646797       11.1301419347        6.9006421119
  H        -1.7085494918        0.4151599703       13.0984123325
  H        -1.9473650276        4.2410979888        7.3533432770
  H         2.5761850959       -3.3306525806        5.7590651099
  H         2.5867534454        6.6452810204       -0.0142539112
  C         1.1260243343        2.7183807126        7.2112960530
  C        -1.1581842892       -2.7069543067        7.1485109225
  C         3.3881656785       -0.0272077243       11.8505481118
  C         3.3898916222       10.2957253852        5.8612472981
  C        -1.1481804184        7.5073326509        1.2341881846
  C         1.1324961689        4.8916129665        5.9909834607
  C         1.7850117066        3.7290407825        6.4680898485
  C        -2.7508186544       11.2936680051        6.6168424221
  C        -2.7483001733        0.0926934166       13.0953551782
  C        -0.2640131051        2.9301841651        7.5355063291
  C         4.2600824255       -2.5152312688        6.7991355035
  C         2.0044622642       -0.4291661197       11.8586269551
  C         1.9994001777       10.5026501325        5.5410330601
  C         4.2650252833        7.1232360344        1.2147862472
  C        -0.2604784752        5.0670562129        6.3279679886
  C        -1.1565107434        1.8886034136        8.0881487966
  C         3.3760899024       -1.5145590688        7.4244243957
  C         1.1118881316       -0.3907697888       10.6856317069
  C         1.1133060563        9.4718087268        4.9719782070
  C         3.3812835751        7.1635925149        2.3927354820
  C        -1.1566494101        6.0610320969        5.6959880572
  C        -0.8892462541        4.1073021559        7.1221849360
  C         3.6375746840       -3.4596455334        5.9807101083
  C         3.6465377836        6.9047687500       -0.0150729401
  O         1.8104933548        1.5746233260        7.5104894560
  O        -0.4877135554       -1.8504891049        7.9705976991
  O        -2.7445272623        0.2721216805       10.7001366211
  O        -2.7391518511        9.1561284277        5.5282813956
  O        -0.4945548319        7.8082435324        2.3883253862
  O         1.8002443361        5.7252416702        5.1401362292
  O        -0.8441212118        0.6404950967        7.9569085684
  O         3.6794210092       -1.0200035955        8.5890133886
  O         1.4055711620        0.3776891032        9.6848531557
  O         1.4115856832        8.2120241376        5.1338951763
  O         3.6875139967        7.9130583903        3.4104954877
  O        -0.8458901749        6.5858365881        4.5501287192
  O        -2.2716375316        2.2331149974        8.6336318084
  O         2.2749960509       -1.2064349393        6.8396489076
  O         0.0102170957       -1.0491056534       10.7130678271
  O         0.0001268931        9.8065864802        4.4326387382
  O         2.2726148262        6.5165902159        2.3857545454
  O        -2.2764759369        6.3691691487        6.2533865493
      54
 i =      123, E =     -1444.3699464418
 Ni         3.0316814572        1.1311054298        9.2044845525
 Ni         0.7866435412       -0.1596796639        7.5103359042
 Ni        -1.4912374827       -0.9878319228        9.4696341025
 Ni        -1.4907050520        8.6956986326        3.8706211869
 Ni         0.7828585648        6.5813725709        3.6317621002
 Ni         3.0401143240        7.4111220187        5.5597499497
  H         2.8270808541        3.5767292549        6.1924510086
  H        -1.7118704823       11.1317538318        6.8985320509
  H        -1.7088259626        0.4140724854       13.0990830994
  H        -1.9407758787        4.2400814704        7.3545764132
  H         2.5806341284       -3.3277297199        5.7544800259
  H         2.5885682735        6.6396236323       -0.0158223726
  C         1.1282744502        2.7219741371        7.2102819773
  C        -1.1519802835       -2.6989852221        7.1423208295
  C         3.3916582651       -0.0345931205       11.8477841516
  C         3.3919861490       10.2947134365        5.8618983100
  C        -1.1484582949        7.5149736832        1.2353474330
  C         1.1277636991        4.8873046620        5.9793171674
  C         1.7851491217        3.7328818075        6.4676589526
  C        -2.7538504607       11.2900935110        6.6256212502
  C        -2.7511936843        0.0991655365       13.0941942903
  C        -0.2634275239        2.9265807336        7.5290472462
  C         4.2617451960       -2.5202431579        6.8007328845
  C         2.0049374164       -0.4252622963       11.8648974580
  C         2.0010032070       10.5008866217        5.5430058733
  C         4.2646237847        7.1286666463        1.2169702791
  C        -0.2637739898        5.0626687997        6.3173718474
  C        -1.1561409220        1.8929335328        8.0896385548
  C         3.3687548110       -1.5245312210        7.4217416595
  C         1.1112466416       -0.3889383304       10.6932789127
  C         1.1068537001        9.4670071740        4.9878055091
  C         3.3762133765        7.1603513398        2.3918051079
  C        -1.1542193322        6.0670442588        5.7015319930
  C        -0.8833211880        4.1084931068        7.1240224519
  C         3.6385243908       -3.4622264937        5.9821856695
  C         3.6448337391        6.9073864432       -0.0113023815
  O         1.8008777464        1.5748518996        7.5193859168
  O        -0.4885717706       -1.8487005555        7.9748391341
  O        -2.7479292368        0.2708155325       10.6958300782
  O        -2.7413501019        9.1522582144        5.5322164897
  O        -0.4893240254        7.8091470777        2.3878475218
  O         1.7986850990        5.7312337019        5.1432407995
  O        -0.8417000124        0.6484151436        7.9557222452
  O         3.6787215373       -1.0143295920        8.5674111093
  O         1.4174164961        0.3632467845        9.6918049115
  O         1.4253674515        8.2207373214        5.1172538804
  O         3.6871942095        7.9041776016        3.4068033312
  O        -0.8389994682        6.5849936418        4.5577036456
  O        -2.2719039573        2.2300971071        8.6330082088
  O         2.2679706284       -1.2043980758        6.8405269430
  O         0.0072233678       -1.0444956502       10.7058853826
  O         0.0007322827        9.8059061100        4.4326724049
  O         2.2651581057        6.5185093668        2.3825799499
  O        -2.2762818836        6.3648756732        6.2517620868
      54
 i =      124, E =     -1444.3707309493
 Ni         3.0414078505        1.1354794698        9.2086136986
 Ni         0.7908804739       -0.1583602545        7.5137765252
 Ni        -1.4877382246       -0.9753493013        9.4649136838
 Ni        -1.4862856730        8.6925067366        3.8698265032
 Ni         0.7864983853        6.5780510141        3.6311086321
 Ni         3.0488745358        7.4075835244        5.5619789786
  H         2.8292602224        3.5785442800        6.1972750431
  H        -1.7085081169       11.1349210450        6.8933523969
  H        -1.7064095679        0.4102546306       13.0990097189
  H        -1.9361028534        4.2396294629        7.3571204361
  H         2.5850617105       -3.3271300365        5.7515670186
  H         2.5912281692        6.6349960690       -0.0166484092
  C         1.1276957094        2.7180343032        7.2033009867
  C        -1.1502892568       -2.6973745281        7.1449611000
  C         3.3905041993       -0.0303850761       11.8460710726
  C         3.3927111175       10.2898148885        5.8697292193
  C        -1.1480508803        7.5230790932        1.2357705497
  C         1.1275236885        4.8822131846        5.9681199854
  C         1.7868881939        3.7348997219        6.4713478858
  C        -2.7527960687       11.2917749278        6.6254608554
  C        -2.7511807502        0.1012810168       13.0922751348
  C        -0.2605642399        2.9284994720        7.5302451081
  C         4.2618754452       -2.5235627892        6.8035545978
  C         2.0057578132       -0.4258461935       11.8685951044
  C         2.0024909470       10.4986747352        5.5509326853
  C         4.2649744937        7.1337559011        1.2182292750
  C        -0.2610703865        5.0601795245        6.3123902331
  C        -1.1537796737        1.8908665079        8.0828522639
  C         3.3691540039       -1.5239517742        7.4167747495
  C         1.1174152780       -0.3858925632       10.6941369435
  C         1.1134931290        9.4668532617        4.9880660556
  C         3.3696829348        7.1655441568        2.3889222573
  C        -1.1523827976        6.0622342462        5.6955937265
  C        -0.8825270082        4.1056348584        7.1166286551
  C         3.6401520548       -3.4635021367        5.9842773257
  C         3.6436616797        6.9128992187       -0.0086214777
  O         1.7979625066        1.5739523666        7.5316000671
  O        -0.4906958417       -1.8470809365        7.9800446079
  O        -2.7451842416        0.2652113640       10.6938026236
  O        -2.7384904679        9.1487369549        5.5390641876
  O        -0.4833137284        7.8107774538        2.3870027252
  O         1.8000464519        5.7342122222        5.1423633066
  O        -0.8440211283        0.6490062848        7.9339339715
  O         3.6627224495       -1.0337063598        8.5761575208
  O         1.4171950431        0.3835016075        9.7025355861
  O         1.4294937713        8.2242569735        5.1291443565
  O         3.6748265671        7.9208547896        3.3934761565
  O        -0.8358990658        6.5672046596        4.5515037676
  O        -2.2685746467        2.2234149372        8.6238100891
  O         2.2615760064       -1.2126736134        6.8486724181
  O         0.0081112667       -1.0284663821       10.6998753928
  O         0.0026027714        9.8021988207        4.4449853133
  O         2.2598714925        6.5215938192        2.3752681371
  O        -2.2717221831        6.3596503483        6.2456946197
      54
 i =      125, E =     -1444.3712240104
 Ni         3.0426991160        1.1386366990        9.2087404322
 Ni         0.7900015890       -0.1571992194        7.5121443204
 Ni        -1.4865029037       -0.9676628227        9.4688712778
 Ni        -1.4839070944        8.6980317230        3.8762394400
 Ni         0.7911906891        6.5770070140        3.6234934747
 Ni         3.0493329578        7.4101411445        5.5648420970
  H         2.8340240587        3.5800947461        6.2004493635
  H        -1.7046643371       11.1375636165        6.8911435117
  H        -1.7047538652        0.4088888133       13.0988302735
  H        -1.9344460025        4.2415183950        7.3590586085
  H         2.5895070111       -3.3269421921        5.7476117049
  H         2.5942519317        6.6317259996       -0.0157342947
  C         1.1298492487        2.7183621881        7.2074704298
  C        -1.1514053231       -2.6950098399        7.1452760461
  C         3.3923351440       -0.0328239873       11.8456824762
  C         3.3935138273       10.2882160263        5.8779763775
  C        -1.1482018230        7.5250557649        1.2370123740
  C         1.1305218570        4.8812102723        5.9669122660
  C         1.7875579923        3.7290519063        6.4649636212
  C        -2.7516617520       11.2921165963        6.6314973717
  C        -2.7519615093        0.1072466754       13.0925813146
  C        -0.2606073943        2.9270892302        7.5283468256
  C         4.2600537134       -2.5209633558        6.8042254119
  C         2.0055250573       -0.4227887271       11.8656151705
  C         2.0046750462       10.4979191347        5.5560609255
  C         4.2632769643        7.1390430168        1.2167946926
  C        -0.2597160796        5.0571248927        6.3081072093
  C        -1.1527859162        1.8871226972        8.0799754493
  C         3.3674535590       -1.5230904770        7.4234582883
  C         1.1175709847       -0.3772736728       10.6908587155
  C         1.1188144491        9.4661586231        4.9894296199
  C         3.3692011715        7.1720338613        2.3899782976
  C        -1.1515182306        6.0591517731        5.6891078646
  C        -0.8822518885        4.1043767368        7.1140240203
  C         3.6433985574       -3.4626774109        5.9846619226
  C         3.6469233576        6.9102584820       -0.0108333873
  O         1.7990516163        1.5716858534        7.5286590350
  O        -0.4964898129       -1.8435758661        7.9821795500
  O        -2.7450164295        0.2650370600       10.6922469545
  O        -2.7367299602        9.1473775551        5.5499160084
  O        -0.4876601208        7.8134329759        2.3908197232
  O         1.7986086146        5.7317946282        5.1358289353
  O        -0.8508936045        0.6437911163        7.9187635289
  O         3.6679428568       -1.0311958300        8.5745482743
  O         1.4202415354        0.3830211842        9.6990856742
  O         1.4308462357        8.2257066425        5.1265669026
  O         3.6726979044        7.9287835764        3.3903458876
  O        -0.8293641073        6.5619163942        4.5490740418
  O        -2.2678333225        2.2179671664        8.6184066666
  O         2.2591230754       -1.2165460511        6.8542367215
  O         0.0099803717       -1.0218668706       10.6937656063
  O         0.0066391134        9.8035166232        4.4507271128
  O         2.2633342220        6.5197834080        2.3681257633
  O        -2.2698388900        6.3601465540        6.2400409512
      54
 i =      126, E =     -1444.3714859799
 Ni         3.0415576747        1.1417502064        9.2039785749
 Ni         0.7867135305       -0.1527253691        7.5109263846
 Ni        -1.4875758542       -0.9728025907        9.4682268397
 Ni        -1.4849582345        8.7029217357        3.8842484546
 Ni         0.7966351053        6.5804730247        3.6173269416
 Ni         3.0477731087        7.4097352725        5.5677780165
  H         2.8384260034        3.5793988347        6.2012901620
  H        -1.7015074516       11.1420424213        6.8930410920
  H        -1.7038241996        0.4100710427       13.0990573339
  H        -1.9328691085        4.2431999606        7.3585105107
  H         2.5922115594       -3.3271385571        5.7426910813
  H         2.5958448076        6.6283249903       -0.0157560545
  C         1.1312111139        2.7175857555        7.2045066098
  C        -1.1527021817       -2.6943943894        7.1495173153
  C         3.3938154942       -0.0305326266       11.8444249864
  C         3.3943622274       10.2886203439        5.8859904788
  C        -1.1489086690        7.5335319776        1.2375381776
  C         1.1303678991        4.8775321910        5.9600185661
  C         1.7909169125        3.7281284198        6.4623739434
  C        -2.7501328028       11.2928526653        6.6385564229
  C        -2.7505208852        0.1072820061       13.0924923319
  C        -0.2593632246        2.9229904266        7.5275179544
  C         4.2599362625       -2.5192089490        6.8041412537
  C         2.0052978327       -0.4197923280       11.8608164066
  C         2.0066484190       10.4971981605        5.5595163119
  C         4.2648994708        7.1400988878        1.2136562658
  C        -0.2592379695        5.0534345042        6.3058172359
  C        -1.1575935441        1.8824478125        8.0728595213
  C         3.3697993103       -1.5201376845        7.4278177965
  C         1.1176872283       -0.3786112330       10.6848361522
  C         1.1201224650        9.4665729550        4.9906068912
  C         3.3737267849        7.1764327828        2.3909606237
  C        -1.1470402656        6.0600427942        5.6859537071
  C        -0.8792350053        4.1034703347        7.1172693079
  C         3.6458027664       -3.4614457316        5.9835632349
  C         3.6487708223        6.9094190718       -0.0141985931
  O         1.8021884982        1.5711045339        7.5210674312
  O        -0.4943133811       -1.8397840732        7.9787129209
  O        -2.7429616350        0.2680522708       10.6895002984
  O        -2.7406289552        9.1431867339        5.5658221101
  O        -0.4914825103        7.8185329711        2.3944918673
  O         1.7996687549        5.7278211226        5.1286498690
  O        -0.8598498143        0.6392543521        7.9157632595
  O         3.6729185844       -1.0248651974        8.5741007121
  O         1.4211286337        0.3823679545        9.6935375999
  O         1.4329386005        8.2271938807        5.1226190266
  O         3.6735536209        7.9303520587        3.3919711236
  O        -0.8244653686        6.5602305370        4.5446164760
  O        -2.2684751154        2.2192860674        8.6184002221
  O         2.2566933414       -1.2205159518        6.8637476108
  O         0.0086003074       -1.0210792466       10.6872123327
  O         0.0073993073        9.8069552133        4.4508116753
  O         2.2704480387        6.5171664479        2.3663871221
  O        -2.2674151554        6.3605966365        6.2348855799
      54
 i =      127, E =     -1444.3716270295
 Ni         3.0394954314        1.1457318762        9.1995641894
 Ni         0.7848673846       -0.1551527421        7.5103010803
 Ni        -1.4857047653       -0.9715548021        9.4694983321
 Ni        -1.4859453235        8.7030101626        3.8885713852
 Ni         0.7943538556        6.5799357846        3.6156073706
 Ni         3.0457169558        7.4099006951        5.5683972103
  H         2.8407230979        3.5789099361        6.2023572171
  H        -1.7001714154       11.1462091169        6.8958698040
  H        -1.7015935463        0.4105767805       13.0980948880
  H        -1.9302222710        4.2432362595        7.3576194898
  H         2.5937571416       -3.3264100845        5.7403652796
  H         2.5975764894        6.6270672491       -0.0172198934
  C         1.1326956981        2.7152326202        7.2008771404
  C        -1.1497278302       -2.6932583839        7.1503149089
  C         3.3945301409       -0.0268322824       11.8433385738
  C         3.3939165594       10.2849127391        5.8936629058
  C        -1.1464607502        7.5347058274        1.2366929589
  C         1.1334047473        4.8771193286        5.9569815821
  C         1.7926421356        3.7273016150        6.4603551238
  C        -2.7491259898       11.2921837671        6.6411055025
  C        -2.7486617777        0.1099471038       13.0913783199
  C        -0.2579556353        2.9203613431        7.5232902539
  C         4.2627504583       -2.5185709921        6.8061239848
  C         2.0069998329       -0.4208376291       11.8591566384
  C         2.0085182104       10.4985901115        5.5603091177
  C         4.2663740449        7.1456646034        1.2127871043
  C        -0.2560003938        5.0524714794        6.3044989403
  C        -1.1594865100        1.8832395765        8.0696072687
  C         3.3703091937       -1.5223678087        7.4327288339
  C         1.1165970075       -0.3749856547       10.6835114846
  C         1.1198168366        9.4673936510        4.9930158011
  C         3.3771589044        7.1753781443        2.3913008389
  C        -1.1462251494        6.0555266804        5.6803121566
  C        -0.8760442570        4.1035114277        7.1170697624
  C         3.6471860380       -3.4596520468        5.9845556771
  C         3.6501267250        6.9105743943       -0.0149765121
  O         1.8028285144        1.5681030493        7.5172776134
  O        -0.4934574011       -1.8386767463        7.9805169455
  O        -2.7426647455        0.2713472104       10.6872315986
  O        -2.7420803267        9.1384080034        5.5735396152
  O        -0.4922936160        7.8267355197        2.3937914624
  O         1.8030579987        5.7264966602        5.1239279907
  O        -0.8628281379        0.6403260233        7.9103848445
  O         3.6710701970       -1.0288229782        8.5822170952
  O         1.4200670824        0.3871350989        9.6925551007
  O         1.4289123275        8.2256774449        5.1275362022
  O         3.6707537988        7.9385954611        3.3897752184
  O        -0.8263993896        6.5540151320        4.5373752955
  O        -2.2696871068        2.2225201999        8.6165409224
  O         2.2548489087       -1.2264329392        6.8701603882
  O         0.0104675923       -1.0254577003       10.6849504770
  O         0.0065603807        9.8088820883        4.4513174165
  O         2.2716012390        6.5189849831        2.3699130640
  O        -2.2656568327        6.3628570168        6.2307942615
      54
 i =      128, E =     -1444.3716233687
 Ni         3.0393279103        1.1508528106        9.1981975420
 Ni         0.7839958635       -0.1597513461        7.5136068465
 Ni        -1.4828140222       -0.9671044585        9.4708803444
 Ni        -1.4856557240        8.6987439519        3.8947612551
 Ni         0.7932952016        6.5824830098        3.6146895043
 Ni         3.0443448779        7.4088651097        5.5681169944
  H         2.8412874020        3.5762174391        6.2000541217
  H        -1.7012136133       11.1500173275        6.9052610533
  H        -1.7008029724        0.4154901470       13.0964533546
  H        -1.9259500703        4.2454980290        7.3592851416
  H         2.5965833327       -3.3221651356        5.7346666247
  H         2.6001574503        6.6222780746       -0.0192486274
  C         1.1319662883        2.7103069462        7.1929196709
  C        -1.1466752533       -2.6913882697        7.1509212865
  C         3.3943995912       -0.0228722433       11.8431754439
  C         3.3929524033       10.2781988613        5.9042382262
  C        -1.1462129103        7.5408409025        1.2355736665
  C         1.1366983781        4.8763175992        5.9529479468
  C         1.7926332697        3.7242133500        6.4546446215
  C        -2.7498950869       11.2895482138        6.6469434587
  C        -2.7481509993        0.1169895747       13.0905800436
  C        -0.2563142599        2.9220875243        7.5197947159
  C         4.2655516369       -2.5173636521        6.8084853431
  C         2.0078578477       -0.4206883673       11.8598628947
  C         2.0089775272       10.4983469653        5.5658313751
  C         4.2680307080        7.1497115919        1.2138317877
  C        -0.2524134670        5.0534703024        6.3005381140
  C        -1.1583274600        1.8895279441        8.0726587119
  C         3.3711058797       -1.5212969583        7.4323728369
  C         1.1203032929       -0.3831171556       10.6809056158
  C         1.1212923266        9.4721033621        4.9869146946
  C         3.3784865720        7.1723076455        2.3922834328
  C        -1.1450380331        6.0556604183        5.6780078212
  C        -0.8741193257        4.1038993013        7.1102273565
  C         3.6487635438       -3.4568642047        5.9854008593
  C         3.6505930921        6.9133320944       -0.0137844509
  O         1.8019680406        1.5658282454        7.5187230813
  O        -0.4934087985       -1.8351848307        7.9806775702
  O        -2.7404276288        0.2711586816       10.6874044700
  O        -2.7445381287        9.1311716613        5.5791265852
  O        -0.4929123055        7.8336661168        2.3926970730
  O         1.8044279979        5.7286325007        5.1205348753
  O        -0.8552904783        0.6482235498        7.9261472913
  O         3.6756286274       -1.0165218635        8.5772181569
  O         1.4237045916        0.3753481249        9.6852170267
  O         1.4305265060        8.2273242790        5.1143735876
  O         3.6801399635        7.9192118079        3.3969601727
  O        -0.8237605403        6.5575146647        4.5362551556
  O        -2.2717528824        2.2309805270        8.6118473627
  O         2.2491163825       -1.2390072503        6.8756577676
  O         0.0123062419       -1.0310171839       10.6860193857
  O         0.0026580214        9.8139362552        4.4537962391
  O         2.2704484977        6.5188336512        2.3716282491
  O        -2.2643369201        6.3655485224        6.2300120723
      54
 i =      129, E =     -1444.3717905972
 Ni         3.0383147120        1.1563458651        9.1992067005
 Ni         0.7848434935       -0.1628576073        7.5161901940
 Ni        -1.4859882880       -0.9698798490        9.4699557583
 Ni        -1.4858522920        8.6972258464        3.8905344893
 Ni         0.7949457705        6.5821783906        3.6139234475
 Ni         3.0425758469        7.4092498790        5.5681848923
  H         2.8452259772        3.5755374079        6.2013509048
  H        -1.6986564114       11.1511934286        6.9076185105
  H        -1.6982002401        0.4157834055       13.0939359513
  H        -1.9211270048        4.2454023582        7.3571247508
  H         2.6004825217       -3.3194828403        5.7361741590
  H         2.6030672490        6.6236332592       -0.0207580122
  C         1.1343424443        2.7084102231        7.1890348434
  C        -1.1448121048       -2.6926218105        7.1539351549
  C         3.3976114151       -0.0217653550       11.8425769833
  C         3.3967482148       10.2767272321        5.9044004801
  C        -1.1466682043        7.5483624492        1.2343875477
  C         1.1399616043        4.8762311585        5.9518865261
  C         1.7956342281        3.7232478121        6.4519500456
  C        -2.7478851476       11.2878861394        6.6501162958
  C        -2.7463244903        0.1201521297       13.0901661575
  C        -0.2528847708        2.9243757688        7.5164828804
  C         4.2680697957       -2.5189179130        6.8115365423
  C         2.0106303085       -0.4155376017       11.8616279738
  C         2.0116204694       10.4963919283        5.5690233982
  C         4.2705264053        7.1493688099        1.2148649091
  C        -0.2499389901        5.0557069649        6.2947890360
  C        -1.1559784748        1.8896488763        8.0647603131
  C         3.3667421057       -1.5325579912        7.4407893941
  C         1.1232874893       -0.3786916789       10.6831160663
  C         1.1176348821        9.4705178723        4.9985611904
  C         3.3753715990        7.1833728496        2.3895680643
  C        -1.1450900566        6.0541959547        5.6702315703
  C        -0.8705908521        4.1049886787        7.1039156288
  C         3.6522140946       -3.4574900163        5.9865087282
  C         3.6529517433        6.9149215189       -0.0132467087
  O         1.8039111295        1.5635123260        7.5185075427
  O        -0.4909620253       -1.8354241055        7.9835070912
  O        -2.7385623267        0.2742621537       10.6870220902
  O        -2.7433522816        9.1270759706        5.5769291589
  O        -0.4891674786        7.8362959843        2.3904414874
  O         1.8067598834        5.7312554183        5.1198975338
  O        -0.8600943758        0.6463028533        7.9103464543
  O         3.6673303329       -1.0296168544        8.5876938646
  O         1.4188163928        0.3939027058        9.6937476742
  O         1.4246075506        8.2257107360        5.1336298973
  O         3.6751223341        7.9359070344        3.3908046637
  O        -0.8345150161        6.5358209323        4.5117713112
  O        -2.2705238907        2.2315197112        8.6016052990
  O         2.2457005900       -1.2478097904        6.8827763289
  O         0.0141988789       -1.0240468486       10.6838208002
  O         0.0025846925        9.8128184775        4.4563577452
  O         2.2705168637        6.5232283801        2.3716339579
  O        -2.2631759427        6.3666858478        6.2229979779
      54
 i =      130, E =     -1444.3719377698
 Ni         3.0424629704        1.1503933911        9.1948207310
 Ni         0.7864968282       -0.1593858604        7.5173790454
 Ni        -1.4870868057       -0.9734303242        9.4693461263
 Ni        -1.4843352354        8.6975618981        3.8852471100
 Ni         0.7953870813        6.5829534117        3.6146615055
 Ni         3.0458310227        7.4097185553        5.5674147510
  H         2.8443772481        3.5755846564        6.1984898698
  H        -1.6989002212       11.1449018037        6.9063538048
  H        -1.7005572615        0.4168975727       13.0951918636
  H        -1.9232581885        4.2461053927        7.3550860637
  H         2.6004831756       -3.3194183015        5.7395121471
  H         2.6022597303        6.6260767478       -0.0188009180
  C         1.1355180602        2.7144352757        7.1939755611
  C        -1.1490076078       -2.6957795812        7.1555986718
  C         3.3966501126       -0.0219426732       11.8434062769
  C         3.3975335150       10.2818027078        5.8963667235
  C        -1.1474288745        7.5445693074        1.2354621354
  C         1.1359226408        4.8756911014        5.9498567157
  C         1.7958846781        3.7261795922        6.4527426031
  C        -2.7474175293       11.2883708878        6.6485059673
  C        -2.7481480460        0.1180419335       13.0910377526
  C        -0.2536385563        2.9248585612        7.5164768856
  C         4.2642801878       -2.5214253258        6.8117895449
  C         2.0107056226       -0.4168769861       11.8608811797
  C         2.0102442926       10.4947214742        5.5667587913
  C         4.2676832624        7.1495922792        1.2134323377
  C        -0.2527490117        5.0570120686        6.2962987414
  C        -1.1541010794        1.8885055890        8.0647579176
  C         3.3676621895       -1.5294667332        7.4334624795
  C         1.1203586994       -0.3738600772       10.6856545939
  C         1.1176500524        9.4677364904        4.9992404113
  C         3.3779414731        7.1762994030        2.3906925662
  C        -1.1481435481        6.0545885153        5.6709795258
  C        -0.8716020171        4.1063723887        7.1072284496
  C         3.6518792862       -3.4605256031        5.9861125401
  C         3.6531748089        6.9127406624       -0.0149094351
  O         1.8038064853        1.5681008508        7.5192737450
  O        -0.4904196496       -1.8378280322        7.9818224081
  O        -2.7419216588        0.2722077146       10.6871838967
  O        -2.7406633120        9.1337540136        5.5690879279
  O        -0.4872769569        7.8335859325        2.3891384465
  O         1.8055763391        5.7334625164        5.1236913657
  O        -0.8591962092        0.6440554974        7.9149492375
  O         3.6702826794       -1.0311872178        8.5817203504
  O         1.4206868833        0.3903533062        9.6950366874
  O         1.4256859493        8.2245423358        5.1338191200
  O         3.6728992956        7.9366118683        3.3916153003
  O        -0.8362545615        6.5435388124        4.5194506018
  O        -2.2693848936        2.2312395819        8.5973578334
  O         2.2493575079       -1.2377622066        6.8744427155
  O         0.0137054617       -1.0224102583       10.6873936846
  O         0.0051606871        9.8104394110        4.4569420994
  O         2.2693501117        6.5272337655        2.3668270007
  O        -2.2634187462        6.3647984456        6.2274026638
      54
 i =      131, E =     -1444.3720732903
 Ni         3.0413935027        1.1553047154        9.1936879572
 Ni         0.7855979511       -0.1586865935        7.5168930522
 Ni        -1.4857394313       -0.9701455805        9.4699032843
 Ni        -1.4842351698        8.6975728894        3.8895996909
 Ni         0.7936613609        6.5847140430        3.6115342016
 Ni         3.0458099615        7.4087614281        5.5669574509
  H         2.8461617764        3.5755309763        6.1962829396
  H        -1.6980862328       11.1447813967        6.9098194178
  H        -1.6998730838        0.4199794559       13.0952194329
  H        -1.9214852213        4.2476749159        7.3533212600
  H         2.6020810589       -3.3185949938        5.7371960661
  H         2.6043666883        6.6246998304       -0.0191395217
  C         1.1374026213        2.7149146102        7.1913540648
  C        -1.1475539732       -2.6957897009        7.1569219740
  C         3.3963580660       -0.0193791341       11.8418848250
  C         3.3969071957       10.2793150515        5.9012667004
  C        -1.1452741962        7.5467204850        1.2345200719
  C         1.1381484886        4.8772528687        5.9468529511
  C         1.7972557180        3.7264103068        6.4489997643
  C        -2.7467753487       11.2868849456        6.6514036969
  C        -2.7476418536        0.1215860206       13.0891836544
  C        -0.2519788091        2.9236587894        7.5126901878
  C         4.2656943241       -2.5216721414        6.8125033997
  C         2.0105692363       -0.4158179760       11.8596959349
  C         2.0110917346       10.4949101492        5.5672940809
  C         4.2697472828        7.1513015148        1.2131103946
  C        -0.2517727419        5.0547763393        6.2918860876
  C        -1.1547742214        1.8894976214        8.0608425356
  C         3.3698773213       -1.5295001041        7.4358122250
  C         1.1206616217       -0.3736296367       10.6836992755
  C         1.1190589927        9.4673594569        4.9993066594
  C         3.3773674403        7.1812680393        2.3892874549
  C        -1.1472027599        6.0539672873        5.6689569371
  C        -0.8695632003        4.1066699858        7.1066409671
  C         3.6523691615       -3.4610239868        5.9878815458
  C         3.6545855617        6.9143504526       -0.0150529949
  O         1.8051336607        1.5686837141        7.5177655109
  O        -0.4905581905       -1.8375175844        7.9842114841
  O        -2.7413748726        0.2735417427       10.6859288416
  O        -2.7404676230        9.1312593953        5.5755742859
  O        -0.4886041454        7.8397172474        2.3891280681
  O         1.8068654087        5.7324501290        5.1171075327
  O        -0.8588478711        0.6456772183        7.9156487859
  O         3.6715844561       -1.0272295752        8.5821040955
  O         1.4215167509        0.3889191117        9.6922647643
  O         1.4240348708        8.2228795825        5.1358081556
  O         3.6748436377        7.9345073161        3.3923481232
  O        -0.8400449728        6.5404216849        4.5154292181
  O        -2.2711767548        2.2346661887        8.5887714122
  O         2.2496243536       -1.2418912089        6.8787160578
  O         0.0147133728       -1.0236859760       10.6864712763
  O         0.0062635078        9.8112832991        4.4585533088
  O         2.2705147106        6.5271725155        2.3676398529
  O        -2.2621652330        6.3651038840        6.2250959372
      54
 i =      132, E =     -1444.3721443085
 Ni         3.0382878306        1.1597670405        9.1937002283
 Ni         0.7861715485       -0.1596282242        7.5166707078
 Ni        -1.4858253552       -0.9689318090        9.4695851863
 Ni        -1.4847731682        8.6979598594        3.8893183828
 Ni         0.7907910387        6.5851708728        3.6097625048
 Ni         3.0449477068        7.4076415993        5.5667816602
  H         2.8479279839        3.5762717503        6.1919287004
  H        -1.6981123345       11.1427069781        6.9143755599
  H        -1.6993113125        0.4248668666       13.0942437909
  H        -1.9189399284        4.2490425914        7.3509857930
  H         2.6035142017       -3.3187343780        5.7364765164
  H         2.6055422289        6.6243759985       -0.0196124242
  C         1.1379627527        2.7149632658        7.1867997052
  C        -1.1458123508       -2.6966159541        7.1583666232
  C         3.3976057110       -0.0175996662       11.8403885021
  C         3.3969597962       10.2769784595        5.9040378625
  C        -1.1449058249        7.5511901394        1.2331240880
  C         1.1401426490        4.8779008183        5.9431596965
  C         1.7992815093        3.7270728001        6.4461520228
  C        -2.7464283930       11.2846512819        6.6540464907
  C        -2.7466711667        0.1250996589       13.0878763420
  C        -0.2502181413        2.9257566732        7.5099958873
  C         4.2674149106       -2.5223799253        6.8141209998
  C         2.0110316389       -0.4126422759       11.8595862819
  C         2.0116197713       10.4938989463        5.5690172923
  C         4.2707509194        7.1533310176        1.2129926966
  C        -0.2494604081        5.0573169636        6.2887685862
  C        -1.1538382656        1.8905188861        8.0559514450
  C         3.3694158505       -1.5320151045        7.4387194434
  C         1.1223743151       -0.3762464377       10.6826722134
  C         1.1188456678        9.4660716139        5.0012924005
  C         3.3777282185        7.1827530740        2.3889660516
  C        -1.1500288430        6.0526808164        5.6645555053
  C        -0.8682706581        4.1070988043        7.1000703505
  C         3.6536429363       -3.4610280514        5.9885892286
  C         3.6552622660        6.9161028587       -0.0151435439
  O         1.8056574292        1.5695782029        7.5169810063
  O        -0.4902722649       -1.8372108808        7.9861761685
  O        -2.7397688841        0.2760536853       10.6849684694
  O        -2.7412781224        9.1289512679        5.5754352745
  O        -0.4876643150        7.8450490142        2.3872198558
  O         1.8076427064        5.7338495264        5.1131969513
  O        -0.8564407812        0.6463798422        7.9155002728
  O         3.6721479010       -1.0239865232        8.5815512623
  O         1.4211122977        0.3884400659        9.6910521038
  O         1.4214183520        8.2202553017        5.1418646584
  O         3.6751163271        7.9355047620        3.3931345598
  O        -0.8482219826        6.5377130127        4.5094313696
  O        -2.2712885419        2.2346019566        8.5833495716
  O         2.2508792896       -1.2436066050        6.8772523168
  O         0.0153973873       -1.0243582464       10.6859950050
  O         0.0073314630        9.8107713916        4.4578879366
  O         2.2700644251        6.5297813025        2.3680262963
  O        -2.2622403897        6.3658835489        6.2256935141
      54
 i =      133, E =     -1444.3722115047
 Ni         3.0369287309        1.1621938014        9.1916204987
 Ni         0.7867235717       -0.1594566063        7.5160586996
 Ni        -1.4854659056       -0.9683885076        9.4687790946
 Ni        -1.4854732191        8.6994424785        3.8873157842
 Ni         0.7881306120        6.5861220268        3.6085102623
 Ni         3.0436245187        7.4078867844        5.5670370179
  H         2.8497114927        3.5784717762        6.1855247829
  H        -1.6983887960       11.1376575790        6.9194938748
  H        -1.6989789525        0.4320196733       13.0926686781
  H        -1.9166359024        4.2505575617        7.3459488720
  H         2.6049529343       -3.3197577640        5.7370688861
  H         2.6069458412        6.6250629637       -0.0200227416
  C         1.1396717999        2.7170554543        7.1832686259
  C        -1.1450896949       -2.6989489826        7.1611492345
  C         3.3983925714       -0.0138519826       11.8391721987
  C         3.3980941190       10.2750095356        5.9056183999
  C        -1.1450185995        7.5568629264        1.2313656800
  C         1.1417990881        4.8802558231        5.9394232170
  C         1.8008856345        3.7283059871        6.4409866311
  C        -2.7460125510       11.2819490247        6.6572646200
  C        -2.7456361086        0.1295074119       13.0865391110
  C        -0.2490014701        2.9270382821        7.5035688455
  C         4.2681673556       -2.5251832526        6.8168809138
  C         2.0122802882       -0.4112678485       11.8590514057
  C         2.0127514251       10.4915745004        5.5713021477
  C         4.2713352589        7.1558565266        1.2127930325
  C        -0.2488679148        5.0590502877        6.2818377440
  C        -1.1520059356        1.8915880614        8.0504883638
  C         3.3711520463       -1.5315208292        7.4367776965
  C         1.1227105263       -0.3745122697       10.6823996789
  C         1.1182718681        9.4633394140        5.0058496409
  C         3.3766912224        7.1877768559        2.3881519194
  C        -1.1529534454        6.0546647580        5.6616965296
  C        -0.8664207583        4.1087737788        7.0938378479
  C         3.6549819203       -3.4625774502        5.9892881500
  C         3.6561238571        6.9188230374       -0.0155869468
  O         1.8064628561        1.5715333185        7.5153998226
  O        -0.4896352703       -1.8379741437        7.9881028080
  O        -2.7389308421        0.2778950870       10.6836902839
  O        -2.7404123955        9.1276819471        5.5740950171
  O        -0.4856307967        7.8527717978        2.3836818581
  O         1.8087835923        5.7358896233        5.1093181030
  O        -0.8535486806        0.6463179439        7.9136492827
  O         3.6723267534       -1.0248052145        8.5816612569
  O         1.4217258694        0.3872558609        9.6895388620
  O         1.4161016036        8.2162472528        5.1561551085
  O         3.6747885557        7.9378690626        3.3939665186
  O        -0.8616488914        6.5334810675        4.5006019943
  O        -2.2693975989        2.2331983300        8.5809846229
  O         2.2520208077       -1.2446888173        6.8765177176
  O         0.0167288036       -1.0247024306       10.6851952786
  O         0.0095260779        9.8081562783        4.4573470055
  O         2.2692432000        6.5344533568        2.3678024173
  O        -2.2638825046        6.3655389473        6.2251672890
      54
 i =      134, E =     -1444.3723145312
 Ni         3.0400200732        1.1631113474        9.1872351263
 Ni         0.7872569793       -0.1587350160        7.5160597753
 Ni        -1.4853736709       -0.9685733223        9.4676186330
 Ni        -1.4852019733        8.6994317837        3.8884319048
 Ni         0.7886610330        6.5873897180        3.6073416779
 Ni         3.0423819216        7.4081356780        5.5685369608
  H         2.8501870634        3.5815011002        6.1797735691
  H        -1.6985007348       11.1326466835        6.9235638440
  H        -1.6995062186        0.4387845981       13.0912774508
  H        -1.9161175815        4.2520547396        7.3408833446
  H         2.6061103794       -3.3214737488        5.7372791125
  H         2.6078375571        6.6258063072       -0.0203057305
  C         1.1405399034        2.7186772081        7.1796630107
  C        -1.1459238463       -2.7022571770        7.1648674872
  C         3.3984465641       -0.0112165911       11.8381137687
  C         3.3989662669       10.2732933819        5.9078717583
  C        -1.1454814607        7.5619702465        1.2299859777
  C         1.1413175243        4.8815474631        5.9347154506
  C         1.8010726320        3.7297179776        6.4362530947
  C        -2.7455770410       11.2796671314        6.6604664457
  C        -2.7458224309        0.1345203121       13.0852729365
  C        -0.2487131904        2.9273532890        7.4981663726
  C         4.2691106766       -2.5259886614        6.8155257445
  C         2.0124830485       -0.4099258909       11.8580823381
  C         2.0141005958       10.4893299550        5.5728564315
  C         4.2707593397        7.1605272392        1.2121481395
  C        -0.2491786216        5.0598510934        6.2774273794
  C        -1.1505702982        1.8920745444        8.0476405617
  C         3.3719496158       -1.5318209816        7.4356761048
  C         1.1237766540       -0.3742894923       10.6807270486
  C         1.1178405627        9.4599567864        5.0112837155
  C         3.3765523479        7.1913900668        2.3881939418
  C        -1.1548108975        6.0554345237        5.6578516372
  C        -0.8663040619        4.1090932859        7.0886840794
  C         3.6553911792       -3.4655726804        5.9913080582
  C         3.6568083417        6.9204902528       -0.0162764432
  O         1.8067295315        1.5733963197        7.5138360147
  O        -0.4893979892       -1.8388277521        7.9884886276
  O        -2.7391607771        0.2785541527       10.6821826826
  O        -2.7397215333        9.1266783172        5.5750476103
  O        -0.4845905826        7.8610067943        2.3806537754
  O         1.8092645883        5.7377309981        5.1071082741
  O        -0.8517127649        0.6455680013        7.9116050913
  O         3.6742002135       -1.0250092904        8.5792017912
  O         1.4238901366        0.3873555935        9.6878294201
  O         1.4118323737        8.2130615525        5.1714879811
  O         3.6734494533        7.9403654185        3.3948542247
  O        -0.8628168069        6.5337865098        4.4996983788
  O        -2.2659037045        2.2333861165        8.5832045269
  O         2.2528974700       -1.2437797255        6.8766524270
  O         0.0169911786       -1.0224903111       10.6835867894
  O         0.0116040397        9.8039644172        4.4577614274
  O         2.2682691871        6.5408172691        2.3662283183
  O        -2.2643065194        6.3663526355        6.2233592774
      54
 i =      135, E =     -1444.3724018751
 Ni         3.0444316676        1.1625454114        9.1846058123
 Ni         0.7880986085       -0.1574140348        7.5167109091
 Ni        -1.4845114960       -0.9692820791        9.4672480744
 Ni        -1.4846125809        8.6986150358        3.8895590629
 Ni         0.7924644058        6.5860125501        3.6078641137
 Ni         3.0416636999        7.4082025787        5.5716657065
  H         2.8483334484        3.5838772525        6.1763044592
  H        -1.6990903493       11.1297046490        6.9263235930
  H        -1.7018576379        0.4437158022       13.0903923895
  H        -1.9191877878        4.2524306922        7.3376899575
  H         2.6058575142       -3.3239077405        5.7373928874
  H         2.6071974180        6.6261544180       -0.0205198701
  C         1.1395422395        2.7192171658        7.1776257373
  C        -1.1467934766       -2.7029696327        7.1641958741
  C         3.3976823222       -0.0105244923       11.8374892384
  C         3.3986781785       10.2727145298        5.9087251070
  C        -1.1474113379        7.5667236866        1.2291551111
  C         1.1383383355        4.8814027992        5.9329865023
  C         1.7988618153        3.7297383697        6.4326344751
  C        -2.7463617277       11.2772242609        6.6640634943
  C        -2.7479318370        0.1385581012       13.0845063737
  C        -0.2504299099        2.9264529112        7.4961161273
  C         4.2683074889       -2.5262771696        6.8139535220
  C         2.0123299057       -0.4109468022       11.8572652382
  C         2.0133700857       10.4866552041        5.5747406809
  C         4.2691772292        7.1650046628        1.2108883466
  C        -0.2515119203        5.0583085454        6.2769308904
  C        -1.1499770787        1.8926154990        8.0514919836
  C         3.3725344075       -1.5291804450        7.4328031009
  C         1.1234748508       -0.3736465611       10.6798442271
  C         1.1174185868        9.4566492981        5.0141125556
  C         3.3777804003        7.1919269337        2.3890695373
  C        -1.1513982761        6.0592511217        5.6585877544
  C        -0.8691786068        4.1077981921        7.0873295878
  C         3.6553956830       -3.4670909791        5.9908506373
  C         3.6559039255        6.9218332917       -0.0171415114
  O         1.8070580905        1.5750615188        7.5113760172
  O        -0.4898830845       -1.8398125979        7.9870311654
  O        -2.7396244891        0.2765111371       10.6809457061
  O        -2.7402414766        9.1265953292        5.5754587296
  O        -0.4851229569        7.8631630142        2.3795797760
  O         1.8087788180        5.7379497241        5.1090604595
  O        -0.8511423548        0.6454055811        7.9126063357
  O         3.6743124688       -1.0253051128        8.5784339949
  O         1.4267331135        0.3856771560        9.6859370005
  O         1.4146014829        8.2136119040        5.1714348481
  O         3.6738086330        7.9385315421        3.3970461627
  O        -0.8506998986        6.5406620894        4.5058267719
  O        -2.2641788678        2.2347588539        8.5872122253
  O         2.2523863019       -1.2421081518        6.8759453525
  O         0.0168798859       -1.0227036255       10.6832227271
  O         0.0113216862        9.7987698114        4.4600306058
  O         2.2660595719        6.5500266259        2.3633422071
  O        -2.2625674809        6.3681737590        6.2218040608
      54
 i =      136, E =     -1444.3724964703
 Ni         3.0463060722        1.1636723150        9.1802375182
 Ni         0.7889660036       -0.1579830395        7.5169026160
 Ni        -1.4847862831       -0.9695746292        9.4683550716
 Ni        -1.4844524782        8.6988077097        3.8898849403
 Ni         0.7935192462        6.5872475261        3.6077529161
 Ni         3.0423420544        7.4071409166        5.5748923776
  H         2.8474870971        3.5862128409        6.1708901723
  H        -1.6998828164       11.1254953156        6.9317054971
  H        -1.7036462296        0.4514476397       13.0882420925
  H        -1.9210383759        4.2518623692        7.3310028322
  H         2.6060830663       -3.3264476231        5.7389549555
  H         2.6077712250        6.6286295610       -0.0212980232
  C         1.1393099744        2.7196067011        7.1722512349
  C        -1.1457564871       -2.7045090768        7.1643103691
  C         3.3975597678       -0.0085089464       11.8357437322
  C         3.3981794666       10.2703890955        5.9103230734
  C        -1.1480307834        7.5728394025        1.2264775123
  C         1.1370519553        4.8811618397        5.9288761166
  C         1.7984854295        3.7309487432        6.4286729789
  C        -2.7467656654       11.2732219936        6.6678686815
  C        -2.7494570526        0.1456789846       13.0820846679
  C        -0.2509132214        2.9258575390        7.4920137539
  C         4.2690897307       -2.5277492460        6.8146988994
  C         2.0125781475       -0.4087674655       11.8561428251
  C         2.0126603583       10.4838761761        5.5769023334
  C         4.2690859342        7.1712545458        1.2095266587
  C        -0.2516637858        5.0587002381        6.2752437271
  C        -1.1501588910        1.8928576947        8.0496349574
  C         3.3716838509       -1.5317957220        7.4341457311
  C         1.1236229864       -0.3719095127       10.6792291337
  C         1.1180075875        9.4515417380        5.0189567336
  C         3.3774079451        7.2008169217        2.3876221594
  C        -1.1498584166        6.0604566520        5.6558431656
  C        -0.8700583924        4.1073828924        7.0838889013
  C         3.6561990281       -3.4682898936        5.9909347330
  C         3.6564311391        6.9241298801       -0.0181015284
  O         1.8080176043        1.5767749548        7.5058585428
  O        -0.4900126369       -1.8426763099        7.9889528888
  O        -2.7401757621        0.2783321567       10.6796562211
  O        -2.7397154407        9.1252868663        5.5768827627
  O        -0.4861813721        7.8711434754        2.3756845918
  O         1.8092976689        5.7384736110        5.1078803015
  O        -0.8508055146        0.6461511262        7.9129019129
  O         3.6735470190       -1.0276044093        8.5795030089
  O         1.4255156733        0.3892142661        9.6853220793
  O         1.4120650968        8.2091483158        5.1864595291
  O         3.6738346687        7.9433942283        3.3975805730
  O        -0.8505933384        6.5398087097        4.5009175535
  O        -2.2641807136        2.2365648210        8.5828447711
  O         2.2532075691       -1.2415327141        6.8747944415
  O         0.0178508409       -1.0226525010       10.6839660232
  O         0.0118572294        9.7908113346        4.4652132549
  O         2.2618205347        6.5682037510        2.3606625457
  O        -2.2596486408        6.3711941502        6.2220234118
      54
 i =      137, E =     -1444.3725540782
 Ni         3.0441797992        1.1638686207        9.1783361024
 Ni         0.7887195434       -0.1588408159        7.5157067155
 Ni        -1.4865051866       -0.9705431797        9.4695392373
 Ni        -1.4844938582        8.6977854347        3.8910715476
 Ni         0.7923463550        6.5886539318        3.6076176225
 Ni         3.0426338990        7.4074756351        5.5791719837
  H         2.8455546808        3.5858634169        6.1677109671
  H        -1.7021371169       11.1231524917        6.9356297290
  H        -1.7055606500        0.4574774668       13.0865367873
  H        -1.9232181032        4.2493088456        7.3270420149
  H         2.6043325327       -3.3282256445        5.7395833523
  H         2.6074341108        6.6310749742       -0.0220924198
  C         1.1374963989        2.7191625273        7.1694765479
  C        -1.1461109835       -2.7056227351        7.1655974331
  C         3.3966971017       -0.0060818603       11.8343986183
  C         3.3966001632       10.2676950636        5.9132057720
  C        -1.1491456113        7.5764108621        1.2245801701
  C         1.1374375266        4.8809412738        5.9284227415
  C         1.7973862137        3.7306239885        6.4273032343
  C        -2.7475935851       11.2724846258        6.6673791934
  C        -2.7506852611        0.1498854940       13.0803678412
  C        -0.2529723473        2.9256641344        7.4904189685
  C         4.2690216996       -2.5286327124        6.8144820055
  C         2.0119819070       -0.4063628863       11.8550966685
  C         2.0124147330       10.4840948698        5.5757654695
  C         4.2683971394        7.1759427045        1.2083069044
  C        -0.2511722408        5.0590789815        6.2742386258
  C        -1.1511934502        1.8920002189        8.0494259417
  C         3.3716776908       -1.5328901255        7.4348425706
  C         1.1238549752       -0.3727369665       10.6781229035
  C         1.1183735587        9.4478090837        5.0228428383
  C         3.3740546332        7.2112674659        2.3847805109
  C        -1.1504175555        6.0596147428        5.6559728536
  C        -0.8710325904        4.1076802945        7.0819786439
  C         3.6543840836       -3.4696658262        5.9920499433
  C         3.6557675033        6.9272189990       -0.0188546198
  O         1.8070800223        1.5768870652        7.5001438382
  O        -0.4902672550       -1.8439710509        7.9898788485
  O        -2.7402275867        0.2794449077       10.6784565769
  O        -2.7390419853        9.1243093964        5.5785910286
  O        -0.4904700761        7.8713338902        2.3753662858
  O         1.8084995080        5.7389029748        5.1065679328
  O        -0.8522758541        0.6462255017        7.9137873314
  O         3.6726265508       -1.0278674868        8.5801897746
  O         1.4228117527        0.3913994826        9.6844100068
  O         1.4148650372        8.2075670879        5.1868160759
  O         3.6767934729        7.9445288202        3.3980243539
  O        -0.8486936350        6.5403339117        4.5008831175
  O        -2.2657088863        2.2352391960        8.5818225000
  O         2.2536091687       -1.2416850364        6.8747213480
  O         0.0176489780       -1.0226937124       10.6838072040
  O         0.0110970652        9.7824071520        4.4686345832
  O         2.2545764802        6.5858966517        2.3563510452
  O        -2.2589000620        6.3744403258        6.2249636841
      54
 i =      138, E =     -1444.3726192133
 Ni         3.0404617392        1.1639276228        9.1802718153
 Ni         0.7876657400       -0.1597926392        7.5145409824
 Ni        -1.4868565182       -0.9699576980        9.4700400936
 Ni        -1.4853166148        8.6961952954        3.8918405287
 Ni         0.7906673157        6.5887524634        3.6076998320
 Ni         3.0432917651        7.4070596249        5.5790817329
  H         2.8447806142        3.5821566440        6.1718004761
  H        -1.7025944752       11.1264312459        6.9328082990
  H        -1.7050571146        0.4537812179       13.0871297130
  H        -1.9231262788        4.2474792676        7.3307047393
  H         2.6029459085       -3.3270809735        5.7394700362
  H         2.6061439430        6.6315573282       -0.0223216289
  C         1.1366315305        2.7176381183        7.1716032297
  C        -1.1468320208       -2.7038845425        7.1645261276
  C         3.3964770891       -0.0063106100       11.8351081215
  C         3.3967189208       10.2699323201        5.9105080265
  C        -1.1495839028        7.5723670889        1.2260267685
  C         1.1386736790        4.8806825535        5.9320225592
  C         1.7970237951        3.7297289913        6.4309819140
  C        -2.7481700921       11.2749680098        6.6647784692
  C        -2.7502173803        0.1463053711       13.0816915272
  C        -0.2528837563        2.9259093944        7.4947495927
  C         4.2675897962       -2.5280507537        6.8154696223
  C         2.0116309015       -0.4064762794       11.8546566450
  C         2.0113812884       10.4853409548        5.5756674644
  C         4.2670875664        7.1745841228        1.2077543111
  C        -0.2505175846        5.0588992368        6.2769944412
  C        -1.1528631041        1.8905455806        8.0486445467
  C         3.3709716128       -1.5330119367        7.4365898923
  C         1.1232004080       -0.3726974145       10.6779876863
  C         1.1196263340        9.4507478693        5.0170266219
  C         3.3716544993        7.2105202109        2.3830753248
  C        -1.1510696944        6.0572922345        5.6592459804
  C        -0.8710400033        4.1069493097        7.0842599472
  C         3.6532681937       -3.4681612905        5.9912713138
  C         3.6545075723        6.9275043267       -0.0195225482
  O         1.8060108646        1.5745346065        7.4989666401
  O        -0.4909766283       -1.8433127479        7.9897775775
  O        -2.7399207225        0.2800229497       10.6791381751
  O        -2.7408377153        9.1239804808        5.5800962814
  O        -0.4927121794        7.8644067237        2.3784168773
  O         1.8086139147        5.7375167723        5.1067327477
  O        -0.8542575404        0.6458922928        7.9136543633
  O         3.6728290819       -1.0258108168        8.5803001986
  O         1.4215554083        0.3911301265        9.6846100371
  O         1.4180667202        8.2087741789        5.1759169270
  O         3.6765984862        7.9446900742        3.3963176554
  O        -0.8511073314        6.5382138605        4.5016958210
  O        -2.2674535060        2.2342163956        8.5826113756
  O         2.2528015860       -1.2433396289        6.8758264116
  O         0.0172684667       -1.0231136667       10.6835726790
  O         0.0091788671        9.7831247709        4.4668378651
  O         2.2560499361        6.5733832956        2.3587956151
  O        -2.2603648312        6.3723468621        6.2262049643
      54
 i =      139, E =     -1444.3726614482
 Ni         3.0414443438        1.1656743464        9.1809965512
 Ni         0.7880920052       -0.1586830169        7.5140997968
 Ni        -1.4854035051       -0.9687801756        9.4689233911
 Ni        -1.4856281587        8.6940888808        3.8921552110
 Ni         0.7906276272        6.5885087360        3.6077288821
 Ni         3.0428932960        7.4065371250        5.5814285195
  H         2.8444218354        3.5816982361        6.1693224722
  H        -1.7029458639       11.1243814535        6.9351341725
  H        -1.7060012396        0.4576967173       13.0866109937
  H        -1.9233059502        4.2479316211        7.3286902272
  H         2.6031339183       -3.3279265968        5.7396800305
  H         2.6050135481        6.6327823042       -0.0236084356
  C         1.1370458814        2.7178725773        7.1694896431
  C        -1.1478679417       -2.7048031843        7.1650002490
  C         3.3962620822       -0.0046844916       11.8345619340
  C         3.3967599829       10.2696623270        5.9113047302
  C        -1.1515406919        7.5765833971        1.2256464075
  C         1.1378090611        4.8817407482        5.9310435764
  C         1.7963217436        3.7299217065        6.4277773369
  C        -2.7486469965       11.2735027749        6.6673736389
  C        -2.7510077075        0.1491504734       13.0814338800
  C        -0.2524790471        2.9254788841        7.4921118485
  C         4.2663841852       -2.5291753483        6.8162326613
  C         2.0114309853       -0.4054840450       11.8533789541
  C         2.0109724024       10.4830858241        5.5768062262
  C         4.2650716637        7.1782782050        1.2058483326
  C        -0.2519417171        5.0584474966        6.2751151163
  C        -1.1522210981        1.8910965598        8.0475665468
  C         3.3715298748       -1.5316820134        7.4355400295
  C         1.1233111964       -0.3718402091       10.6764788882
  C         1.1192661024        9.4481681743        5.0183000894
  C         3.3732164724        7.2102209372        2.3831930474
  C        -1.1512344475        6.0582422558        5.6588590171
  C        -0.8716120616        4.1060106444        7.0822765540
  C         3.6532605235       -3.4699374019        5.9917950281
  C         3.6530110618        6.9301918483       -0.0212444151
  O         1.8074553840        1.5752761314        7.4957062368
  O        -0.4916315185       -1.8439674351        7.9895793203
  O        -2.7383966045        0.2799336610       10.6792353347
  O        -2.7419090827        9.1232237345        5.5803354231
  O        -0.4922342567        7.8675094312        2.3767590289
  O         1.8095905893        5.7377148657        5.1066083454
  O        -0.8535737309        0.6456845863        7.9120747387
  O         3.6731735736       -1.0243952282        8.5797205735
  O         1.4233989179        0.3898334062        9.6827096532
  O         1.4191637895        8.2065802583        5.1778768622
  O         3.6754436795        7.9454671311        3.3975781950
  O        -0.8529329755        6.5381854914        4.5011554592
  O        -2.2666525974        2.2352901651        8.5821156643
  O         2.2520310197       -1.2448834120        6.8767863258
  O         0.0176433857       -1.0225235367       10.6827145595
  O         0.0091900999        9.7784015691        4.4657754408
  O         2.2552029556        6.5785149400        2.3576396546
  O        -2.2608067752        6.3708939710        6.2244315571
      54
 i =      140, E =     -1444.3726901626
 Ni         3.0430552761        1.1633361028        9.1813250714
 Ni         0.7886810110       -0.1577878874        7.5133778424
 Ni        -1.4851838351       -0.9688974135        9.4682089906
 Ni        -1.4856551113        8.6924604650        3.8910955454
 Ni         0.7907428165        6.5881861971        3.6085170398
 Ni         3.0434765871        7.4062403379        5.5828688244
  H         2.8431319292        3.5811875035        6.1674785190
  H        -1.7044728228       11.1226628191        6.9354596744
  H        -1.7073167923        0.4598370241       13.0868640512
  H        -1.9246749294        4.2469464288        7.3271887397
  H         2.6011353015       -3.3295013878        5.7408778361
  H         2.6031640295        6.6359087827       -0.0254017468
  C         1.1362976215        2.7178217534        7.1682857019
  C        -1.1490901741       -2.7063917261        7.1652434705
  C         3.3953127560       -0.0047193228       11.8345191140
  C         3.3952373890       10.2685576655        5.9115500340
  C        -1.1532192258        7.5777490675        1.2248983979
  C         1.1359791819        4.8815102131        5.9312276970
  C         1.7953982688        3.7302613250        6.4273408467
  C        -2.7497339739       11.2727466392        6.6663115996
  C        -2.7523377180        0.1510617968       13.0810910265
  C        -0.2533149256        2.9242961536        7.4910069607
  C         4.2655578317       -2.5300268242        6.8154064040
  C         2.0103377237       -0.4048448444       11.8529956983
  C         2.0097828375       10.4825063539        5.5757122247
  C         4.2630683434        7.1801203385        1.2053037811
  C        -0.2535432863        5.0585219168        6.2761103606
  C        -1.1522042445        1.8908283356        8.0483502030
  C         3.3706071495       -1.5325963928        7.4346125723
  C         1.1228591158       -0.3711609508       10.6758966870
  C         1.1193184335        9.4456536287        5.0187282132
  C         3.3714908597        7.2126433998        2.3822326809
  C        -1.1521323486        6.0581295906        5.6589813146
  C        -0.8725104874        4.1053532521        7.0829776710
  C         3.6513137231       -3.4716295706        5.9927237041
  C         3.6512912937        6.9328436820       -0.0218012445
  O         1.8086270567        1.5758887334        7.4916157735
  O        -0.4926072158       -1.8453368019        7.9893112685
  O        -2.7389995854        0.2797289594       10.6797262713
  O        -2.7408088212        9.1241407041        5.5791991530
  O        -0.4932677570        7.8670304738        2.3756660646
  O         1.8090539529        5.7381327049        5.1088854533
  O        -0.8530637753        0.6450697452        7.9117407149
  O         3.6730392339       -1.0259449992        8.5790035838
  O         1.4233195921        0.3905469322        9.6822356347
  O         1.4209748205        8.2046233815        5.1775964277
  O         3.6755818989        7.9444425949        3.3979155881
  O        -0.8533486466        6.5399175847        4.5029597542
  O        -2.2664149251        2.2347904197        8.5835745567
  O         2.2526337184       -1.2419427425        6.8743007033
  O         0.0175556289       -1.0224993849       10.6822056194
  O         0.0100359699        9.7730375313        4.4634669611
  O         2.2545659290        6.5791758043        2.3575233898
  O        -2.2611229825        6.3700172833        6.2251487886
      54
 i =      141, E =     -1444.3727158724
 Ni         3.0434339779        1.1627321306        9.1808690551
 Ni         0.7888228563       -0.1584359361        7.5125710730
 Ni        -1.4863547832       -0.9699162094        9.4677551786
 Ni        -1.4850351328        8.6899252622        3.8922668808
 Ni         0.7907977040        6.5891767706        3.6084842500
 Ni         3.0434715016        7.4047222849        5.5848628387
  H         2.8420363660        3.5803285257        6.1650983474
  H        -1.7063609149       11.1215760030        6.9364176985
  H        -1.7090574135        0.4629815028       13.0868997506
  H        -1.9254051016        4.2449877032        7.3259119891
  H         2.5988760978       -3.3315014476        5.7417406966
  H         2.6010541040        6.6404297956       -0.0280616692
  C         1.1350469916        2.7169363707        7.1654530204
  C        -1.1508345025       -2.7081426220        7.1662725853
  C         3.3943803199       -0.0027706729       11.8340774841
  C         3.3943186288       10.2670071452        5.9118423544
  C        -1.1553546243        7.5800052084        1.2238470597
  C         1.1357888544        4.8812847277        5.9310747006
  C         1.7945849599        3.7296433165        6.4258546992
  C        -2.7514528770       11.2714469151        6.6666437318
  C        -2.7539500617        0.1538276723       13.0805500514
  C        -0.2543632530        2.9231913313        7.4892141576
  C         4.2640875799       -2.5318986659        6.8156381291
  C         2.0093906783       -0.4028378912       11.8520519823
  C         2.0082586318       10.4804755902        5.5770160379
  C         4.2601121598        7.1848555871        1.2044467025
  C        -0.2539887668        5.0582716981        6.2753115326
  C        -1.1519046582        1.8897616850        8.0480234709
  C         3.3701022647       -1.5335870520        7.4343705803
  C         1.1226188427       -0.3703477665       10.6746154884
  C         1.1198761114        9.4433640797        5.0182553070
  C         3.3700730531        7.2138797805        2.3816312345
  C        -1.1534340233        6.0571607256        5.6587852700
  C        -0.8728666922        4.1050622638        7.0823171742
  C         3.6493791274       -3.4733221019        5.9928432148
  C         3.6495263638        6.9363225277       -0.0229616966
  O         1.8088107174        1.5751037788        7.4841468374
  O        -0.4941512548       -1.8470370172        7.9896416252
  O        -2.7404302773        0.2801102915       10.6788567671
  O        -2.7408373013        9.1226933787        5.5810709576
  O        -0.4961227035        7.8676287692        2.3748044902
  O         1.8081772725        5.7381959459        5.1088144276
  O        -0.8530273279        0.6439465645        7.9122292080
  O         3.6725519137       -1.0262258542        8.5784079873
  O         1.4231053404        0.3916062676        9.6811061147
  O         1.4226493716        8.2025073325        5.1772034092
  O         3.6751524785        7.9451755489        3.3977322854
  O        -0.8541155718        6.5395454169        4.5033140366
  O        -2.2660776915        2.2338581546        8.5829089164
  O         2.2521649026       -1.2425310544        6.8745337283
  O         0.0174646440       -1.0221158081       10.6804367197
  O         0.0114514259        9.7676340331        4.4599879260
  O         2.2534883522        6.5801851069        2.3568445905
  O        -2.2614668994        6.3696800226        6.2265885819
      54
 i =      142, E =     -1444.3727365150
 Ni         3.0436268455        1.1629273188        9.1805013258
 Ni         0.7887348775       -0.1594611342        7.5113104101
 Ni        -1.4862669894       -0.9697323514        9.4684693476
 Ni        -1.4844030670        8.6888222550        3.8920137065
 Ni         0.7904848839        6.5881516901        3.6087609136
 Ni         3.0423846358        7.4029336656        5.5877307976
  H         2.8411535011        3.5794098299        6.1629234213
  H        -1.7077337214       11.1209852106        6.9367760219
  H        -1.7111330562        0.4651367090       13.0872934012
  H        -1.9256336172        4.2431665303        7.3258960892
  H         2.5970648973       -3.3337099736        5.7422333970
  H         2.5981656614        6.6453785234       -0.0306485927
  C         1.1343250625        2.7156700633        7.1615291611
  C        -1.1529285627       -2.7096589008        7.1666803902
  C         3.3935190708       -0.0004053268       11.8332021701
  C         3.3932451138       10.2652680801        5.9131144514
  C        -1.1575306521        7.5827328446        1.2231787141
  C         1.1357567128        4.8811539011        5.9299945057
  C         1.7939878908        3.7293790921        6.4240434468
  C        -2.7529097805       11.2702577677        6.6672944634
  C        -2.7558974010        0.1557212632       13.0800390860
  C        -0.2543163569        2.9222577757        7.4879988825
  C         4.2618863498       -2.5338726342        6.8164390483
  C         2.0083515783       -0.4000361881       11.8511230044
  C         2.0071256615       10.4783995074        5.5773022927
  C         4.2578320775        7.1873278033        1.2033585331
  C        -0.2540574375        5.0576427306        6.2746955016
  C        -1.1520607238        1.8886352346        8.0460246082
  C         3.3691358143       -1.5346809245        7.4353396493
  C         1.1222765974       -0.3692168793       10.6732637250
  C         1.1195297169        9.4416928751        5.0172551926
  C         3.3690919368        7.2150796424        2.3814918524
  C        -1.1542327170        6.0563268677        5.6586361500
  C        -0.8732736646        4.1039854171        7.0809972760
  C         3.6475694778       -3.4757323407        5.9936307634
  C         3.6470648358        6.9401053900       -0.0243791598
  O         1.8090702295        1.5739061819        7.4767373483
  O        -0.4965389756       -1.8493093837        7.9906397136
  O        -2.7410756742        0.2813318149       10.6779020093
  O        -2.7418464164        9.1209301001        5.5822635319
  O        -0.4977752682        7.8672175048        2.3742803163
  O         1.8085592884        5.7378389462        5.1082621923
  O        -0.8525436708        0.6432727010        7.9125220606
  O         3.6728458259       -1.0265227573        8.5787934479
  O         1.4226102629        0.3933836713        9.6798927155
  O         1.4221939045        8.2004419642        5.1768557721
  O         3.6746387557        7.9451736019        3.3983245005
  O        -0.8554248798        6.5394740189        4.5032044389
  O        -2.2652417468        2.2334125470        8.5828740277
  O         2.2514928880       -1.2438239623        6.8750392771
  O         0.0178432997       -1.0221934605       10.6804272999
  O         0.0131650834        9.7665224248        4.4557603278
  O         2.2541683068        6.5784111845        2.3576342825
  O        -2.2616964862        6.3686578135        6.2279664911
      54
 i =      143, E =     -1444.3727546136
 Ni         3.0438799020        1.1637191062        9.1802231980
 Ni         0.7886995540       -0.1598639380        7.5106746272
 Ni        -1.4865741428       -0.9696789991        9.4684656456
 Ni        -1.4848132104        8.6904440484        3.8914717556
 Ni         0.7906951741        6.5886757913        3.6086528675
 Ni         3.0415066491        7.4006536369        5.5874891426
  H         2.8414851548        3.5794640542        6.1617975839
  H        -1.7078610294       11.1212017652        6.9366097755
  H        -1.7116816125        0.4652838327       13.0876005917
  H        -1.9247727056        4.2429871034        7.3266654940
  H         2.5966471434       -3.3350932232        5.7418264832
  H         2.5970085633        6.6477561941       -0.0311970707
  C         1.1346857394        2.7146905098        7.1590218794
  C        -1.1536285399       -2.7107216854        7.1672829112
  C         3.3930983828        0.0011628337       11.8326953181
  C         3.3931809037       10.2642402899        5.9136749081
  C        -1.1575034573        7.5825963607        1.2231337651
  C         1.1359113853        4.8807873962        5.9287027375
  C         1.7941701722        3.7289078610        6.4222056675
  C        -2.7534043565       11.2691729122        6.6682427128
  C        -2.7566951292        0.1570207301       13.0797522736
  C        -0.2535219775        2.9216160514        7.4868712500
  C         4.2610397139       -2.5352925595        6.8175221671
  C         2.0078050478       -0.3981761686       11.8511105365
  C         2.0070323073       10.4775780226        5.5783051386
  C         4.2575868699        7.1879362125        1.2031984442
  C        -0.2537861811        5.0568944396        6.2738022362
  C        -1.1517734468        1.8885694785        8.0451776372
  C         3.3686626437       -1.5357338842        7.4362811034
  C         1.1220013368       -0.3676706368       10.6729349425
  C         1.1194998515        9.4427017721        5.0161383631
  C         3.3691103761        7.2136157707        2.3819422883
  C        -1.1535374812        6.0568025585        5.6585999606
  C        -0.8729154824        4.1031870226        7.0799282882
  C         3.6470388118       -3.4766492495        5.9940497868
  C         3.6461932703        6.9415241929       -0.0245631711
  O         1.8093477981        1.5737270123        7.4767576669
  O        -0.4969276132       -1.8512925874        7.9917028030
  O        -2.7405554815        0.2828341532       10.6777824703
  O        -2.7427526925        9.1193131744        5.5833547257
  O        -0.4979689993        7.8674768090        2.3743962694
  O         1.8082696518        5.7378734602        5.1072596053
  O        -0.8525673732        0.6430537441        7.9124195851
  O         3.6725943872       -1.0261133730        8.5787566149
  O         1.4224466429        0.3940851340        9.6790825503
  O         1.4205528817        8.2012800780        5.1772593481
  O         3.6745831345        7.9443623037        3.3981045188
  O        -0.8554071940        6.5400948452        4.5027397471
  O        -2.2649283683        2.2334211443        8.5818184653
  O         2.2512278000       -1.2445041826        6.8756370667
  O         0.0179847114       -1.0214472808       10.6800770930
  O         0.0135836234        9.7700590036        4.4566401847
  O         2.2546163808        6.5766762259        2.3577785892
  O        -2.2614969391        6.3676475299        6.2278100295
      54
 i =      144, E =     -1444.3727761193
 Ni         3.0443457209        1.1652962605        9.1783125978
 Ni         0.7893960317       -0.1604392055        7.5096496431
 Ni        -1.4865885579       -0.9697180382        9.4683554216
 Ni        -1.4860828267        8.6903953062        3.8912336030
 Ni         0.7906052637        6.5890321286        3.6088119856
 Ni         3.0405286640        7.3972878390        5.5897448505
  H         2.8413960751        3.5795627412        6.1581626288
  H        -1.7087151893       11.1197934673        6.9378791134
  H        -1.7128495984        0.4683181651       13.0874047680
  H        -1.9241639085        4.2423344106        7.3258905179
  H         2.5956271222       -3.3383335644        5.7421917492
  H         2.5949894352        6.6531086452       -0.0324098702
  C         1.1352049417        2.7138180442        7.1556919308
  C        -1.1550926070       -2.7138212686        7.1688902174
  C         3.3920084784        0.0044690229       11.8321856006
  C         3.3923585622       10.2621360759        5.9147975429
  C        -1.1587981854        7.5848740611        1.2224259823
  C         1.1356579866        4.8801146911        5.9263954426
  C         1.7938400677        3.7277810736        6.4179675577
  C        -2.7544184207       11.2664998488        6.6697823889
  C        -2.7577698048        0.1601003302       13.0792307893
  C        -0.2531383825        2.9202983057        7.4834802217
  C         4.2594683601       -2.5379176454        6.8198625498
  C         2.0065601000       -0.3942012879       11.8501329959
  C         2.0064573113       10.4761061180        5.5793717897
  C         4.2565767486        7.1895942949        1.2021527112
  C        -0.2536686223        5.0560424821        6.2721642323
  C        -1.1514850065        1.8881439932        8.0432665445
  C         3.3679928406       -1.5369838485        7.4372164799
  C         1.1212700746       -0.3651665437       10.6717680823
  C         1.1193329500        9.4416483424        5.0167562616
  C         3.3680930349        7.2152081489        2.3815818261
  C        -1.1532908156        6.0566811947        5.6582735720
  C        -0.8727653918        4.1019672504        7.0775516598
  C         3.6460468018       -3.4785355074        5.9951968900
  C         3.6444755075        6.9457450760       -0.0257073039
  O         1.8103573350        1.5738508291        7.4738144407
  O        -0.4975168622       -1.8560198482        7.9937354761
  O        -2.7408560490        0.2853950388       10.6773737862
  O        -2.7433663164        9.1176969952        5.5841079929
  O        -0.4988890205        7.8685351684        2.3737904993
  O         1.8083531767        5.7383356667        5.1066040795
  O        -0.8520252488        0.6424830030        7.9119225989
  O         3.6720066814       -1.0259126565        8.5791063494
  O         1.4222472781        0.3958196550        9.6774447095
  O         1.4194155753        8.2007653012        5.1790152998
  O         3.6736513975        7.9440135986        3.3985985687
  O        -0.8552831776        6.5407051453        4.5026540988
  O        -2.2640223602        2.2339451672        8.5807820309
  O         2.2512465304       -1.2449699074        6.8754946162
  O         0.0181799864       -1.0205827315       10.6797693301
  O         0.0139902860        9.7690375312        4.4571975571
  O         2.2541227776        6.5775112036        2.3579818500
  O        -2.2615002441        6.3655251933        6.2277849643
      54
 i =      145, E =     -1444.3727821434
 Ni         3.0466000336        1.1700277422        9.1671723155
 Ni         0.7913788388       -0.1621741597        7.5069515502
 Ni        -1.4861914723       -0.9701095483        9.4685463474
 Ni        -1.4885730403        8.6901748594        3.8918897140
 Ni         0.7908788241        6.5890511501        3.6091138150
 Ni         3.0375189066        7.3897644638        5.5988296393
  H         2.8418060890        3.5794472025        6.1458878801
  H        -1.7114074186       11.1147553756        6.9424588065
  H        -1.7163674094        0.4778699944       13.0864612928
  H        -1.9214779402        4.2406307025        7.3229487490
  H         2.5932161027       -3.3478198437        5.7436253741
  H         2.5893566150        6.6702148886       -0.0356393786
  C         1.1368071999        2.7102999469        7.1445346819
  C        -1.1597507608       -2.7249580902        7.1761636795
  C         3.3887360490        0.0153335906       11.8300873262
  C         3.3898924126       10.2553801267        5.9189157158
  C        -1.1621959435        7.5913357902        1.2204224778
  C         1.1354578016        4.8775177955        5.9191367173
  C         1.7937223121        3.7238310505        6.4048464934
  C        -2.7574047335       11.2580379300        6.6745792597
  C        -2.7610999736        0.1698097488       13.0774330745
  C        -0.2515098897        2.9163089615        7.4731280835
  C         4.2554009458       -2.5458101072        6.8267681899
  C         2.0026005739       -0.3805580471       11.8476454334
  C         2.0051881821       10.4716550916        5.5820775565
  C         4.2535230891        7.1961482516        1.1997732218
  C        -0.2528797800        5.0530584183        6.2662582885
  C        -1.1497023632        1.8867403002        8.0379709280
  C         3.3664347484       -1.5410122773        7.4399229855
  C         1.1200484196       -0.3572754746       10.6678689109
  C         1.1181544668        9.4383017203        5.0193020322
  C         3.3659529825        7.2183148124        2.3817538950
  C        -1.1525863214        6.0555888648        5.6571914093
  C        -0.8713833508        4.0982509868        7.0701929370
  C         3.6433716517       -3.4849419886        5.9997711778
  C         3.6400182564        6.9585778660       -0.0284778956
  O         1.8136431997        1.5748767129        7.4687835740
  O        -0.4978765121       -1.8738222417        8.0022791105
  O        -2.7426591434        0.2959636810       10.6753854810
  O        -2.7431489230        9.1142584399        5.5856249599
  O        -0.5013021929        7.8709520857        2.3725198096
  O         1.8099073064        5.7397926986        5.1050124550
  O        -0.8506681826        0.6401328767        7.9102716025
  O         3.6714212906       -1.0257571429        8.5800581817
  O         1.4215653872        0.4018499282        9.6714767436
  O         1.4158297553        8.1991343011        5.1828356923
  O         3.6713922684        7.9433653224        3.4008790318
  O        -0.8548567977        6.5410334075        4.5015383602
  O        -2.2607839738        2.2359268746        8.5765843765
  O         2.2510805781       -1.2469962829        6.8762000536
  O         0.0196370246       -1.0174724410       10.6784635001
  O         0.0145884413        9.7681570358        4.4591086773
  O         2.2526912040        6.5799149867        2.3574818571
  O        -2.2622122341        6.3574493265        6.2270119278
      54
 i =      146, E =     -1444.3728415470
 Ni         3.0454822956        1.1668313759        9.1693044150
 Ni         0.7914970335       -0.1631382989        7.5076659075
 Ni        -1.4862472486       -0.9699395190        9.4690768391
 Ni        -1.4875590940        8.6896963112        3.8917681228
 Ni         0.7906107235        6.5886499743        3.6094812179
 Ni         3.0395418207        7.3894790941        5.5951778253
  H         2.8416582329        3.5786868813        6.1479394674
  H        -1.7112159864       11.1149700151        6.9408697258
  H        -1.7158406700        0.4753659287       13.0866856471
  H        -1.9219899368        4.2405141044        7.3234000044
  H         2.5935217734       -3.3458885676        5.7445767510
  H         2.5900464831        6.6683382592       -0.0346609972
  C         1.1369933267        2.7107676006        7.1488137238
  C        -1.1592315113       -2.7238870293        7.1755238299
  C         3.3889126498        0.0145001418       11.8306792331
  C         3.3905744474       10.2571574025        5.9165098500
  C        -1.1613840395        7.5890230016        1.2211847685
  C         1.1356007107        4.8776313280        5.9218726094
  C         1.7939267056        3.7240214415        6.4083623894
  C        -2.7570912938       11.2595438953        6.6728489088
  C        -2.7604682428        0.1666974706       13.0780925977
  C        -0.2520357413        2.9162561145        7.4757144357
  C         4.2561384849       -2.5445587694        6.8254324920
  C         2.0031876247       -0.3827264194       11.8481934106
  C         2.0052984788       10.4724554455        5.5805995395
  C         4.2540832240        7.1946170275        1.2002148760
  C        -0.2529965346        5.0531516826        6.2682300748
  C        -1.1500686823        1.8862242121        8.0400835936
  C         3.3671971385       -1.5402525731        7.4392963855
  C         1.1200225673       -0.3579790875       10.6688469514
  C         1.1178553709        9.4385736697        5.0185455729
  C         3.3667347782        7.2169331162        2.3813490993
  C        -1.1532697649        6.0538845571        5.6574298456
  C        -0.8713150309        4.0985755554        7.0728800096
  C         3.6438058482       -3.4842215049        5.9992203645
  C         3.6406230805        6.9569413494       -0.0278509992
  O         1.8130930337        1.5739371590        7.4715359187
  O        -0.4983914008       -1.8716180092        8.0012725645
  O        -2.7416221904        0.2971465746       10.6772552500
  O        -2.7432439463        9.1151002031        5.5843831974
  O        -0.5001949500        7.8683998142        2.3731804326
  O         1.8095350981        5.7387041654        5.1059631056
  O        -0.8508569779        0.6397237298        7.9099023407
  O         3.6719035617       -1.0261503426        8.5800632034
  O         1.4205327242        0.4007987610        9.6722191975
  O         1.4175900499        8.1989116708        5.1809630391
  O         3.6727609387        7.9437685455        3.3992953680
  O        -0.8547997047        6.5410612229        4.5032205613
  O        -2.2620149513        2.2337975496        8.5783256664
  O         2.2520097769       -1.2461775906        6.8754942491
  O         0.0194582877       -1.0179668686       10.6788350998
  O         0.0138953204        9.7683201795        4.4570887348
  O         2.2532328321        6.5786496022        2.3579420494
  O        -2.2625985501        6.3559823894        6.2276397160
      54
 i =      147, E =     -1444.3729283551
 Ni         3.0441160848        1.1631479383        9.1663717643
 Ni         0.7931020330       -0.1684925036        7.5075094850
 Ni        -1.4868242706       -0.9701298790        9.4695686541
 Ni        -1.4868700298        8.6880036734        3.8914574598
 Ni         0.7901941715        6.5890430993        3.6098660409
 Ni         3.0408168612        7.3833623491        5.5979529936
  H         2.8411403834        3.5753841089        6.1432351169
  H        -1.7134422825       11.1109562981        6.9411125265
  H        -1.7174231696        0.4777367256       13.0866511583
  H        -1.9216491219        4.2375518363        7.3219666552
  H         2.5911717132       -3.3485272702        5.7480851009
  H         2.5868513265        6.6779381937       -0.0361803115
  C         1.1380232415        2.7080531690        7.1488552744
  C        -1.1614253831       -2.7295476060        7.1785004321
  C         3.3871709448        0.0211275990       11.8303033681
  C         3.3903363931       10.2547430074        5.9146189814
  C        -1.1622914073        7.5881233716        1.2211385887
  C         1.1360174156        4.8753888688        5.9222524474
  C         1.7945124391        3.7218026480        6.4080765407
  C        -2.7592351635       11.2557967301        6.6728796818
  C        -2.7622630274        0.1695130131       13.0782491442
  C        -0.2515501568        2.9131267887        7.4760531835
  C         4.2543538533       -2.5487770335        6.8277740177
  C         2.0013039706       -0.3759433842       11.8467753068
  C         2.0040939126       10.4698226433        5.5808045120
  C         4.2516483925        7.1986849328        1.1990772454
  C        -0.2523747076        5.0501950752        6.2686014707
  C        -1.1501832770        1.8823883385        8.0393791228
  C         3.3674050805       -1.5427061032        7.4406718182
  C         1.1181275470       -0.3534025315       10.6676168359
  C         1.1182609782        9.4364081035        5.0163244629
  C         3.3664140937        7.2176402743        2.3806396551
  C        -1.1538611644        6.0484363790        5.6574528586
  C        -0.8706905130        4.0951244456        7.0728979634
  C         3.6417290292       -3.4878047068        6.0009417183
  C         3.6381556643        6.9640425160       -0.0292943725
  O         1.8144012092        1.5709950573        7.4699476422
  O        -0.5002313504       -1.8811937759        8.0057256034
  O        -2.7421654885        0.3113591365       10.6798063679
  O        -2.7428532765        9.1129795006        5.5834011749
  O        -0.5006341553        7.8657744923        2.3730408215
  O         1.8091988763        5.7373056552        5.1063332202
  O        -0.8502948376        0.6361925146        7.9079113827
  O         3.6719145935       -1.0264253256        8.5805642731
  O         1.4182340481        0.4024004222        9.6689818839
  O         1.4204994352        8.1962269034        5.1784465769
  O         3.6735889778        7.9433748162        3.3991294436
  O        -0.8552540505        6.5415638684        4.5062122302
  O        -2.2616801256        2.2301174043        8.5801615015
  O         2.2537203895       -1.2466847262        6.8749799333
  O         0.0193755069       -1.0172909139       10.6775820707
  O         0.0131959816        9.7655199369        4.4547742789
  O         2.2533818279        6.5781007268        2.3575509879
  O        -2.2643957631        6.3425783522        6.2284247391
      54
 i =      148, E =     -1444.3720355581
 Ni         3.0381178369        1.1567198871        9.1492721539
 Ni         0.7982874744       -0.1855153975        7.5054831309
 Ni        -1.4874527826       -0.9693713743        9.4718213226
 Ni        -1.4844239332        8.6839618353        3.8926096369
 Ni         0.7877308591        6.5900935396        3.6101711678
 Ni         3.0457198992        7.3614031452        5.6052242258
  H         2.8427623015        3.5617976148        6.1274631100
  H        -1.7188271997       11.0948700816        6.9442308374
  H        -1.7203391827        0.4863579508       13.0862180098
  H        -1.9170778648        4.2267711615        7.3164356831
  H         2.5867639268       -3.3558877490        5.7601293311
  H         2.5790927847        6.7097689820       -0.0403033987
  C         1.1439452648        2.6981214205        7.1520928925
  C        -1.1665069767       -2.7501632653        7.1913801564
  C         3.3809879087        0.0518450892       11.8287868965
  C         3.3905761757       10.2442250252        5.9119369652
  C        -1.1632305463        7.5885799410        1.2210983485
  C         1.1404406084        4.8642843967        5.9217903087
  C         1.7999735661        3.7114135165        6.4077419972
  C        -2.7642214948       11.2412964695        6.6752305844
  C        -2.7658339961        0.1791772121       13.0786489248
  C        -0.2470695812        2.9023395033        7.4788290704
  C         4.2504219501       -2.5636133932        6.8395485697
  C         1.9959900563       -0.3503576996       11.8418245615
  C         2.0025200498       10.4619009177        5.5813327494
  C         4.2465803515        7.2115373837        1.1962629793
  C        -0.2464790233        5.0374217240        6.2678864333
  C        -1.1487632075        1.8683680402        8.0351923027
  C         3.3686432497       -1.5510917615        7.4469314876
  C         1.1130736440       -0.3375119816       10.6622382613
  C         1.1193456272        9.4286753578        5.0140089974
  C         3.3663439720        7.2202898818        2.3781084968
  C        -1.1561806436        6.0226699740        5.6533195795
  C        -0.8656124135        4.0818286211        7.0715083549
  C         3.6377280620       -3.4992219266        6.0085055414
  C         3.6324193398        6.9891796565       -0.0334780875
  O         1.8197439605        1.5600917300        7.4709522083
  O        -0.5051252188       -1.9053768903        8.0145098399
  O        -2.7501204959        0.3781616450       10.6870643575
  O        -2.7406419943        9.1040377561        5.5797121318
  O        -0.5000989395        7.8598127063        2.3737567022
  O         1.8088598041        5.7323746106        5.1068191913
  O        -0.8486898871        0.6230956577        7.8994890888
  O         3.6719377609       -1.0266778057        8.5844443289
  O         1.4110912119        0.4080922883        9.6552181674
  O         1.4300212395        8.1871847096        5.1687172363
  O         3.6771085288        7.9427454651        3.3977827561
  O        -0.8597972333        6.5397028157        4.5139893223
  O        -2.2589708796        2.2214531487        8.5795050127
  O         2.2584374112       -1.2513349081        6.8756679756
  O         0.0196818427       -1.0128746004       10.6749050331
  O         0.0108179982        9.7585849655        4.4507290052
  O         2.2547103344        6.5756088477        2.3565284780
  O        -2.2731744159        6.2807483996        6.2262130694
      54
 i =      149, E =     -1444.3730685737
 Ni         3.0424125373        1.1626876047        9.1615064528
 Ni         0.7931917314       -0.1732030866        7.5061158208
 Ni        -1.4860169399       -0.9700266769        9.4691223650
 Ni        -1.4854117944        8.6877394126        3.8922184615
 Ni         0.7896250218        6.5889789691        3.6090891130
 Ni         3.0415875242        7.3808608449        5.5975417801
  H         2.8429712166        3.5705495417        6.1425062888
  H        -1.7131902284       11.1064909172        6.9425280963
  H        -1.7161047037        0.4788164541       13.0865222227
  H        -1.9200787338        4.2343555645        7.3202779568
  H         2.5920886885       -3.3472569241        5.7506416793
  H         2.5880928538        6.6807221967       -0.0362380851
  C         1.1401323929        2.7057196440        7.1527229037
  C        -1.1597570710       -2.7312443483        7.1802948137
  C         3.3861244319        0.0299601746       11.8305583300
  C         3.3916679222       10.2526457067        5.9151052281
  C        -1.1608243158        7.5883983357        1.2214238557
  C         1.1382194796        4.8717283006        5.9228340574
  C         1.7977085132        3.7194685667        6.4120209927
  C        -2.7588072847       11.2532981342        6.6743980489
  C        -2.7614466465        0.1715775361       13.0786721225
  C        -0.2491829053        2.9113926534        7.4806142350
  C         4.2556551888       -2.5509769928        6.8303114536
  C         2.0011492946       -0.3708491781       11.8458557391
  C         2.0049448382       10.4685999955        5.5815299339
  C         4.2521225208        7.2010479377        1.1992804925
  C        -0.2500040049        5.0459032781        6.2682992747
  C        -1.1492218484        1.8784453600        8.0387564426
  C         3.3680514429       -1.5446843699        7.4426137086
  C         1.1177376252       -0.3515976014       10.6662487552
  C         1.1196657010        9.4349385427        5.0165042633
  C         3.3671298810        7.2188517217        2.3799927686
  C        -1.1542493797        6.0401108532        5.6550106459
  C        -0.8686654464        4.0916309963        7.0736361318
  C         3.6426122575       -3.4888368376        6.0022291236
  C         3.6393075996        6.9671410174       -0.0295778928
  O         1.8152010833        1.5666750608        7.4725026045
  O        -0.5000209294       -1.8804483972        8.0047543671
  O        -2.7472768623        0.3273673822       10.6797701459
  O        -2.7413878956        9.1108263827        5.5824269574
  O        -0.4992833214        7.8654982828        2.3737500054
  O         1.8092950538        5.7353911064        5.1063243488
  O        -0.8504511386        0.6325583515        7.9043003019
  O         3.6723840786       -1.0265055081        8.5817455808
  O         1.4170134005        0.4021673290        9.6651848376
  O         1.4231410341        8.1938372569        5.1752665101
  O         3.6751182981        7.9436924273        3.3987280412
  O        -0.8569363611        6.5392840647        4.5066397610
  O        -2.2602972819        2.2290627136        8.5790418662
  O         2.2547213393       -1.2484343100        6.8754396995
  O         0.0190831977       -1.0161618775       10.6774689018
  O         0.0123920308        9.7637497411        4.4564914591
  O         2.2539660231        6.5782908398        2.3565486788
  O        -2.2664147004        6.3281700650        6.2261659449
      54
 i =      150, E =     -1444.3731259333
 Ni         3.0439600705        1.1647891315        9.1547170471
 Ni         0.7934654239       -0.1731029707        7.5021777321
 Ni        -1.4848141698       -0.9693134010        9.4684330498
 Ni        -1.4866846364        8.6882406346        3.8926910731
 Ni         0.7903903211        6.5891153763        3.6092184556
 Ni         3.0403541606        7.3758674726        5.5999777268
  H         2.8442178484        3.5699388725        6.1377718347
  H        -1.7134949631       11.1028175820        6.9456032343
  H        -1.7181317079        0.4843464035       13.0862504126
  H        -1.9183452657        4.2318414729        7.3182650650
  H         2.5917013874       -3.3523706467        5.7514212427
  H         2.5853465471        6.6881819981       -0.0378886759
  C         1.1420571930        2.7043380595        7.1476749122
  C        -1.1616238248       -2.7363160325        7.1834690225
  C         3.3840422695        0.0387861255       11.8274560539
  C         3.3905295368       10.2495710273        5.9178354060
  C        -1.1623142872        7.5939949605        1.2193703549
  C         1.1388920110        4.8706417290        5.9200595177
  C         1.7982698311        3.7169865333        6.4050120366
  C        -2.7591784745       11.2489748556        6.6776150558
  C        -2.7635875682        0.1779233337       13.0761936279
  C        -0.2474517950        2.9084794309        7.4748516039
  C         4.2539626474       -2.5547076883        6.8332241611
  C         1.9994274973       -0.3632687362       11.8453794131
  C         2.0043310489       10.4654553941        5.5832178638
  C         4.2512901700        7.2043058032        1.1980151704
  C        -0.2494420236        5.0426865223        6.2641103930
  C        -1.1470159710        1.8786974766        8.0376487892
  C         3.3673850136       -1.5462320344        7.4432560458
  C         1.1183865670       -0.3473511202       10.6641958772
  C         1.1181327235        9.4328978180        5.0188696818
  C         3.3664719715        7.2197807115        2.3798040733
  C        -1.1533984999        6.0386360240        5.6537100768
  C        -0.8672334493        4.0892703047        7.0704065142
  C         3.6418477337       -3.4928060490        6.0051561328
  C         3.6368832205        6.9734466410       -0.0306324047
  O         1.8182427879        1.5668288626        7.4681145823
  O        -0.4999714620       -1.8872084627        8.0075297417
  O        -2.7465748728        0.3347725714       10.6776009139
  O        -2.7424965555        9.1084974500        5.5842012682
  O        -0.5005561600        7.8664019193        2.3731839458
  O         1.8098168315        5.7351364019        5.1051006612
  O        -0.8496704283        0.6318587880        7.9021371221
  O         3.6726578230       -1.0270824771        8.5818378595
  O         1.4163896644        0.4048014892        9.6608446840
  O         1.4205090128        8.1928461002        5.1796218614
  O         3.6735339303        7.9441135259        3.3990160165
  O        -0.8561610623        6.5394826144        4.5060293164
  O        -2.2585653455        2.2290949078        8.5761594792
  O         2.2548415828       -1.2486603082        6.8749193496
  O         0.0205574899       -1.0133030285       10.6769139241
  O         0.0137046518        9.7639811016        4.4551819817
  O         2.2538248133        6.5788101257        2.3570330535
  O        -2.2663395143        6.3223721373        6.2251745640
      54
 i =      151, E =     -1444.3731756287
 Ni         3.0447217347        1.1652149068        9.1514731904
 Ni         0.7937079497       -0.1726768047        7.5007217336
 Ni        -1.4844804081       -0.9680694959        9.4674166990
 Ni        -1.4861830101        8.6882387365        3.8924987180
 Ni         0.7911161732        6.5888825185        3.6081870846
 Ni         3.0404885578        7.3744470903        5.6017108734
  H         2.8460875044        3.5677167456        6.1391647662
  H        -1.7128662557       11.1007924369        6.9479345454
  H        -1.7173106012        0.4867757482       13.0858781906
  H        -1.9171514132        4.2289522343        7.3172905983
  H         2.5928428916       -3.3521145975        5.7514240956
  H         2.5871692354        6.6865760983       -0.0382722462
  C         1.1430799097        2.7033264720        7.1473454785
  C        -1.1600531389       -2.7354573585        7.1836927276
  C         3.3841853034        0.0422953120       11.8263279991
  C         3.3907712010       10.2476902304        5.9205363842
  C        -1.1620367971        7.5954446425        1.2184889009
  C         1.1400840011        4.8685022243        5.9188662696
  C         1.8003214194        3.7161073265        6.4062377062
  C        -2.7583655846       11.2480463628        6.6794398470
  C        -2.7638628128        0.1838061027       13.0753982845
  C        -0.2452382962        2.9079520582        7.4774212461
  C         4.2553678231       -2.5549007506        6.8331948377
  C         1.9992843544       -0.3591326526       11.8441905039
  C         2.0048618667       10.4645371123        5.5849289625
  C         4.2511143611        7.2064036320        1.1973968195
  C        -0.2480014075        5.0395994132        6.2627433496
  C        -1.1466426325        1.8778407039        8.0366251165
  C         3.3682743684       -1.5460706640        7.4429499246
  C         1.1176958753       -0.3454413829       10.6631662535
  C         1.1193850011        9.4322116135        5.0191055048
  C         3.3670816839        7.2202094223        2.3800144293
  C        -1.1513747708        6.0362003526        5.6526661134
  C        -0.8660204960        4.0869210939        7.0695009319
  C         3.6425952982       -3.4933340678        6.0062710987
  C         3.6379286660        6.9744700253       -0.0317282582
  O         1.8196441643        1.5657051819        7.4682633777
  O        -0.4999583155       -1.8800066932        8.0030684019
  O        -2.7480245263        0.3382108414       10.6754610687
  O        -2.7420205944        9.1066664332        5.5857704965
  O        -0.5003022348        7.8671638461        2.3726749221
  O         1.8099244018        5.7346974008        5.1049030270
  O        -0.8499329170        0.6313926295        7.8992606158
  O         3.6732118596       -1.0272717561        8.5816351584
  O         1.4179480668        0.4034691190        9.6584143892
  O         1.4220585375        8.1921239097        5.1795080111
  O         3.6732289006        7.9438997978        3.3999513262
  O        -0.8547322754        6.5384981917        4.5051817838
  O        -2.2574624311        2.2293424424        8.5762348519
  O         2.2546897412       -1.2498306404        6.8759831807
  O         0.0203491975       -1.0131546436       10.6758130830
  O         0.0144182665        9.7628449836        4.4562131957
  O         2.2541580163        6.5794008122        2.3563764141
  O        -2.2656108056        6.3159997650        6.2229798683
      54
 i =      152, E =     -1444.3731976286
 Ni         3.0454126111        1.1655835436        9.1538136414
 Ni         0.7930597480       -0.1722548421        7.5011187203
 Ni        -1.4840393739       -0.9681706670        9.4660155284
 Ni        -1.4856157182        8.6884997197        3.8928682388
 Ni         0.7910311044        6.5881969108        3.6076086875
 Ni         3.0405988906        7.3757150711        5.6008769137
  H         2.8476277253        3.5670373525        6.1430808731
  H        -1.7116752949       11.1012572107        6.9485083328
  H        -1.7163934672        0.4872668843       13.0853240287
  H        -1.9164430221        4.2276181715        7.3174588182
  H         2.5938707179       -3.3506252688        5.7509885579
  H         2.5893875471        6.6820786281       -0.0381821915
  C         1.1444210171        2.7040145543        7.1501889231
  C        -1.1582334409       -2.7321397876        7.1806990708
  C         3.3841098460        0.0430533217       11.8270263023
  C         3.3914804557       10.2479684845        5.9217359465
  C        -1.1615901581        7.5967294590        1.2185474342
  C         1.1413080346        4.8680772363        5.9191304334
  C         1.8014121565        3.7159503370        6.4080582062
  C        -2.7572186942       11.2490233518        6.6801713058
  C        -2.7627421601        0.1837233541       13.0756395171
  C        -0.2441071872        2.9083350042        7.4789588268
  C         4.2564448675       -2.5531232395        6.8320706150
  C         1.9996874824       -0.3597625321       11.8439500443
  C         2.0059334294       10.4653886088        5.5854248936
  C         4.2523757553        7.2047192078        1.1976027489
  C        -0.2469280942        5.0389315600        6.2626381856
  C        -1.1461748207        1.8785496319        8.0369970284
  C         3.3685789831       -1.5450940360        7.4426765379
  C         1.1181063382       -0.3469597486       10.6629131604
  C         1.1202126831        9.4328870607        5.0198905476
  C         3.3675402654        7.2192400001        2.3800608784
  C        -1.1512924339        6.0345708808        5.6517574399
  C        -0.8648967920        4.0871240775        7.0704490386
  C         3.6437088018       -3.4919550273        6.0055701560
  C         3.6391880406        6.9732038103       -0.0316748110
  O         1.8198565472        1.5650300674        7.4705126355
  O        -0.4977682848       -1.8764459723        8.0002438480
  O        -2.7475483565        0.3346025974       10.6755489005
  O        -2.7413510025        9.1067114476        5.5872325707
  O        -0.4994195011        7.8680745572        2.3725945316
  O         1.8107969552        5.7343763412        5.1049919195
  O        -0.8508455117        0.6321376734        7.8976572365
  O         3.6728746578       -1.0265523529        8.5815911809
  O         1.4189387884        0.4024296562        9.6582831856
  O         1.4219229331        8.1925705945        5.1784038183
  O         3.6734344378        7.9435066215        3.3999652976
  O        -0.8541782940        6.5378164551        4.5048177143
  O        -2.2574147564        2.2305891352        8.5752688732
  O         2.2546165579       -1.2495401725        6.8759780093
  O         0.0197469775       -1.0125054032       10.6768139016
  O         0.0153459993        9.7641246039        4.4577023746
  O         2.2545858362        6.5781844960        2.3563661810
  O        -2.2642412503        6.3185094912        6.2235612400
      54
 i =      153, E =     -1444.3732143381
 Ni         3.0455041736        1.1656263320        9.1528821958
 Ni         0.7930434502       -0.1737973371        7.4999721840
 Ni        -1.4840695521       -0.9674244146        9.4666668862
 Ni        -1.4859490557        8.6883182453        3.8932577725
 Ni         0.7909973680        6.5876838426        3.6074259844
 Ni         3.0406606932        7.3725611228        5.6001778826
  H         2.8490680230        3.5659462268        6.1437448610
  H        -1.7117532427       11.0999100276        6.9501452191
  H        -1.7171848659        0.4906237132       13.0845063568
  H        -1.9153867308        4.2253061061        7.3161673762
  H         2.5939916675       -3.3519828993        5.7519097309
  H         2.5893300167        6.6829749295       -0.0393294008
  C         1.1455770104        2.7031921604        7.1499075063
  C        -1.1579317347       -2.7325343667        7.1808852969
  C         3.3833638552        0.0461149395       11.8270745914
  C         3.3916013568       10.2470892587        5.9225457048
  C        -1.1618003853        7.5988738487        1.2184369472
  C         1.1421580049        4.8668968745        5.9190281781
  C         1.8027924264        3.7151868384        6.4082937665
  C        -2.7569579571       11.2483332934        6.6807841401
  C        -2.7633139310        0.1865486187       13.0755317900
  C        -0.2427898069        2.9074391652        7.4792330768
  C         4.2568533214       -2.5530708156        6.8318872093
  C         1.9991759643       -0.3569847864       11.8435434534
  C         2.0059632842       10.4642011869        5.5866911176
  C         4.2523375668        7.2064351099        1.1969259318
  C        -0.2463809776        5.0372114840        6.2612979089
  C        -1.1453776603        1.8775518237        8.0362505560
  C         3.3686008568       -1.5452657589        7.4428076989
  C         1.1184725780       -0.3456209017       10.6619634290
  C         1.1205354198        9.4318575780        5.0205609287
  C         3.3672464508        7.2200465091        2.3793034491
  C        -1.1509006917        6.0331924876        5.6516783712
  C        -0.8636558941        4.0856801804        7.0698191128
  C         3.6440831258       -3.4926235817        6.0060650242
  C         3.6387963835        6.9751968541       -0.0321738595
  O         1.8205648484        1.5637860820        7.4698215421
  O        -0.4973781400       -1.8774172647        8.0012017476
  O        -2.7488186296        0.3378928067       10.6757413742
  O        -2.7423829580        9.1048991321        5.5894558967
  O        -0.4995540662        7.8686146642        2.3726789679
  O         1.8111178411        5.7332930859        5.1049210330
  O        -0.8510995039        0.6311425549        7.8948924012
  O         3.6729665271       -1.0266911363        8.5818924824
  O         1.4186247087        0.4032531500        9.6561890118
  O         1.4218549304        8.1915337317        5.1790049865
  O         3.6740880153        7.9431632416        3.3995091065
  O        -0.8540773511        6.5373327417        4.5044347616
  O        -2.2562970879        2.2303515578        8.5752752425
  O         2.2551951780       -1.2495696520        6.8748948449
  O         0.0203351402       -1.0113932779       10.6773535173
  O         0.0160256524        9.7631074482        4.4581674543
  O         2.2542740025        6.5791473742        2.3560037894
  O        -2.2637034486        6.3172978619        6.2239904904
      54
 i =      154, E =     -1444.3732319424
 Ni         3.0451146910        1.1655789454        9.1537920362
 Ni         0.7929728968       -0.1750882746        7.4974851814
 Ni        -1.4839474255       -0.9670195558        9.4660062843
 Ni        -1.4862942566        8.6878131262        3.8934335943
 Ni         0.7914347178        6.5877210467        3.6066635378
 Ni         3.0408256084        7.3691151213        5.6005751907
  H         2.8513511211        3.5651071228        6.1454935962
  H        -1.7119208334       11.0987244312        6.9527327824
  H        -1.7187793774        0.4963700789       13.0836381536
  H        -1.9141227674        4.2221871070        7.3145577977
  H         2.5942903587       -3.3542526789        5.7528943736
  H         2.5889728029        6.6838112565       -0.0411757454
  C         1.1471555623        2.7018244530        7.1490309253
  C        -1.1575551124       -2.7332994516        7.1809696315
  C         3.3829563776        0.0495348102       11.8262197124
  C         3.3909364137       10.2450777466        5.9251887189
  C        -1.1625807283        7.6019582694        1.2178313727
  C         1.1432188022        4.8654093702        5.9183358869
  C         1.8046313076        3.7143362414        6.4085993656
  C        -2.7565272334       11.2475198123        6.6811818813
  C        -2.7647687866        0.1918657478       13.0748930348
  C        -0.2410126850        2.9060154053        7.4786768223
  C         4.2575376323       -2.5530069208        6.8314559558
  C         1.9988016712       -0.3531606666       11.8430826829
  C         2.0057675441       10.4623852806        5.5883415853
  C         4.2515472778        7.2094372939        1.1958621427
  C        -0.2456580145        5.0353124525        6.2600467291
  C        -1.1439428057        1.8761886255        8.0350023464
  C         3.3691809798       -1.5449283026        7.4422181367
  C         1.1185499918       -0.3426457958       10.6610873093
  C         1.1202130105        9.4301290002        5.0218997063
  C         3.3669884388        7.2213321322        2.3789403765
  C        -1.1501159911        6.0319158725        5.6510701655
  C        -0.8624323441        4.0834241391        7.0683306978
  C         3.6446043880       -3.4937079793        6.0068305896
  C         3.6379906593        6.9777677739       -0.0331132585
  O         1.8222663294        1.5621286438        7.4675981171
  O        -0.4966541819       -1.8779634818        8.0014943572
  O        -2.7483982807        0.3391342304       10.6751824040
  O        -2.7430152886        9.1027066545        5.5936286564
  O        -0.5006075501        7.8693494379        2.3725909292
  O         1.8114518636        5.7324528364        5.1046340924
  O        -0.8513128077        0.6296859976        7.8885827085
  O         3.6729343294       -1.0268988457        8.5818471579
  O         1.4180715868        0.4042038810        9.6534394353
  O         1.4219853064        8.1901458157        5.1810011265
  O         3.6740717629        7.9436080900        3.3996127110
  O        -0.8534409709        6.5364513349        4.5034859029
  O        -2.2549822919        2.2284729086        8.5746215138
  O         2.2556699851       -1.2499525484        6.8745336741
  O         0.0211297915       -1.0099826654       10.6762987944
  O         0.0172826413        9.7620622795        4.4571550974
  O         2.2547906070        6.5793433910        2.3560095993
  O        -2.2626908474        6.3159827857        6.2236010460
      54
 i =      155, E =     -1444.3732913651
 Ni         3.0451721706        1.1653749810        9.1540680669
 Ni         0.7939243369       -0.1807953845        7.4944438940
 Ni        -1.4832465629       -0.9660514450        9.4647978688
 Ni        -1.4866641736        8.6868606285        3.8937364483
 Ni         0.7922013062        6.5872378534        3.6047411623
 Ni         3.0411071309        7.3639811099        5.6000221208
  H         2.8566647801        3.5642356193        6.1500745729
  H        -1.7120296068       11.0965678510        6.9578344123
  H        -1.7215213671        0.5089853509       13.0820143041
  H        -1.9113114326        4.2160583779        7.3112150199
  H         2.5953636603       -3.3578902813        5.7548692902
  H         2.5893441260        6.6849550507       -0.0441634191
  C         1.1509692888        2.6987929834        7.1487005276
  C        -1.1561727710       -2.7344960943        7.1808695308
  C         3.3821481744        0.0564081362       11.8248191912
  C         3.3906713300       10.2411008067        5.9301211158
  C        -1.1641655415        7.6089547440        1.2163916830
  C         1.1463666611        4.8628784779        5.9177494830
  C         1.8085147038        3.7119787474        6.4092049735
  C        -2.7559340836       11.2453066599        6.6834865079
  C        -2.7668726327        0.2022495677       13.0736541812
  C        -0.2371631677        2.9030125855        7.4775989503
  C         4.2595545797       -2.5529386416        6.8307652644
  C         1.9980210709       -0.3454167589       11.8415028353
  C         2.0060315390       10.4590149490        5.5928255901
  C         4.2506098405        7.2142851854        1.1939125366
  C        -0.2437046123        5.0313604861        6.2574775927
  C        -1.1418829081        1.8719325979        8.0294112871
  C         3.3710046067       -1.5446291088        7.4411735945
  C         1.1180107474       -0.3377972675       10.6592715111
  C         1.1202599460        9.4275914443        5.0243931855
  C         3.3668121411        7.2240743731        2.3782366333
  C        -1.1484818752        6.0287734855        5.6489855269
  C        -0.8595098689        4.0790463859        7.0657380555
  C         3.6460314193       -3.4953141616        6.0081788624
  C         3.6371503218        6.9833699757       -0.0351663883
  O         1.8242002900        1.5575852717        7.4660989775
  O        -0.4950806813       -1.8791698134        8.0023333452
  O        -2.7480676152        0.3417126215       10.6740314856
  O        -2.7431335793        9.0976405956        5.6050468719
  O        -0.5020542995        7.8705235408        2.3721556268
  O         1.8128658307        5.7306949638        5.1037929770
  O        -0.8517119638        0.6256435042        7.8711902650
  O         3.6737319201       -1.0275277328        8.5814103780
  O         1.4170826841        0.4070837071        9.6489296783
  O         1.4210684559        8.1875830112        5.1844533851
  O         3.6740576112        7.9446776265        3.3998003256
  O        -0.8513623859        6.5348049734        4.5017902167
  O        -2.2510824492        2.2254302616        8.5742055242
  O         2.2572708948       -1.2512326448        6.8739059036
  O         0.0217557578       -1.0074921598       10.6749055248
  O         0.0190476753        9.7607048048        4.4574249981
  O         2.2558061486        6.5805652120        2.3558113418
  O        -2.2610103036        6.3133828700        6.2211479276
      54
 i =      156, E =     -1444.3632321906
 Ni         3.0468100003        1.1625233347        9.1551237513
 Ni         0.8076305285       -0.2645239945        7.4494307844
 Ni        -1.4733112396       -0.9530800746        9.4482192379
 Ni        -1.4913936231        8.6729012589        3.8993516444
 Ni         0.8033810022        6.5798395271        3.5770248834
 Ni         3.0444938752        7.2852791887        5.5928121126
  H         2.9324999820        3.5514278699        6.2133140989
  H        -1.7141126937       11.0647990210        7.0315017805
  H        -1.7614030124        0.6914083061       13.0590251515
  H        -1.8706630503        4.1281814605        7.2631005411
  H         2.6105129244       -3.4103023934        5.7829447964
  H         2.5933835229        6.7053633621       -0.0878505978
  C         1.2053776401        2.6537091308        7.1408390558
  C        -1.1378121776       -2.7531592480        7.1810302749
  C         3.3693162025        0.1575275453       11.8046513276
  C         3.3863857661       10.1811020926        6.0047137240
  C        -1.1874947123        7.7101470363        1.1954884251
  C         1.1909534892        4.8252665506        5.9074713737
  C         1.8641102258        3.6774957371        6.4160398939
  C        -2.7482967496       11.2122597142        6.7184696527
  C        -2.7975385882        0.3524538580       13.0556183794
  C        -0.1821148982        2.8586260772        7.4593755631
  C         4.2870969366       -2.5538255639        6.8221254216
  C         1.9858522663       -0.2331308635       11.8179639404
  C         2.0105837502       10.4101895493        5.6562455746
  C         4.2359606399        7.2861470363        1.1658256883
  C        -0.2154453531        4.9748270963        6.2201373642
  C        -1.1112118870        1.8094188001        7.9478634973
  C         3.3966486413       -1.5418669265        7.4273820471
  C         1.1098402443       -0.2675905285       10.6318860869
  C         1.1211597509        9.3902604638        5.0606888809
  C         3.3637037663        7.2629577522        2.3683165252
  C        -1.1253697991        5.9833178246        5.6186623349
  C        -0.8173046006        4.0161126675        7.0277730649
  C         3.6656667114       -3.5204193337        6.0288249263
  C         3.6242557334        7.0661900259       -0.0650881841
  O         1.8523333911        1.4915348889        7.4417313627
  O        -0.4736071431       -1.8977654051        8.0147035989
  O        -2.7444377136        0.3782773924       10.6565904763
  O        -2.7474556646        9.0200856802        5.7736635321
  O        -0.5229293958        7.8884244583        2.3652819472
  O         1.8332588287        5.7050148517        5.0913635045
  O        -0.8574855456        0.5656573417        7.6211902650
  O         3.6853015154       -1.0367218844        8.5755480351
  O         1.4026059407        0.4483543180        9.5827507336
  O         1.4086522953        8.1499477144        5.2319698609
  O         3.6737017686        7.9594444951        3.4029348140
  O        -0.8227539990        6.5107556758        4.4765982598
  O        -2.1944818900        2.1811011970        8.5645336403
  O         2.2797454584       -1.2710468179        6.8655446543
  O         0.0304233704       -0.9706880010       10.6554381387
  O         0.0449238863        9.7415187554        4.4612930786
  O         2.2700783486        6.5967294916        2.3521903845
  O        -2.2360349804        6.2757710999        6.1888263038
      54
 i =      157, E =     -1444.3733037655
 Ni         3.0451898229        1.1643816209        9.1532296355
 Ni         0.7949777147       -0.1852622957        7.4932521823
 Ni        -1.4827937322       -0.9658782267        9.4640153795
 Ni        -1.4859545837        8.6857139911        3.8938099613
 Ni         0.7931235545        6.5871162656        3.6032491091
 Ni         3.0412884636        7.3612580800        5.5994991822
  H         2.8603286915        3.5646013177        6.1533755357
  H        -1.7121846404       11.0951387841        6.9611855789
  H        -1.7234643818        0.5186830714       13.0811991514
  H        -1.9097842026        4.2123083961        7.3087888297
  H         2.5963362481       -3.3597231839        5.7562283849
  H         2.5897655200        6.6863670387       -0.0458029800
  C         1.1535768784        2.6965036639        7.1484494423
  C        -1.1549530167       -2.7351882490        7.1808397402
  C         3.3815620641        0.0608499378       11.8239270006
  C         3.3907417634       10.2379361746        5.9342637043
  C        -1.1652266911        7.6133097946        1.2152789853
  C         1.1487897869        4.8615330783        5.9176473419
  C         1.8111351365        3.7104946422        6.4097340208
  C        -2.7559333806       11.2433671934        6.6861735801
  C        -2.7681077349        0.2092828425       13.0727752159
  C        -0.2348920077        2.9006375232        7.4754549502
  C         4.2611262914       -2.5534038310        6.8305031018
  C         1.9974968260       -0.3408052259       11.8401515846
  C         2.0067195196       10.4569193113        5.5958918922
  C         4.2498131261        7.2177191016        1.1928690194
  C        -0.2421697191        5.0291758910        6.2561506105
  C        -1.1403715348        1.8679720052        8.0234951198
  C         3.3726323529       -1.5451084010        7.4405607388
  C         1.1170419276       -0.3352492000       10.6582876422
  C         1.1204316383        9.4261048407        5.0263965428
  C         3.3666862620        7.2261112600        2.3779780063
  C        -1.1471347077        6.0268314290        5.6470203771
  C        -0.8577552788        4.0764945993        7.0641103196
  C         3.6470586138       -3.4965450684        6.0091024980
  C         3.6367942180        6.9874749749       -0.0365239078
  O         1.8255806674        1.5545290785        7.4651999402
  O        -0.4937559803       -1.8802087279        8.0032140014
  O        -2.7480287666        0.3429881234       10.6730781844
  O        -2.7432075423        9.0939086177        5.6128191827
  O        -0.5027081499        7.8717708128        2.3712340834
  O         1.8145875756        5.7286448357        5.1024953155
  O        -0.8518199602        0.6225537384        7.8579328504
  O         3.6746954043       -1.0284817826        8.5808636456
  O         1.4157279171        0.4095138776        9.6469448015
  O         1.4199378958        8.1857027062        5.1872773407
  O         3.6737568243        7.9458771209        3.4002963280
  O        -0.8495832095        6.5334366794        4.5002961347
  O        -2.2475194131        2.2216876079        8.5733344283
  O         2.2585478454       -1.2524438987        6.8740788678
  O         0.0211318787       -1.0050668684       10.6743280585
  O         0.0198239309        9.7601200671        4.4587246476
  O         2.2565422679        6.5814682330        2.3553401560
  O        -2.2600031066        6.3112841609        6.2181935672
      54
 i =      158, E =     -1444.3732946935
 Ni         3.0458754753        1.1650085451        9.1539747232
 Ni         0.7938875110       -0.1808755264        7.4958654060
 Ni        -1.4836304889       -0.9672482332        9.4660712304
 Ni        -1.4873747836        8.6863776870        3.8941059683
 Ni         0.7926640350        6.5872473175        3.6042837464
 Ni         3.0406883348        7.3668470581        5.5988471811
  H         2.8569302159        3.5662591345        6.1514120794
  H        -1.7120296034       11.0972974999        6.9586089139
  H        -1.7223583480        0.5116905704       13.0822173250
  H        -1.9114485088        4.2168691261        7.3110398808
  H         2.5958467044       -3.3570427925        5.7542672783
  H         2.5892332565        6.6842738431       -0.0437350886
  C         1.1504601450        2.6985797592        7.1480192694
  C        -1.1561159241       -2.7345878512        7.1810121315
  C         3.3827654371        0.0532057801       11.8244539673
  C         3.3908681262       10.2408289471        5.9307918397
  C        -1.1644605061        7.6098930193        1.2160662817
  C         1.1464076217        4.8638354291        5.9181942690
  C         1.8082265692        3.7125382081        6.4093100908
  C        -2.7560409429       11.2452059591        6.6843788107
  C        -2.7672101012        0.2031177979       13.0732751569
  C        -0.2378251213        2.9028725630        7.4765664035
  C         4.2602186404       -2.5518405669        6.8296500717
  C         1.9981503660       -0.3471842549       11.8415429614
  C         2.0060721154       10.4589908462        5.5935766697
  C         4.2507292942        7.2141669725        1.1938025685
  C        -0.2440902867        5.0330369692        6.2578392978
  C        -1.1424681946        1.8713578461        8.0282033927
  C         3.3712945227       -1.5443724773        7.4405177330
  C         1.1171565059       -0.3384846859       10.6599975321
  C         1.1198944970        9.4282145721        5.0240433322
  C         3.3671735037        7.2235846857        2.3781006884
  C        -1.1486862400        6.0315265361        5.6495607059
  C        -0.8597657290        4.0795370859        7.0649890126
  C         3.6463643611       -3.4947823377        6.0078970939
  C         3.6371457788        6.9825014890       -0.0350815138
  O         1.8233687770        1.5575843271        7.4661365175
  O        -0.4953525147       -1.8782206531        8.0021511174
  O        -2.7473764215        0.3383010283       10.6736773303
  O        -2.7430381811        9.0959838471        5.6115020945
  O        -0.5025699477        7.8702884983        2.3721420848
  O         1.8133375480        5.7314378651        5.1041312505
  O        -0.8505090321        0.6258518293        7.8727940131
  O         3.6742306697       -1.0279243771        8.5811226410
  O         1.4172441986        0.4070923761        9.6504226867
  O         1.4198691275        8.1876480144        5.1843207860
  O         3.6738543854        7.9439417149        3.4003023181
  O        -0.8506350674        6.5360464687        4.5018180645
  O        -2.2507914002        2.2264983895        8.5741783024
  O         2.2569225215       -1.2510351861        6.8741364059
  O         0.0212167664       -1.0088458173       10.6754210427
  O         0.0182451656        9.7608566180        4.4571984553
  O         2.2557224932        6.5811808464        2.3555250806
  O        -2.2612730359        6.3175429634        6.2214407927
      54
 i =      159, E =     -1444.3733430193
 Ni         3.0455926915        1.1640439052        9.1534715152
 Ni         0.7942580681       -0.1827453519        7.4943065614
 Ni        -1.4833434814       -0.9669469420        9.4651831353
 Ni        -1.4863132658        8.6858576314        3.8945322826
 Ni         0.7925937008        6.5871683204        3.6034422596
 Ni         3.0407106781        7.3657144310        5.5996130526
  H         2.8587830500        3.5656907502        6.1527511320
  H        -1.7121982136       11.0958463936        6.9603214074
  H        -1.7231457512        0.5163125399       13.0816710758
  H        -1.9106491504        4.2146382350        7.3097839227
  H         2.5962504072       -3.3579372783        5.7551537325
  H         2.5894233929        6.6856776000       -0.0445322746
  C         1.1521427393        2.6974870574        7.1484211261
  C        -1.1553448070       -2.7345920899        7.1808381943
  C         3.3818930342        0.0576996791       11.8243623955
  C         3.3906236286       10.2387987624        5.9338291094
  C        -1.1650017929        7.6117636261        1.2157137161
  C         1.1477672105        4.8627923370        5.9178105462
  C         1.8097675091        3.7116772295        6.4097229857
  C        -2.7561392669       11.2441301056        6.6859777189
  C        -2.7675991362        0.2061869495       13.0731412037
  C        -0.2364370841        2.9015044797        7.4758382423
  C         4.2606756629       -2.5527788810        6.8302738334
  C         1.9977672842       -0.3443250529       11.8406683732
  C         2.0064228873       10.4577991579        5.5949660051
  C         4.2501214201        7.2158719099        1.1935082374
  C        -0.2428766850        5.0312653836        6.2573676380
  C        -1.1416593322        1.8696990850        8.0261278181
  C         3.3719860655       -1.5449410473        7.4406832429
  C         1.1169601795       -0.3372488984       10.6589217418
  C         1.1202014453        9.4272641185        5.0249506524
  C         3.3669197559        7.2247773051        2.3782701901
  C        -1.1481443789        6.0289208586        5.6483691163
  C        -0.8587762165        4.0778974372        7.0644491433
  C         3.6469069509       -3.4954756610        6.0081445669
  C         3.6370162802        6.9850461849       -0.0357782924
  O         1.8243889498        1.5559149395        7.4661107641
  O        -0.4945115539       -1.8790935409        8.0027692156
  O        -2.7475015123        0.3409985203       10.6737357667
  O        -2.7432886961        9.0937983649        5.6155592186
  O        -0.5024883917        7.8709806389        2.3715647287
  O         1.8139724020        5.7307075088        5.1034347063
  O        -0.8512806325        0.6241025477        7.8662142261
  O         3.6743827403       -1.0280327245        8.5808820093
  O         1.4161232852        0.4078760698        9.6483372332
  O         1.4198607644        8.1866218777        5.1845532853
  O         3.6738173902        7.9448889750        3.4007554164
  O        -0.8502277913        6.5351228979        4.5016682115
  O        -2.2495615291        2.2243438959        8.5738394346
  O         2.2577671135       -1.2516527170        6.8740915117
  O         0.0209816420       -1.0072733723       10.6747501820
  O         0.0187700986        9.7607839079        4.4581056684
  O         2.2561862053        6.5808722091        2.3555193957
  O        -2.2611117640        6.3136379744        6.2197974391
      54
 i =      160, E =     -1444.3733397923
 Ni         3.0454453482        1.1636240156        9.1516289637
 Ni         0.7952196495       -0.1859989398        7.4922353395
 Ni        -1.4823402319       -0.9660496592        9.4639971968
 Ni        -1.4858315802        8.6846329459        3.8945413945
 Ni         0.7935423983        6.5870711460        3.6019429319
 Ni         3.0398528785        7.3626294756        5.6015431696
  H         2.8629137182        3.5659559429        6.1558448255
  H        -1.7126081629       11.0932485695        6.9654008005
  H        -1.7260823591        0.5283026446       13.0804724040
  H        -1.9088842857        4.2100067907        7.3065483717
  H         2.5974219749       -3.3605421207        5.7561727119
  H         2.5892721764        6.6882351025       -0.0466606333
  C         1.1549423166        2.6952244458        7.1469045801
  C        -1.1546147032       -2.7357643397        7.1814355567
  C         3.3807705840        0.0638645600       11.8230633457
  C         3.3897493717       10.2339516333        5.9409097472
  C        -1.1662840648        7.6169327829        1.2146083871
  C         1.1502796988        4.8614269483        5.9174193752
  C         1.8128107860        3.7102924520        6.4094968126
  C        -2.7561419749       11.2416286326        6.6895229922
  C        -2.7697645162        0.2153949278       13.0720209107
  C        -0.2337156611        2.8989859935        7.4731680980
  C         4.2616758591       -2.5534496298        6.8305142885
  C         1.9967503721       -0.3380533917       11.8392321548
  C         2.0068949719       10.4550011429        5.5989248109
  C         4.2488703635        7.2207524660        1.1922021213
  C        -0.2413602494        5.0279734297        6.2548578583
  C        -1.1398077269        1.8664500731        8.0206446312
  C         3.3733214390       -1.5450267668        7.4403418183
  C         1.1164497574       -0.3339791799       10.6571797754
  C         1.1201495762        9.4253922726        5.0277231209
  C         3.3663433743        7.2278046180        2.3780726036
  C        -1.1465240052        6.0263910046        5.6461264048
  C        -0.8567793962        4.0748306920        7.0621651871
  C         3.6479882669       -3.4971351186        6.0094906652
  C         3.6360401957        6.9904121144       -0.0373112977
  O         1.8260770683        1.5531664609        7.4647648828
  O        -0.4929859737       -1.8804111702        8.0036148243
  O        -2.7481479856        0.3427633459       10.6718912242
  O        -2.7454876790        9.0871941576        5.6272556953
  O        -0.5031147777        7.8720758043        2.3707134837
  O         1.8152905973        5.7294364562        5.1024316735
  O        -0.8520240261        0.6211248862        7.8519484969
  O         3.6751030407       -1.0287582777        8.5807432387
  O         1.4148505710        0.4106405912        9.6452359191
  O         1.4195062785        8.1850958015        5.1872328737
  O         3.6732906545        7.9464494505        3.4015619552
  O        -0.8486282219        6.5339614311        4.5001446150
  O        -2.2461981846        2.2205835508        8.5726883778
  O         2.2589462783       -1.2525592123        6.8740462004
  O         0.0209865381       -1.0045219937       10.6737522097
  O         0.0197695333        9.7596334680        4.4594808225
  O         2.2568683117        6.5818271163        2.3554821846
  O        -2.2592830264        6.3112762857        6.2175493376
      54
 i =      161, E =     -1444.3733819686
 Ni         3.0455573273        1.1637003399        9.1522191963
 Ni         0.7948061600       -0.1841607725        7.4936658765
 Ni        -1.4829703307       -0.9670371111        9.4646878425
 Ni        -1.4852856961        8.6847491815        3.8947305251
 Ni         0.7927274745        6.5871276040        3.6025176860
 Ni         3.0397898099        7.3655338642        5.6014530888
  H         2.8605765180        3.5664162230        6.1541174261
  H        -1.7128531219       11.0939980060        6.9636478079
  H        -1.7251116906        0.5233157495       13.0811777780
  H        -1.9101058276        4.2127665323        7.3080629083
  H         2.5968879309       -3.3586760186        5.7551872111
  H         2.5888771784        6.6880194478       -0.0452283450
  C         1.1533711649        2.6965544953        7.1477940659
  C        -1.1552420051       -2.7355880960        7.1815004770
  C         3.3809817252        0.0608973892       11.8239885612
  C         3.3894021338       10.2350535922        5.9392852030
  C        -1.1657731555        7.6136827949        1.2152870860
  C         1.1488401452        4.8626474294        5.9178670353
  C         1.8109815513        3.7112896203        6.4094669192
  C        -2.7566262207       11.2421700392        6.6885533483
  C        -2.7688695866        0.2106772808       13.0727792725
  C        -0.2354709610        2.9003818211        7.4740445038
  C         4.2609219792       -2.5533698252        6.8307537383
  C         1.9970056226       -0.3415184471       11.8400034871
  C         2.0064834301       10.4564415898        5.5970807565
  C         4.2491573456        7.2182443645        1.1932294318
  C        -0.2423115909        5.0298816125        6.2561922934
  C        -1.1409022432        1.8684422624        8.0238224769
  C         3.3726634184       -1.5449770011        7.4405899211
  C         1.1165562765       -0.3362857818       10.6579820145
  C         1.1199105832        9.4266992938        5.0262509250
  C         3.3664879502        7.2259510604        2.3786081492
  C        -1.1476457265        6.0280816859        5.6479338312
  C        -0.8581146278        4.0766571625        7.0632328163
  C         3.6472735858       -3.4962591428        6.0088841698
  C         3.6362734250        6.9880384794       -0.0363214083
  O         1.8247655916        1.5546008013        7.4659492586
  O        -0.4939734637       -1.8801555825        8.0032774075
  O        -2.7479996388        0.3418285852       10.6731139751
  O        -2.7455515735        9.0886630681        5.6234181259
  O        -0.5025834532        7.8711510697        2.3709454651
  O         1.8142553319        5.7311873032        5.1034509366
  O        -0.8513644622        0.6226872017        7.8609733299
  O         3.6744753237       -1.0279976868        8.5809026657
  O         1.4153899297        0.4088333477        9.6469015151
  O         1.4197969670        8.1861260354        5.1845086753
  O         3.6738225693        7.9454727550        3.4016673011
  O        -0.8498208265        6.5351980891        4.5017065653
  O        -2.2482901235        2.2231549943        8.5730728598
  O         2.2584005047       -1.2520504586        6.8740926429
  O         0.0208051272       -1.0065115241       10.6743921154
  O         0.0189287613        9.7609815264        4.4587673194
  O         2.2565102309        6.5806640018        2.3556493224
  O        -2.2605675357        6.3121652717        6.2195909229
      54
 i =      162, E =     -1444.3734070010
 Ni         3.0456306722        1.1632016671        9.1519883739
 Ni         0.7949239171       -0.1830014351        7.4937095055
 Ni        -1.4832716429       -0.9675169412        9.4653946935
 Ni        -1.4849288171        8.6842845932        3.8954087489
 Ni         0.7923624259        6.5867654933        3.6028627241
 Ni         3.0394261133        7.3682710559        5.6021617766
  H         2.8596645765        3.5673584790        6.1536898815
  H        -1.7133170418       11.0932407985        6.9643177751
  H        -1.7256399251        0.5233302457       13.0814680149
  H        -1.9110286130        4.2137752765        7.3080724621
  H         2.5968333444       -3.3574414672        5.7542921790
  H         2.5879861359        6.6890450226       -0.0445155647
  C         1.1523815876        2.6971064049        7.1475033747
  C        -1.1556413626       -2.7359667876        7.1820654991
  C         3.3807480125        0.0598870982       11.8242292076
  C         3.3887494076       10.2343139754        5.9404153636
  C        -1.1656813174        7.6129532732        1.2156629389
  C         1.1478792274        4.8631693921        5.9177267783
  C         1.8103369369        3.7123603399        6.4099347606
  C        -2.7573845965       11.2410590862        6.6901363658
  C        -2.7690689940        0.2095265965       13.0729901881
  C        -0.2365833823        2.9006810593        7.4738911504
  C         4.2606279762       -2.5534130293        6.8309498517
  C         1.9968730308       -0.3431185219       11.8404519277
  C         2.0058832906       10.4563838388        5.5977853607
  C         4.2490940432        7.2178256282        1.1936956185
  C        -0.2427163373        5.0311658761        6.2572675982
  C        -1.1413352145        1.8686831117        8.0247960669
  C         3.3721997135       -1.5452863257        7.4408681263
  C         1.1164930108       -0.3371325772       10.6582817241
  C         1.1198139987        9.4273399921        5.0258350664
  C         3.3661623626        7.2256755615        2.3786654416
  C        -1.1482855124        6.0290470449        5.6488325064
  C        -0.8590044007        4.0772588637        7.0632378541
  C         3.6469226754       -3.4958917860        6.0087754177
  C         3.6357792115        6.9877588112       -0.0357325568
  O         1.8245215232        1.5555867016        7.4658234388
  O        -0.4946988418       -1.8798261286        8.0029535527
  O        -2.7479147933        0.3415028926       10.6737026369
  O        -2.7462487152        9.0869131619        5.6268779301
  O        -0.5022801180        7.8708095349        2.3711241294
  O         1.8141215896        5.7320956940        5.1042013408
  O        -0.8515501546        0.6225454534        7.8643028858
  O         3.6740825653       -1.0279130024        8.5809415654
  O         1.4152705807        0.4077101530        9.6474004358
  O         1.4198289053        8.1866411785        5.1828878015
  O         3.6738888969        7.9452814840        3.4016946968
  O        -0.8505946277        6.5362065025        4.5026609200
  O        -2.2490455529        2.2235146096        8.5729495163
  O         2.2581218937       -1.2520859596        6.8740363629
  O         0.0208452027       -1.0074520278       10.6747501542
  O         0.0183024033        9.7608777385        4.4587786455
  O         2.2559061823        6.5807808030        2.3555061239
  O        -2.2610658042        6.3131753994        6.2207441663
      54
 i =      163, E =     -1444.3734050221
 Ni         3.0452578279        1.1632903888        9.1508596458
 Ni         0.7952287007       -0.1829225092        7.4938019665
 Ni        -1.4839922617       -0.9685058377        9.4665227954
 Ni        -1.4842092691        8.6833285595        3.8955300010
 Ni         0.7914259335        6.5876071766        3.6036061369
 Ni         3.0377073361        7.3758084956        5.6045796675
  H         2.8571744333        3.5706009486        6.1526653257
  H        -1.7148260652       11.0902819860        6.9672788306
  H        -1.7268279660        0.5231863498       13.0825087698
  H        -1.9133509949        4.2167839921        7.3081533665
  H         2.5974087627       -3.3538821601        5.7515812545
  H         2.5857831103        6.6927679125       -0.0420522813
  C         1.1501138231        2.6986758086        7.1475478592
  C        -1.1573445742       -2.7377178852        7.1847868753
  C         3.3803233049        0.0561726444       11.8253092808
  C         3.3858089584       10.2311637198        5.9466935057
  C        -1.1653518241        7.6092850662        1.2168508868
  C         1.1457652072        4.8660960112        5.9195946614
  C         1.8082200935        3.7148449963        6.4105177097
  C        -2.7591117255       11.2383836850        6.6942734725
  C        -2.7694642269        0.2066809475       13.0739997504
  C        -0.2395921512        2.9011213097        7.4723251072
  C         4.2594512412       -2.5543143689        6.8322284406
  C         1.9960558939       -0.3461093578       11.8414940659
  C         2.0046308554       10.4562733116        5.5983887857
  C         4.2486844882        7.2164846482        1.1951932394
  C        -0.2446221406        5.0338888843        6.2586691717
  C        -1.1425791304        1.8686405843        8.0254807006
  C         3.3717771791       -1.5455699682        7.4415172324
  C         1.1162237530       -0.3403999165       10.6588034350
  C         1.1177799855        9.4293020464        5.0259970989
  C         3.3658249687        7.2240582078        2.3796485303
  C        -1.1499493141        6.0326380559        5.6516577743
  C        -0.8610828039        4.0793202929        7.0639580644
  C         3.6463831109       -3.4955280929        6.0087551268
  C         3.6349960443        6.9864125405       -0.0342057079
  O         1.8223878586        1.5572908590        7.4677084979
  O        -0.4963531786       -1.8797349859        8.0025306155
  O        -2.7492789615        0.3391368593       10.6742870408
  O        -2.7499191376        9.0820531907        5.6328718781
  O        -0.5011488209        7.8697151254        2.3713996954
  O         1.8122177710        5.7349366054        5.1055366350
  O        -0.8501506859        0.6220922674        7.8709410598
  O         3.6728752079       -1.0277436642        8.5819438757
  O         1.4150310923        0.4057318781        9.6493889540
  O         1.4201529451        8.1889709958        5.1796859566
  O         3.6740493792        7.9446342569        3.4022719382
  O        -0.8528467369        6.5385874066        4.5045847002
  O        -2.2504843699        2.2242074835        8.5718705730
  O         2.2585022596       -1.2516007962        6.8732386375
  O         0.0203405720       -1.0098425597       10.6759225870
  O         0.0158694227        9.7625491444        4.4584067665
  O         2.2552049460        6.5795459238        2.3563214112
  O        -2.2624200004        6.3163800178        6.2242335725
      54
 i =      164, E =     -1444.3734391598
 Ni         3.0456211613        1.1635416438        9.1501795056
 Ni         0.7949116230       -0.1840138738        7.4933314331
 Ni        -1.4834542273       -0.9679464842        9.4656926643
 Ni        -1.4844946329        8.6836142830        3.8950467195
 Ni         0.7921616305        6.5865970269        3.6035154137
 Ni         3.0385931013        7.3706513561        5.6030675629
  H         2.8581419699        3.5696547064        6.1527887318
  H        -1.7148014354       11.0900924474        6.9674719515
  H        -1.7266854580        0.5240262865       13.0821881977
  H        -1.9125169982        4.2150208013        7.3078850738
  H         2.5971691884       -3.3555445865        5.7524686941
  H         2.5861299182        6.6931669264       -0.0429975397
  C         1.1510884279        2.6975514761        7.1468677365
  C        -1.1569361820       -2.7382433930        7.1848412421
  C         3.3801592297        0.0585172434       11.8247336881
  C         3.3864408150       10.2313266516        5.9449158197
  C        -1.1658200705        7.6113019202        1.2161530140
  C         1.1464791021        4.8646635172        5.9189101137
  C         1.8090590896        3.7136699818        6.4101644708
  C        -2.7590621196       11.2377940264        6.6941074564
  C        -2.7695592629        0.2084662420       13.0734724605
  C        -0.2382133580        2.9005619106        7.4722012543
  C         4.2598003616       -2.5546943024        6.8325571136
  C         1.9960679406       -0.3439664980       11.8409434107
  C         2.0047784628       10.4558676310        5.5988828728
  C         4.2487659793        7.2170594484        1.1944433303
  C        -0.2439451709        5.0325032632        6.2578214474
  C        -1.1416567615        1.8678896876        8.0237978451
  C         3.3719273318       -1.5459053474        7.4416096490
  C         1.1157453648       -0.3377307662       10.6586354629
  C         1.1185728672        9.4280133461        5.0265579967
  C         3.3659182956        7.2249116322        2.3791478116
  C        -1.1493484574        6.0308120456        5.6500305409
  C        -0.8603823003        4.0780590534        7.0631592949
  C         3.6463073701       -3.4961832562        6.0095909407
  C         3.6348790858        6.9883073212       -0.0349753378
  O         1.8236370377        1.5563204592        7.4664715051
  O        -0.4952267050       -1.8811657361        8.0032640089
  O        -2.7490249536        0.3403230817       10.6736661252
  O        -2.7488370627        9.0832860603        5.6295020675
  O        -0.5019034095        7.8697565117        2.3714110578
  O         1.8133768216        5.7328153257        5.1049026602
  O        -0.8508223909        0.6215575566        7.8656344644
  O         3.6737647442       -1.0280938448        8.5815632324
  O         1.4150696316        0.4072724957        9.6485577707
  O         1.4196248040        8.1873768147        5.1823079252
  O         3.6738591295        7.9455197216        3.4014543410
  O        -0.8517204660        6.5373356155        4.5034107554
  O        -2.2491259292        2.2232018621        8.5712225060
  O         2.2582648914       -1.2519241806        6.8742844397
  O         0.0204253534       -1.0084524300       10.6753480945
  O         0.0169581216        9.7618544377        4.4594359399
  O         2.2555243230        6.5803299651        2.3557221316
  O        -2.2615581770        6.3148557886        6.2229102667
      54
 i =      165, E =     -1444.3734487707
 Ni         3.0455977961        1.1630623827        9.1504951871
 Ni         0.7947881645       -0.1851280469        7.4926073534
 Ni        -1.4831048975       -0.9674165960        9.4656995596
 Ni        -1.4849695990        8.6835655067        3.8953143301
 Ni         0.7924657797        6.5869338579        3.6034809673
 Ni         3.0387915017        7.3694562844        5.6028852957
  H         2.8581163794        3.5696980151        6.1534826941
  H        -1.7152611639       11.0885628816        6.9688796066
  H        -1.7267460305        0.5240269967       13.0822587851
  H        -1.9127649682        4.2142250976        7.3078077605
  H         2.5972884883       -3.3550995900        5.7522896727
  H         2.5856470905        6.6938787799       -0.0429704522
  C         1.1512091813        2.6973341136        7.1471909940
  C        -1.1569974804       -2.7385394314        7.1855318444
  C         3.3801304920        0.0584744694       11.8245990309
  C         3.3863239796       10.2309790020        5.9454472731
  C        -1.1657008792        7.6110277237        1.2160868659
  C         1.1465630859        4.8644456497        5.9192988932
  C         1.8090401113        3.7135484556        6.4108115262
  C        -2.7594111401       11.2369526471        6.6954996836
  C        -2.7697012733        0.2087612532       13.0733818504
  C        -0.2382170069        2.8998224663        7.4719560617
  C         4.2597826399       -2.5549097818        6.8328034380
  C         1.9958447731       -0.3434992935       11.8411230677
  C         2.0046384902       10.4553639153        5.5995047118
  C         4.2486628073        7.2175708082        1.1942704289
  C        -0.2440661518        5.0319936569        6.2577807936
  C        -1.1415731641        1.8668771894        8.0226360828
  C         3.3718284061       -1.5460713181        7.4417454775
  C         1.1161088221       -0.3382849835       10.6585646444
  C         1.1187511268        9.4274692032        5.0268942467
  C         3.3662015081        7.2246260944        2.3790338920
  C        -1.1491607360        6.0306597018        5.6501086132
  C        -0.8604209576        4.0776784584        7.0634990151
  C         3.6462739568       -3.4964337545        6.0098645094
  C         3.6345989057        6.9883778020       -0.0349331285
  O         1.8239176233        1.5557340566        7.4653642076
  O        -0.4950837354       -1.8805841527        8.0029491404
  O        -2.7484998823        0.3404513980       10.6739513919
  O        -2.7485245356        9.0830789136        5.6304879605
  O        -0.5022976799        7.8705748003        2.3713428497
  O         1.8136189338        5.7319948937        5.1048629944
  O        -0.8510818464        0.6207329522        7.8630297492
  O         3.6741813936       -1.0280083996        8.5813751212
  O         1.4145260441        0.4075218305        9.6485697406
  O         1.4199902784        8.1867409880        5.1822072130
  O         3.6734386312        7.9454142810        3.4013617833
  O        -0.8517353090        6.5373910470        4.5034422426
  O        -2.2487212322        2.2219616847        8.5707561304
  O         2.2582496143       -1.2520409356        6.8739190834
  O         0.0202292846       -1.0076122010       10.6757209926
  O         0.0171205411        9.7611691924        4.4598169131
  O         2.2557527855        6.5801162842        2.3555468771
  O        -2.2615314167        6.3146259841        6.2224250785
      54
 i =      166, E =     -1444.3734568153
 Ni         3.0453462564        1.1631419940        9.1497045868
 Ni         0.7948040697       -0.1866235594        7.4915802205
 Ni        -1.4834505598       -0.9673480790        9.4657929847
 Ni        -1.4852291236        8.6836901367        3.8955735504
 Ni         0.7923737317        6.5870278905        3.6040183253
 Ni         3.0386630112        7.3680548079        5.6028562832
  H         2.8574704646        3.5704089348        6.1533257918
  H        -1.7163331048       11.0852144551        6.9720862357
  H        -1.7265477938        0.5227906122       13.0825852319
  H        -1.9133007199        4.2140438988        7.3079152504
  H         2.5976061576       -3.3540255370        5.7514075629
  H         2.5849059795        6.6962845953       -0.0422421523
  C         1.1506344161        2.6969873306        7.1464965730
  C        -1.1573344984       -2.7397253370        7.1874657080
  C         3.3800445547        0.0579699598       11.8248876755
  C         3.3856864075       10.2297982826        5.9472809457
  C        -1.1658465850        7.6108933596        1.2162498649
  C         1.1459590472        4.8642432232        5.9194766927
  C         1.8085948783        3.7137461417        6.4112363576
  C        -2.7602694706       11.2347692440        6.6986840112
  C        -2.7694720930        0.2075294819       13.0736689751
  C        -0.2387683339        2.8989296715        7.4712032682
  C         4.2594772824       -2.5560980378        6.8340109562
  C         1.9957592377       -0.3442729309       11.8412791451
  C         2.0042745082       10.4543781464        5.6004677701
  C         4.2488151265        7.2167117420        1.1946613481
  C        -0.2443447383        5.0322415620        6.2583896320
  C        -1.1415774732        1.8654150357        8.0211692358
  C         3.3718243674       -1.5467145270        7.4423515611
  C         1.1154472305       -0.3373471689       10.6590269642
  C         1.1184338858        9.4269552672        5.0274774259
  C         3.3661296750        7.2246706985        2.3792122738
  C        -1.1496170067        6.0304171862        5.6499156487
  C        -0.8610091160        4.0771992312        7.0631875474
  C         3.6460986449       -3.4971179805        6.0104838559
  C         3.6343631806        6.9889664561       -0.0346008538
  O         1.8239055660        1.5557474542        7.4654412177
  O        -0.4949138318       -1.8809631249        8.0034099614
  O        -2.7490467427        0.3400268862       10.6738212532
  O        -2.7488260286        9.0822509875        5.6308572818
  O        -0.5021301155        7.8707940168        2.3714415334
  O         1.8133537080        5.7316465969        5.1050863157
  O        -0.8513895565        0.6191573567        7.8605061055
  O         3.6739161678       -1.0280224051        8.5817201520
  O         1.4142447403        0.4074430905        9.6491147631
  O         1.4197507582        8.1860267462        5.1827377313
  O         3.6732507670        7.9453475714        3.4012877444
  O        -0.8519563752        6.5376534583        4.5037952231
  O        -2.2484538884        2.2204991155        8.5695097399
  O         2.2582787728       -1.2526726983        6.8740535474
  O         0.0199213908       -1.0075913737       10.6755705391
  O         0.0168832209        9.7612472071        4.4603922310
  O         2.2556094761        6.5799705319        2.3559540661
  O        -2.2616077822        6.3151003851        6.2226918379
      54
 i =      167, E =     -1444.3734628725
 Ni         3.0455670450        1.1628767498        9.1493548557
 Ni         0.7948500052       -0.1869213915        7.4912960074
 Ni        -1.4835352405       -0.9677436671        9.4659158863
 Ni        -1.4847026809        8.6835903189        3.8955935002
 Ni         0.7919723462        6.5866443111        3.6048378236
 Ni         3.0386722677        7.3673421426        5.6024835874
  H         2.8564123441        3.5708000792        6.1530688914
  H        -1.7173945076       11.0825931738        6.9747688931
  H        -1.7262229516        0.5200429914       13.0830607646
  H        -1.9141747119        4.2142685847        7.3084366931
  H         2.5976913862       -3.3531754044        5.7506333090
  H         2.5842366656        6.6980478464       -0.0414084033
  C         1.1500673456        2.6970099275        7.1464192089
  C        -1.1576032919       -2.7406494997        7.1885799364
  C         3.3800634504        0.0563116957       11.8251691876
  C         3.3849916387       10.2287699427        5.9486970714
  C        -1.1657093325        7.6091449738        1.2166099990
  C         1.1451616384        4.8645201571        5.9199895900
  C         1.8075869432        3.7138478797        6.4110089590
  C        -2.7609818362       11.2331875785        6.7006363969
  C        -2.7693884739        0.2055702492       13.0739840600
  C        -0.2395128142        2.8985022883        7.4706115555
  C         4.2591062983       -2.5569439430        6.8352094686
  C         1.9953797849       -0.3449195467       11.8415572291
  C         2.0039375231       10.4541893408        5.6006689775
  C         4.2486079526        7.2160934545        1.1952820927
  C        -0.2450183545        5.0323850407        6.2589492681
  C        -1.1420604179        1.8646467848        8.0201822999
  C         3.3717087939       -1.5470276418        7.4426326934
  C         1.1153912307       -0.3384075973       10.6591534346
  C         1.1182508723        9.4268035577        5.0276226897
  C         3.3660796308        7.2238437550        2.3797903123
  C        -1.1497248472        6.0311454576        5.6511856572
  C        -0.8618965712        4.0771685733        7.0634932428
  C         3.6458112969       -3.4973118789        6.0109235939
  C         3.6343523568        6.9883155059       -0.0341170908
  O         1.8239089634        1.5561422366        7.4656506275
  O        -0.4951006177       -1.8814161452        8.0036214336
  O        -2.7491682814        0.3389211136       10.6740054084
  O        -2.7489668789        9.0817780927        5.6307451677
  O        -0.5015895073        7.8700528963        2.3714291524
  O         1.8129051998        5.7315871406        5.1054238181
  O        -0.8511210904        0.6185586648        7.8613079215
  O         3.6736755516       -1.0279834404        8.5818836744
  O         1.4139871315        0.4075789581        9.6500204125
  O         1.4195523624        8.1857313207        5.1817249713
  O         3.6733451841        7.9453268188        3.4014490062
  O        -0.8525299816        6.5377575180        4.5044386788
  O        -2.2486601376        2.2200249718        8.5688955058
  O         2.2582122585       -1.2526334250        6.8742329850
  O         0.0194598369       -1.0077749131       10.6761917068
  O         0.0167751096        9.7613897212        4.4603268923
  O         2.2550972618        6.5798059413        2.3561139497
  O        -2.2620946765        6.3150468155        6.2234206700
      54
 i =      168, E =     -1444.3734660627
 Ni         3.0455739975        1.1627727831        9.1492960861
 Ni         0.7948442861       -0.1871214188        7.4917358836
 Ni        -1.4835200519       -0.9678772832        9.4662185769
 Ni        -1.4845444186        8.6835670885        3.8956778794
 Ni         0.7920091079        6.5874956973        3.6051294110
 Ni         3.0385567355        7.3670600749        5.6023856220
  H         2.8560841888        3.5705248758        6.1529124192
  H        -1.7179038518       11.0811697763        6.9768953788
  H        -1.7255428361        0.5174142994       13.0831976212
  H        -1.9143691034        4.2142760209        7.3086752661
  H         2.5981242049       -3.3527215730        5.7503581660
  H         2.5842395031        6.6977309576       -0.0409311233
  C         1.1498470057        2.6969266938        7.1463788414
  C        -1.1575873667       -2.7408794666        7.1892656119
  C         3.3803445094        0.0554383786       11.8252248787
  C         3.3851535659       10.2283822300        5.9494224140
  C        -1.1653532768        7.6081844277        1.2167889585
  C         1.1449354849        4.8643579556        5.9197206960
  C         1.8073377057        3.7138362203        6.4109494719
  C        -2.7611236894       11.2326992757        6.7017685999
  C        -2.7689324547        0.2036903253       13.0740671179
  C        -0.2399019215        2.8982949776        7.4700894474
  C         4.2592346599       -2.5570753195        6.8354411304
  C         1.9956870693       -0.3461990681       11.8418068886
  C         2.0041647584       10.4539874483        5.6008132443
  C         4.2488579346        7.2154747709        1.1955433175
  C        -0.2450590146        5.0326859137        6.2592921546
  C        -1.1421460652        1.8646510687        8.0203680933
  C         3.3717692203       -1.5471798981        7.4428542122
  C         1.1153778192       -0.3386801837       10.6594793643
  C         1.1183177797        9.4268487864        5.0274128033
  C         3.3661935887        7.2240374624        2.3799803193
  C        -1.1500618076        6.0308935409        5.6511045441
  C        -0.8620854595        4.0772780494        7.0635790405
  C         3.6460602388       -3.4974335328        6.0110285338
  C         3.6343623817        6.9878925287       -0.0338302676
  O         1.8235096728        1.5560367775        7.4658071032
  O        -0.4953169614       -1.8810427660        8.0037376605
  O        -2.7487529702        0.3388645512       10.6742785572
  O        -2.7490460387        9.0814255810        5.6311044159
  O        -0.5012552267        7.8701093047        2.3713402977
  O         1.8125795594        5.7318223393        5.1052302488
  O        -0.8508751957        0.6185488542        7.8624032101
  O         3.6737126541       -1.0277878174        8.5819945843
  O         1.4142755881        0.4070246445        9.6504939431
  O         1.4198476340        8.1857975065        5.1810024790
  O         3.6734672604        7.9449618184        3.4020737778
  O        -0.8528242042        6.5375349380        4.5045082312
  O        -2.2490786463        2.2200138093        8.5683392419
  O         2.2582720746       -1.2526883814        6.8743283676
  O         0.0194845710       -1.0083051848       10.6763338287
  O         0.0165536338        9.7611274883        4.4602311689
  O         2.2551042528        6.5798900856        2.3560882221
  O        -2.2623079956        6.3151818009        6.2237600073
      54
 i =      169, E =     -1444.3734690774
 Ni         3.0454592937        1.1626337446        9.1495928231
 Ni         0.7948570069       -0.1869045749        7.4916935585
 Ni        -1.4836702214       -0.9680273480        9.4663730531
 Ni        -1.4845374860        8.6839328344        3.8957738962
 Ni         0.7920298440        6.5874575269        3.6054548022
 Ni         3.0386805700        7.3662083912        5.6019428982
  H         2.8562335724        3.5699754063        6.1529236478
  H        -1.7182357684       11.0801402594        6.9790180796
  H        -1.7246000543        0.5146654745       13.0832235733
  H        -1.9142229399        4.2138222655        7.3088133941
  H         2.5984157645       -3.3530737075        5.7504917223
  H         2.5845219681        6.6969569295       -0.0408448332
  C         1.1497569825        2.6964832869        7.1460470176
  C        -1.1574152231       -2.7409178687        7.1894560990
  C         3.3806695600        0.0544721150       11.8253942373
  C         3.3853358845       10.2279918253        5.9500007498
  C        -1.1649868088        7.6074845992        1.2168764942
  C         1.1450428390        4.8640109589        5.9195928435
  C         1.8074394207        3.7134457798        6.4107515397
  C        -2.7610960391       11.2323251059        6.7026736555
  C        -2.7682593517        0.2018927985       13.0741107018
  C        -0.2399204146        2.8980728303        7.4699214095
  C         4.2594238124       -2.5571540533        6.8354131205
  C         1.9958407575       -0.3467202353       11.8419310637
  C         2.0044642081       10.4537385040        5.6007816379
  C         4.2490024086        7.2154878701        1.1956455696
  C        -0.2450983463        5.0324577842        6.2590609837
  C        -1.1421820566        1.8645301813        8.0203593933
  C         3.3719524615       -1.5471374834        7.4428073122
  C         1.1155892789       -0.3391551757       10.6595154717
  C         1.1186724379        9.4265565906        5.0269391039
  C         3.3662306806        7.2240090995        2.3800300100
  C        -1.1500069292        6.0307483110        5.6510094200
  C        -0.8619598771        4.0770806224        7.0635300179
  C         3.6463414669       -3.4976875706        6.0110580349
  C         3.6345869125        6.9872514465       -0.0336873637
  O         1.8233978358        1.5557121449        7.4655597026
  O        -0.4952930521       -1.8808666654        8.0039625448
  O        -2.7488410817        0.3384845840       10.6743241177
  O        -2.7491357238        9.0811126878        5.6319708781
  O        -0.5013762576        7.8697277963        2.3716037118
  O         1.8128018193        5.7317643869        5.1053262834
  O        -0.8506872833        0.6184923013        7.8628597490
  O         3.6736500789       -1.0276094627        8.5819752082
  O         1.4144792888        0.4066411532        9.6506568865
  O         1.4199896272        8.1854175203        5.1805383001
  O         3.6734842491        7.9449148536        3.4022897017
  O        -0.8527780640        6.5373440193        4.5045507016
  O        -2.2492290840        2.2197948133        8.5682789588
  O         2.2585022043       -1.2526401482        6.8741786460
  O         0.0194777878       -1.0084099319       10.6761886654
  O         0.0168081879        9.7610477985        4.4600913307
  O         2.2551175106        6.5798291996        2.3560787976
  O        -2.2624164492        6.3147932704        6.2236424957
      54
 i =      170, E =     -1444.3734768643
 Ni         3.0459019884        1.1620497986        9.1498373674
 Ni         0.7951290956       -0.1866871304        7.4915214756
 Ni        -1.4836023034       -0.9683941557        9.4666642427
 Ni        -1.4843362264        8.6844172500        3.8953327200
 Ni         0.7921831985        6.5876511114        3.6062003823
 Ni         3.0390642188        7.3614695223        5.6003881039
  H         2.8570284380        3.5680365361        6.1524468940
  H        -1.7193743641       11.0765599349        6.9862723674
  H        -1.7217535587        0.5061452799       13.0831189904
  H        -1.9134210249        4.2120995240        7.3087977953
  H         2.5992073293       -3.3549386435        5.7513239647
  H         2.5853871641        6.6950081792       -0.0408800464
  C         1.1499500068        2.6945131937        7.1445451348
  C        -1.1571185871       -2.7420784671        7.1906425452
  C         3.3816076508        0.0522901034       11.8256484486
  C         3.3861034558       10.2260550871        5.9516391509
  C        -1.1640350423        7.6056227006        1.2169978628
  C         1.1458739690        4.8626375893        5.9191985491
  C         1.8080349407        3.7116139735        6.4095851525
  C        -2.7610984043       11.2302482732        6.7059651590
  C        -2.7665149360        0.1971474028       13.0741224489
  C        -0.2393839152        2.8970039005        7.4691453803
  C         4.2600536421       -2.5576543880        6.8354890371
  C         1.9963558080       -0.3476769566       11.8421006305
  C         2.0055334575       10.4526231070        5.6012991020
  C         4.2492862611        7.2158335872        1.1957332231
  C        -0.2447762227        5.0310854112        6.2580733068
  C        -1.1418406146        1.8641052468        8.0202371478
  C         3.3723624482       -1.5472553105        7.4423708523
  C         1.1161991570       -0.3399783998       10.6595628926
  C         1.1197029161        9.4252874677        5.0264856138
  C         3.3661540588        7.2242074863        2.3799406532
  C        -1.1494639101        6.0295704668        5.6503713622
  C        -0.8613619868        4.0757198188        7.0626891104
  C         3.6472380814       -3.4987798003        6.0113877098
  C         3.6351659266        6.9861333875       -0.0335430878
  O         1.8233705248        1.5540942812        7.4645951129
  O        -0.4949940947       -1.8809541514        8.0045253701
  O        -2.7486358317        0.3380227041       10.6745444198
  O        -2.7491361842        9.0797952763        5.6331849705
  O        -0.5012507126        7.8693244233        2.3716288540
  O         1.8134495179        5.7307698443        5.1048950810
  O        -0.8503907314        0.6179547938        7.8628500259
  O         3.6738586344       -1.0274510160        8.5816039302
  O         1.4150898079        0.4061082122        9.6508542107
  O         1.4203838801        8.1840146832        5.1798388130
  O         3.6733419611        7.9445852631        3.4028489040
  O        -0.8525027071        6.5363419748        4.5043466805
  O        -2.2491475910        2.2196032278        8.5677121363
  O         2.2589426122       -1.2531238368        6.8736537108
  O         0.0196712177       -1.0085693575       10.6761857326
  O         0.0179836439        9.7604383561        4.4596084718
  O         2.2552661734        6.5795824734        2.3561676318
  O        -2.2620249150        6.3136293704        6.2233648221
      54
 i =      171, E =     -1444.3734802954
 Ni         3.0459000636        1.1621741268        9.1496366278
 Ni         0.7950127192       -0.1871685531        7.4914562989
 Ni        -1.4835072270       -0.9682907374        9.4665536855
 Ni        -1.4843009517        8.6844187869        3.8954721881
 Ni         0.7921480408        6.5872668040        3.6059322080
 Ni         3.0397437904        7.3599327680        5.5996475066
  H         2.8573282958        3.5676009969        6.1520424524
  H        -1.7193826571       11.0762093299        6.9870591165
  H        -1.7214306116        0.5049104939       13.0830270749
  H        -1.9131840382        4.2117856663        7.3083889269
  H         2.5992438524       -3.3556727870        5.7516552861
  H         2.5855808271        6.6947178631       -0.0410052418
  C         1.1504004995        2.6940242685        7.1447484266
  C        -1.1571623923       -2.7425615868        7.1907759544
  C         3.3817186385        0.0523659571       11.8254792551
  C         3.3860999971       10.2256425763        5.9517296777
  C        -1.1640949054        7.6057195726        1.2170102527
  C         1.1460476047        4.8618576296        5.9187900728
  C         1.8083437848        3.7109560244        6.4093829063
  C        -2.7610877645       11.2295643235        6.7065710627
  C        -2.7665119342        0.1969388566       13.0740893297
  C        -0.2390767689        2.8966121584        7.4689415970
  C         4.2601470592       -2.5579299691        6.8353910034
  C         1.9965224325       -0.3475908003       11.8419887477
  C         2.0055545837       10.4520855478        5.6015317230
  C         4.2493338602        7.2156340113        1.1955500819
  C        -0.2443845684        5.0306378814        6.2579932324
  C        -1.1417202680        1.8637265417        8.0198189056
  C         3.3724531934       -1.5475304734        7.4424262774
  C         1.1163445067       -0.3397762406       10.6595139524
  C         1.1198584214        9.4246781023        5.0266760174
  C         3.3661947808        7.2242391036        2.3797476803
  C        -1.1488225020        6.0294237532        5.6504490512
  C        -0.8611196014        4.0752554234        7.0623950813
  C         3.6473311878       -3.4993006621        6.0115824182
  C         3.6352331721        6.9863131518       -0.0337291825
  O         1.8233653485        1.5531503965        7.4643882434
  O        -0.4950026880       -1.8814036193        8.0046715949
  O        -2.7485772628        0.3379932881       10.6742769535
  O        -2.7488239333        9.0798037405        5.6326730977
  O        -0.5014068090        7.8693249452        2.3717446397
  O         1.8135675455        5.7302222060        5.1047366681
  O        -0.8504030143        0.6177290144        7.8622315502
  O         3.6738952528       -1.0277889630        8.5816825258
  O         1.4152025993        0.4064554822        9.6508072044
  O         1.4204805802        8.1833730675        5.1804153043
  O         3.6735628342        7.9450209092        3.4023079709
  O        -0.8521615835        6.5358819982        4.5040012687
  O        -2.2486648818        2.2193892877        8.5680023397
  O         2.2591421772       -1.2529545596        6.8737111118
  O         0.0197689071       -1.0082396331       10.6761778964
  O         0.0182471556        9.7602933087        4.4598614246
  O         2.2552236695        6.5800298492        2.3559435694
  O        -2.2614962889        6.3132541903        6.2232395225
      54
 i =      172, E =     -1444.3734804872
 Ni         3.0459000636        1.1621741268        9.1496366278
 Ni         0.7950127192       -0.1871685531        7.4914562989
 Ni        -1.4835072270       -0.9682907374        9.4665536855
 Ni        -1.4843009517        8.6844187869        3.8954721881
 Ni         0.7921480408        6.5872668040        3.6059322080
 Ni         3.0397437904        7.3599327680        5.5996475066
  H         2.8573282958        3.5676009969        6.1520424524
  H        -1.7193826571       11.0762093299        6.9870591165
  H        -1.7214306116        0.5049104939       13.0830270749
  H        -1.9131840382        4.2117856663        7.3083889269
  H         2.5992438524       -3.3556727870        5.7516552861
  H         2.5855808271        6.6947178631       -0.0410052418
  C         1.1504004995        2.6940242685        7.1447484266
  C        -1.1571623923       -2.7425615868        7.1907759544
  C         3.3817186385        0.0523659571       11.8254792551
  C         3.3860999971       10.2256425763        5.9517296777
  C        -1.1640949054        7.6057195726        1.2170102527
  C         1.1460476047        4.8618576296        5.9187900728
  C         1.8083437848        3.7109560244        6.4093829063
  C        -2.7610877645       11.2295643235        6.7065710627
  C        -2.7665119342        0.1969388566       13.0740893297
  C        -0.2390767689        2.8966121584        7.4689415970
  C         4.2601470592       -2.5579299691        6.8353910034
  C         1.9965224325       -0.3475908003       11.8419887477
  C         2.0055545837       10.4520855478        5.6015317230
  C         4.2493338602        7.2156340113        1.1955500819
  C        -0.2443845684        5.0306378814        6.2579932324
  C        -1.1417202680        1.8637265417        8.0198189056
  C         3.3724531934       -1.5475304734        7.4424262774
  C         1.1163445067       -0.3397762406       10.6595139524
  C         1.1198584214        9.4246781023        5.0266760174
  C         3.3661947808        7.2242391036        2.3797476803
  C        -1.1488225020        6.0294237532        5.6504490512
  C        -0.8611196014        4.0752554234        7.0623950813
  C         3.6473311878       -3.4993006621        6.0115824182
  C         3.6352331721        6.9863131518       -0.0337291825
  O         1.8233653485        1.5531503965        7.4643882434
  O        -0.4950026880       -1.8814036193        8.0046715949
  O        -2.7485772628        0.3379932881       10.6742769535
  O        -2.7488239333        9.0798037405        5.6326730977
  O        -0.5014068090        7.8693249452        2.3717446397
  O         1.8135675455        5.7302222060        5.1047366681
  O        -0.8504030143        0.6177290144        7.8622315502
  O         3.6738952528       -1.0277889630        8.5816825258
  O         1.4152025993        0.4064554822        9.6508072044
  O         1.4204805802        8.1833730675        5.1804153043
  O         3.6735628342        7.9450209092        3.4023079709
  O        -0.8521615835        6.5358819982        4.5040012687
  O        -2.2486648818        2.2193892877        8.5680023397
  O         2.2591421772       -1.2529545596        6.8737111118
  O         0.0197689071       -1.0082396331       10.6761778964
  O         0.0182471556        9.7602933087        4.4598614246
  O         2.2552236695        6.5800298492        2.3559435694
  O        -2.2614962889        6.3132541903        6.2232395225
