      59
 i =      112, E =     -1480.5529120637
 Ni         3.1436865629        0.9106287485        9.0390835531
 Ni         0.8313695501       -0.2005832272        7.6021983682
 Ni        -1.4075337009       -0.8838200071        9.4676826740
 Ni        -1.4331193660        8.6187709677        3.9814964754
 Ni         0.8371458501        6.7008188709        3.6466477457
 Ni         3.1002045077        7.3705211557        5.4750196834
  H         2.7976125593        3.5580888629        6.1648305458
  H        -1.7366755775       11.1227172135        6.9325570522
  H        -1.7398911216        0.4392736204       13.0983168134
  H        -1.9444229839        4.2674174194        7.3871371359
  H         2.5847411528       -3.2918124396        5.7084073071
  H         2.5910390146        6.5911151884        0.0017239959
  C         1.1114092946        2.7224031708        7.1913180048
  C        -1.1559393687       -2.6959777872        7.1435029663
  C         3.3712252333       -0.0307617846       11.8659967566
  C         3.3732163221       10.2839641001        5.9071472654
  C        -1.1623250804        7.5337366914        1.2450025340
  C         1.1034311645        4.8690557588        5.9504719846
  C         1.7594941233        3.7268096346        6.4485988946
  C        -2.7749912852       11.2849558595        6.6508069816
  C        -2.7788578767        0.1131979766       13.1043429376
  C        -0.2691678720        2.9461721816        7.5489843336
  C         4.2662817636       -2.5208505559        6.7519602397
  C         1.9902460713       -0.4496151187       11.8732315947
  C         1.9921138029       10.4940166148        5.5442669434
  C         4.2559989746        7.1156520050        1.2299191084
  C        -0.2775039098        5.0722250939        6.3226963355
  C        -1.1187870918        1.9643205550        8.2244364491
  C         3.3851110007       -1.4608740991        7.2246130257
  C         1.1164762085       -0.5639307073       10.7021450483
  C         1.1198287475        9.5334184477        4.8670357533
  C         3.3911948174        7.0076842083        2.4087801123
  C        -1.1437284885        6.1457050539        5.8251344529
  C        -0.8966484238        4.1183661416        7.1269948587
  C         3.6296801191       -3.4662590129        5.9592819865
  C         3.6362786994        6.8967739912        0.0019639761
  O         1.7785239753        1.5946257166        7.4621063523
  O        -0.4826621469       -1.8936175892        7.9720746882
  O        -2.7456409590        0.2586159498       10.7531795943
  O        -2.7577186362        9.1652189777        5.6197969698
  O        -0.4905588274        7.8489673212        2.3549237885
  O         1.7781534165        5.6718544955        5.1240919038
  O        -0.7403717106        0.7295100161        8.3522714799
  O         3.8357244773       -0.8060188054        8.2482722551
  O         1.5102168496       -0.0961368927        9.5535935053
  O         1.5235765822        8.3064202709        4.7463806141
  O         3.7889322662        7.5211666233        3.5336971028
  O        -0.7443070472        6.8623747387        4.8180874523
  O        -2.2888431249        2.2982555731        8.6194455442
  O         2.2320668787       -1.2456614017        6.7235648482
  O        -0.0241517883       -1.1160661763       10.8291262691
  O        -0.0271153591        9.8982902607        4.4459063648
  O         2.2431440264        6.4622920497        2.3062027695
  O        -2.2925896245        6.3247431009        6.3482334348
  O         3.0325825841        1.8187850011        9.4838854626
  C         2.8222501448        2.5731407010        9.8060654749
  O         2.5731554575        3.2268651767       10.3927639198
  H         2.8285201029        3.2754178428        9.3917158589
  H         2.4792313455        3.9463781301       10.3764717210
      59
 i =      113, E =     -1482.1251642533
 Ni         3.2370071169        0.7922857525        8.9240495350
 Ni         0.8404319565       -0.2053195891        7.5574023129
 Ni        -1.4210861647       -0.9900317703        9.4751371051
 Ni        -1.4523623403        8.6455683244        3.9665860533
 Ni         0.8215285665        6.6709998716        3.6307368438
 Ni         3.0769528727        7.3800751203        5.5110858561
  H         2.8086971464        3.5560696839        6.1527697967
  H        -1.7318667393       11.1203149187        6.9337075307
  H        -1.7345385152        0.4379519015       13.1020629379
  H        -1.9437985942        4.2687490248        7.3838412574
  H         2.5905680015       -3.3047124740        5.7013990434
  H         2.5900288067        6.5895848082        0.0049946137
  C         1.1241600159        2.7245575162        7.1666342813
  C        -1.1554760078       -2.7108244660        7.1265161247
  C         3.3778127243       -0.0636790709       11.8864801934
  C         3.3769476682       10.2676756580        5.8974151948
  C        -1.1622720452        7.5409095601        1.2636256178
  C         1.1057703728        4.8782822536        5.9429628110
  C         1.7718272810        3.7349377165        6.4312746950
  C        -2.7727117458       11.2635865550        6.6531839314
  C        -2.7783798763        0.1268973203       13.1231273847
  C        -0.2427613549        2.9574686653        7.5441284035
  C         4.2717408049       -2.5324081226        6.7134830596
  C         1.9826569010       -0.4401154076       11.8809667218
  C         1.9940701926       10.4764452433        5.5406054374
  C         4.2574033346        7.1180585841        1.2341590110
  C        -0.2777341781        5.0754869191        6.3232109573
  C        -1.0705858021        1.9228431434        8.1537727772
  C         3.3944938357       -1.5123159309        7.2369928302
  C         1.1364532411       -0.6029331823       10.6915672370
  C         1.1319028999        9.5082334689        4.8685048559
  C         3.3944946521        7.0254593685        2.4172247402
  C        -1.1433562501        6.1441390338        5.8066985698
  C        -0.8896555792        4.1273600952        7.1368977566
  C         3.6405392829       -3.4795645586        5.9328997872
  C         3.6346986595        6.8963195474        0.0097077947
  O         1.7604463572        1.5734457288        7.4130373210
  O        -0.4699241019       -1.8859367197        7.9295642977
  O        -2.7196841516        0.1995822725       10.7718159450
  O        -2.7526079864        9.1487801453        5.5974418439
  O        -0.4992609812        7.8348791881        2.3883129384
  O         1.7684004552        5.7017519778        5.1224143627
  O        -0.7092900236        0.6885087814        8.3324522542
  O         3.8647972077       -0.8604790799        8.2419574712
  O         1.5491035434       -0.1455986387        9.5456800103
  O         1.5303511340        8.2826364120        4.7550312330
  O         3.7929743662        7.5385105589        3.5405505626
  O        -0.7389112905        6.8529663188        4.7963645957
  O        -2.2223616268        2.3215343952        8.5628188649
  O         2.2566754172       -1.2485076909        6.7234305605
  O        -0.0278429464       -1.1039358430       10.8266551193
  O        -0.0172765689        9.8740287084        4.4472363902
  O         2.2458601666        6.4737288780        2.3181959630
  O        -2.2942339344        6.3338053605        6.3301685325
  O         2.9596369154        1.8718843218        9.5375647694
  C         2.6539895495        2.6122743349        9.8202633155
  O         2.3691672489        3.3798684088       10.6000947516
  H         2.8034641476        3.4601053524        9.3773504188
  H         2.4413443584        4.1963781301       10.5966293682
      59
 i =      114, E =     -1482.5632629376
 Ni         3.3376450139        0.7638587575        8.9228231507
 Ni         0.8474194325       -0.2058074469        7.5528481203
 Ni        -1.4109751352       -1.0107243597        9.4733388992
 Ni        -1.4607728545        8.6539209409        3.9527244446
 Ni         0.8115830714        6.6550676478        3.6259340171
 Ni         3.0677854733        7.3810543010        5.5212861300
  H         2.8145780984        3.5603990792        6.1435035630
  H        -1.7298602563       11.1155675147        6.9335643844
  H        -1.7342509865        0.4371656847       13.1046977053
  H        -1.9366497212        4.2662687276        7.3834711853
  H         2.5953687997       -3.3146518051        5.6946079479
  H         2.5891770143        6.5890777008        0.0093158656
  C         1.1340415253        2.7086602998        7.1483643638
  C        -1.1520218748       -2.7122329842        7.1125550908
  C         3.3800458876       -0.0749465142       11.8989048957
  C         3.3786978799       10.2593617826        5.8949523446
  C        -1.1652581656        7.5437678654        1.2704952025
  C         1.1101832756        4.8813080793        5.9462541387
  C         1.7779675147        3.7332357841        6.4246359661
  C        -2.7706468491       11.2562641190        6.6507338136
  C        -2.7778578984        0.1265278523       13.1342523695
  C        -0.2301566343        2.9482181372        7.5262025262
  C         4.2688172898       -2.5387394032        6.7172610502
  C         1.9852611335       -0.4536896357       11.8808386354
  C         1.9965444384       10.4721227658        5.5355589911
  C         4.2545546485        7.1226363515        1.2345590510
  C        -0.2757059135        5.0752671366        6.3238302073
  C        -1.0608634932        1.9335120809        8.1575874975
  C         3.4112071487       -1.5057048195        7.2396065369
  C         1.1496152402       -0.5884966415       10.6792629682
  C         1.1342880007        9.4974779887        4.8716917751
  C         3.3950469461        7.0310926727        2.4196016091
  C        -1.1425587524        6.1412756385        5.8008475475
  C        -0.8816934570        4.1236399466        7.1370919289
  C         3.6460562602       -3.4832082996        5.9276709254
  C         3.6317455545        6.9017046717        0.0098127493
  O         1.7724225834        1.5568725853        7.4000532620
  O        -0.4712205184       -1.8819784989        7.9171661188
  O        -2.6742624256        0.1494417178       10.8038578225
  O        -2.7503120951        9.1398081442        5.5878206423
  O        -0.5000001943        7.8260272569        2.3991720930
  O         1.7651949158        5.7129576397        5.1234887757
  O        -0.6964508982        0.6951321291        8.3066459745
  O         3.8882905783       -0.8610172921        8.2486417278
  O         1.6096766880       -0.1679831720        9.5346694621
  O         1.5301410693        8.2709429532        4.7683373470
  O         3.7914832831        7.5532522130        3.5380127437
  O        -0.7426854437        6.8410601558        4.7828764360
  O        -2.2103485384        2.3579013067        8.5652908725
  O         2.2693637852       -1.2498494661        6.7336699308
  O        -0.0129170862       -1.0983735272       10.8038539435
  O        -0.0139311493        9.8617440541        4.4435039225
  O         2.2465270122        6.4755513592        2.3258350717
  O        -2.2935597124        6.3413587703        6.3244290734
  O         2.8976936430        1.8631312670        9.5704989646
  C         2.4550867172        2.6350581439        9.8058466621
  O         2.1191672489        3.4030151169       10.6146148644
  H         2.8237124947        3.5278801898        9.3731299552
  H         2.5359203438        4.2811275621       10.6861179415
      59
 i =      115, E =     -1482.8221012073
 Ni         3.4606870147        0.7521422379        8.9586568688
 Ni         0.8521284072       -0.2005595970        7.5559266778
 Ni        -1.3911702189       -1.0369145128        9.4754349009
 Ni        -1.4728981885        8.6607321060        3.9467207525
 Ni         0.7957917348        6.6414604251        3.6224830244
 Ni         3.0610060916        7.3827997149        5.5289123773
  H         2.8226716189        3.5661903321        6.1338031049
  H        -1.7267861841       11.1093617226        6.9331477711
  H        -1.7344015945        0.4352266751       13.1095032685
  H        -1.9282931283        4.2616088535        7.3860189607
  H         2.5976580375       -3.3228114456        5.6873262047
  H         2.5874244647        6.5911583906        0.0125121869
  C         1.1441073199        2.6911740189        7.1292111540
  C        -1.1473047211       -2.7176867094        7.1094018229
  C         3.3944293915       -0.1011376385       11.9120612376
  C         3.3818516409       10.2544970571        5.8904277332
  C        -1.1688263331        7.5435313651        1.2800263145
  C         1.1162555427        4.8819187179        5.9465272119
  C         1.7847422340        3.7279386256        6.4141199795
  C        -2.7661353072       11.2513562009        6.6458164250
  C        -2.7781621116        0.1279181878       13.1497697758
  C        -0.2150616474        2.9495645335        7.5114302905
  C         4.2724375945       -2.5442519681        6.7161445423
  C         1.9906786985       -0.4498273346       11.8823990930
  C         1.9991403148       10.4682099046        5.5317897351
  C         4.2496896608        7.1284444172        1.2342420574
  C        -0.2700274706        5.0782903064        6.3220411739
  C        -1.0498838612        1.9493562896        8.1519550389
  C         3.4233865127       -1.5059261717        7.2419964343
  C         1.1842783146       -0.5952282646       10.6593196494
  C         1.1350781468        9.4891114668        4.8743143889
  C         3.3917065771        7.0402344094        2.4201112284
  C        -1.1428880813        6.1379960785        5.7954192930
  C        -0.8748679869        4.1229259116        7.1291064600
  C         3.6467553073       -3.4893908866        5.9280782511
  C         3.6307146860        6.9017435203        0.0079002288
  O         1.7860236363        1.5402625978        7.3937570989
  O        -0.4636710633       -1.8742673521        7.9014095738
  O        -2.6219077517        0.0987496935       10.8415062717
  O        -2.7494735941        9.1324680276        5.5780880689
  O        -0.5065175674        7.8218386467        2.4140433911
  O         1.7642129440        5.7271506557        5.1263253679
  O        -0.6856914400        0.7088317139        8.2926623568
  O         3.9234988211       -0.8646642247        8.2486574614
  O         1.6778806042       -0.1862091947        9.5224717511
  O         1.5279233094        8.2611211380        4.7854380879
  O         3.7889855383        7.5688098811        3.5334635768
  O        -0.7481724004        6.8313151683        4.7730498222
  O        -2.1886101446        2.3912692940        8.5805573093
  O         2.2797829264       -1.2411452945        6.7444915408
  O         0.0114122450       -1.0862337011       10.7899585618
  O        -0.0127324982        9.8475551425        4.4384598681
  O         2.2458105864        6.4754396560        2.3372951103
  O        -2.2930109836        6.3483397178        6.3199407153
  O         2.8569899184        1.8691235027        9.6226240549
  C         2.2754642079        2.6669454437        9.7861653826
  O         1.8691672489        3.4443623644       10.6080837788
  H         2.8560971118        3.5860191960        9.3634918587
  H         2.4479220202        4.3193067394       10.7110309960
      59
 i =      116, E =     -1482.9940181669
 Ni         3.5579104965        0.7588316150        9.0289838943
 Ni         0.8549210600       -0.1873715298        7.5435997176
 Ni        -1.3679727192       -1.1126928603        9.4828061377
 Ni        -1.4886400863        8.6722875939        3.9297193625
 Ni         0.7802708691        6.6278181146        3.6251801980
 Ni         3.0513389243        7.3801663063        5.5417633672
  H         2.8408231765        3.5723383287        6.1181606197
  H        -1.7202836796       11.0995738939        6.9305910302
  H        -1.7310107989        0.4334580727       13.1251114197
  H        -1.9184319261        4.2553693550        7.3888133845
  H         2.6007230606       -3.3335808874        5.6798184212
  H         2.5896048581        6.5954909269        0.0115502951
  C         1.1513222809        2.6936538250        7.1022784731
  C        -1.1381104231       -2.7190268517        7.0889106990
  C         3.4182594499       -0.1147755796       11.9264425603
  C         3.3856129626       10.2488728537        5.8836169522
  C        -1.1757046252        7.5483323297        1.2889899264
  C         1.1229022766        4.8867732921        5.9425779692
  C         1.7997192169        3.7282186975        6.3885684568
  C        -2.7593755883       11.2423547282        6.6412459550
  C        -2.7706809981        0.1175431518       13.1694151103
  C        -0.2050905566        2.9495579725        7.4811591512
  C         4.2712218769       -2.5527584678        6.7269343432
  C         2.0183996794       -0.4738592416       11.8825056864
  C         2.0018590423       10.4637363655        5.5283537320
  C         4.2426827320        7.1330854389        1.2364344028
  C        -0.2639919892        5.0826194819        6.3152599884
  C        -1.0096188023        1.9607354796        8.1647513220
  C         3.4449059669       -1.4878800797        7.2414663618
  C         1.2137177010       -0.5876793422       10.6541538552
  C         1.1343274999        9.4791982517        4.8791020174
  C         3.3840767124        7.0475011871        2.4222366200
  C        -1.1409255043        6.1386141007        5.7902916128
  C        -0.8657339681        4.1291270612        7.1220119780
  C         3.6495366677       -3.4935674267        5.9264875626
  C         3.6310510016        6.9161554924        0.0033380194
  O         1.7842360679        1.5366607455        7.3664503496
  O        -0.4451574084       -1.8766409318        7.8769913752
  O        -2.5673578169        0.0224103064       10.8689671747
  O        -2.7508964638        9.1205289318        5.5734571995
  O        -0.5087068540        7.8142516560        2.4271150739
  O         1.7689996800        5.7417862223        5.1259728381
  O        -0.6731201541        0.7084107108        8.2761058643
  O         3.9609362871       -0.8569565905        8.2558618014
  O         1.7342502608       -0.2420760650        9.5025956985
  O         1.5283492050        8.2523070122        4.8025476797
  O         3.7816604273        7.5838614066        3.5300445833
  O        -0.7514099440        6.8208293781        4.7612675339
  O        -2.1643990775        2.3694338987        8.5651316745
  O         2.2917380092       -1.2409724551        6.7613930965
  O         0.0447985156       -1.0937959653       10.7776788554
  O        -0.0120357582        9.8363845490        4.4372153980
  O         2.2399388628        6.4761439789        2.3506598848
  O        -2.2910579925        6.3519947698        6.3155833778
  O         2.8462557247        1.8832932777        9.7354082087
  C         2.1808232692        2.7246711845        9.8110251575
  O         1.6191672489        3.5153763737       10.6033447912
  H         2.8175242821        3.6291591985        9.3411268087
  H         2.2184991127        4.3654854936       10.6816124836
      59
 i =      117, E =     -1483.1033790157
 Ni         3.6240769285        0.7853927542        9.0937554541
 Ni         0.8657393963       -0.1770357352        7.5501676384
 Ni        -1.3530784642       -1.1517289028        9.4788417415
 Ni        -1.4906772677        8.6660675588        3.9249729607
 Ni         0.7766159364        6.6216250107        3.6315365779
 Ni         3.0521210194        7.3832048269        5.5445927698
  H         2.8508629288        3.5809685645        6.1005118936
  H        -1.7162520074       11.0884872782        6.9258866996
  H        -1.7249603547        0.4281490952       13.1492788981
  H        -1.9066805609        4.2530501620        7.3915684289
  H         2.6046899606       -3.3420063700        5.6740267656
  H         2.5965779981        6.6072221612        0.0040722526
  C         1.1537906188        2.6872155533        7.0658087646
  C        -1.1294837384       -2.7263711791        7.0849853050
  C         3.4489658546       -0.1674712249       11.9304783887
  C         3.3876868874       10.2393404934        5.8805888871
  C        -1.1750727342        7.5422395228        1.2934435938
  C         1.1298114208        4.8909501027        5.9346242024
  C         1.8091999027        3.7318552554        6.3713580418
  C        -2.7521179878       11.2385446276        6.6265869531
  C        -2.7666710243        0.1210777589       13.1800273418
  C        -0.1869472940        2.9580140293        7.4778416835
  C         4.2813463425       -2.5481818236        6.7211827527
  C         2.0292135810       -0.4575638048       11.8824710067
  C         2.0046628537       10.4613120416        5.5254483555
  C         4.2372005309        7.1476417102        1.2379606853
  C        -0.2561206253        5.0842510012        6.3130122775
  C        -0.9937695205        1.9526215783        8.1212172186
  C         3.4520813498       -1.4891124723        7.2583064636
  C         1.2562743258       -0.6420370961       10.6358804468
  C         1.1317455741        9.4742896321        4.8823329407
  C         3.3758990259        7.0558730544        2.4209237166
  C        -1.1376349368        6.1339241736        5.7853961229
  C        -0.8584241945        4.1258413392        7.1094573264
  C         3.6511355125       -3.4986315322        5.9338224388
  C         3.6418160381        6.9137462646       -0.0001841289
  O         1.7897871900        1.5344897819        7.3294313349
  O        -0.4383699290       -1.8751301425        7.8704215403
  O        -2.5428936508       -0.0763467467       10.8709152774
  O        -2.7419154682        9.1142868239        5.5618544307
  O        -0.5154714175        7.8185327031        2.4365461670
  O         1.7809683442        5.7523172001        5.1238978737
  O        -0.6440191677        0.7110379407        8.2598774015
  O         3.9801194204       -0.8418764977        8.2612559969
  O         1.7744334490       -0.2799889135        9.5009509903
  O         1.5255483221        8.2468462052        4.8284621016
  O         3.7793499030        7.6031354609        3.5194842564
  O        -0.7493678735        6.8005292666        4.7489821630
  O        -2.1310987444        2.3438575910        8.5643155871
  O         2.3062225087       -1.2257008110        6.7683151698
  O         0.0604562978       -1.0963290353       10.7595155281
  O        -0.0147597972        9.8282799116        4.4369816916
  O         2.2344087313        6.4771101195        2.3567177461
  O        -2.2870428629        6.3541497767        6.3113799318
  O         2.8653201842        1.9009255668        9.8773966495
  C         2.1797194643        2.7962078065        9.8714959411
  O         1.3691672489        3.5900677194       10.5908577288
  H         2.7294524567        3.6551980568        9.3129423223
  H         2.0059234060        4.4238590194       10.6401243598
      59
 i =      118, E =     -1483.1668490406
 Ni         3.6531033943        0.8127603096        9.1551200174
 Ni         0.8721823190       -0.1600086935        7.5502368808
 Ni        -1.3273933074       -1.1750794035        9.4799925286
 Ni        -1.4909406068        8.6723841175        3.9100617383
 Ni         0.7804244536        6.6106890808        3.6344541538
 Ni         3.0510953764        7.3854871196        5.5510383838
  H         2.8595621375        3.5912669633        6.0788683961
  H        -1.7099694243       11.0767401163        6.9178738850
  H        -1.7149795109        0.4225666375       13.1749841969
  H        -1.8897594533        4.2496281471        7.3893391055
  H         2.6059671438       -3.3486637981        5.6721990194
  H         2.5982928180        6.6158176251       -0.0080337252
  C         1.1606925859        2.6859906527        7.0480567684
  C        -1.1188214558       -2.7231098844        7.0767447430
  C         3.4694321178       -0.1989633949       11.9367859097
  C         3.3938367410       10.2430253509        5.8695150056
  C        -1.1790718813        7.5553403410        1.2923511325
  C         1.1393784474        4.8937951906        5.9312171513
  C         1.8162896353        3.7294098027        6.3520704333
  C        -2.7458290111       11.2366953534        6.6223288135
  C        -2.7527152618        0.1023992237       13.1864596135
  C        -0.1822699204        2.9438679795        7.4460792150
  C         4.2845928404       -2.5512717329        6.7330136171
  C         2.0553798875       -0.4984607412       11.8809830379
  C         2.0065091853       10.4603114872        5.5286875001
  C         4.2378045070        7.1458931964        1.2355046261
  C        -0.2474442144        5.0838391639        6.3082301439
  C        -0.9723772784        1.9533427358        8.1199099974
  C         3.4679100410       -1.4700743495        7.2612345947
  C         1.2748931425       -0.6401134782       10.6356623368
  C         1.1308443864        9.4700679401        4.8906045016
  C         3.3715297005        7.0679010465        2.4158319718
  C        -1.1313295370        6.1292690325        5.7779962315
  C        -0.8415551421        4.1266846128        7.1094081262
  C         3.6542230283       -3.4955439528        5.9333696186
  C         3.6406734803        6.9320624998       -0.0051847915
  O         1.7966991483        1.5331016942        7.2912964316
  O        -0.4234201129       -1.8779782615        7.8700524331
  O        -2.5300173177       -0.1656455802       10.8710041358
  O        -2.7388775829        9.1086881257        5.5705783314
  O        -0.5100877744        7.8182003722        2.4376996025
  O         1.7946544269        5.7547549464        5.1204229263
  O        -0.6249718792        0.7123375630        8.2220121198
  O         3.9958416588       -0.8249352567        8.2693418094
  O         1.8103375412       -0.3247922107        9.4968477588
  O         1.5116130622        8.2369085891        4.8656860695
  O         3.7712016065        7.6327125898        3.5068604479
  O        -0.7503776495        6.7744478994        4.7262358407
  O        -2.1200470477        2.3054315866        8.5524484249
  O         2.3152848881       -1.2156648925        6.7834398511
  O         0.0928796193       -1.1272649646       10.7380967734
  O        -0.0114441027        9.8292909494        4.4373223357
  O         2.2330526514        6.4812978509        2.3544265918
  O        -2.2801847842        6.3525790899        6.3062637425
  O         2.8677736211        1.9222009303       10.0080918917
  C         2.1804586388        2.8717384618        9.9280089286
  O         1.2570044442        3.6761206525       10.6065068553
  H         2.6380824226        3.6818740292        9.2852432074
  H         1.7559234060        4.4700611667       10.5913469132
      59
 i =      119, E =     -1483.2033536958
 Ni         3.6355573105        0.8490542790        9.2230098239
 Ni         0.8838963789       -0.1335022183        7.5329831912
 Ni        -1.2781374735       -1.2046968576        9.4812741541
 Ni        -1.4892891833        8.6782680107        3.8954390705
 Ni         0.7814807351        6.5932783138        3.6361811079
 Ni         3.0495025723        7.3945962758        5.5550998715
  H         2.8726804498        3.6015909266        6.0450603440
  H        -1.7018771008       11.0634851596        6.9054994873
  H        -1.6988630822        0.4079864782       13.2086931884
  H        -1.8640308893        4.2457707491        7.3879293726
  H         2.6111484877       -3.3522283091        5.6752866878
  H         2.5965338605        6.6355334716       -0.0280119809
  C         1.1621703630        2.6867831578        7.0130951212
  C        -1.1050008924       -2.7219123718        7.0774848642
  C         3.5076235976       -0.2713813119       11.9366107691
  C         3.3972766388       10.2436463890        5.8685903835
  C        -1.1759502790        7.5560045295        1.2915534639
  C         1.1538712793        4.8949290274        5.9158513400
  C         1.8298194480        3.7313190151        6.3282298429
  C        -2.7357816567       11.2393403159        6.6113547339
  C        -2.7351979663        0.0791926089       13.1908981927
  C        -0.1778648781        2.9354981927        7.4270088840
  C         4.2961316336       -2.5446889819        6.7432738374
  C         2.0835673310       -0.5316924222       11.8825150891
  C         2.0125843445       10.4662407930        5.5257468245
  C         4.2366287060        7.1588439361        1.2299942914
  C        -0.2289899872        5.0912082316        6.3062920211
  C        -0.9653606940        1.9436361526        8.0988783486
  C         3.4916824175       -1.4473634724        7.2803280745
  C         1.3160644821       -0.6847641027       10.6273343273
  C         1.1269228532        9.4642504441        4.9124384171
  C         3.3705319130        7.0883372322        2.4100846371
  C        -1.1243026891        6.1204103835        5.7619785950
  C        -0.8201572763        4.1256727540        7.0977335680
  C         3.6603158975       -3.4899784674        5.9416823493
  C         3.6457015908        6.9316433631       -0.0115156773
  O         1.7989589840        1.5376985370        7.2260002888
  O        -0.3852049562       -1.8845290053        7.8667806470
  O        -2.5281752166       -0.2577713476       10.8613228555
  O        -2.7369140393        9.1084542050        5.5593342588
  O        -0.5106771376        7.8282952805        2.4425646570
  O         1.8210023613        5.7591331331        5.1134617248
  O        -0.5898738705        0.7137755371        8.1776927371
  O         4.0312864180       -0.7918186625        8.2785179264
  O         1.8308532963       -0.3817558018        9.4928048207
  O         1.4938899331        8.2279177427        4.9014413053
  O         3.7564649562        7.6830689484        3.4913407897
  O        -0.7542064317        6.7442452926        4.6954834875
  O        -2.1268399510        2.2346771215        8.5488339705
  O         2.3375049923       -1.1985606150        6.8089639456
  O         0.1377474468       -1.1818578675       10.7282885054
  O        -0.0057235537        9.8252311745        4.4343395944
  O         2.2338150392        6.4955186763        2.3556636733
  O        -2.2718547921        6.3524099773        6.2922933125
  O         2.8232846548        1.9439697197       10.1837463111
  C         2.1527042130        2.9607420962       10.0012241961
  O         1.0070044442        3.7691597541       10.5958608546
  H         2.5368324057        3.7060266775        9.2585773190
  H         1.6098200534        4.5721932430       10.5602454163
      59
 i =      120, E =     -1483.2167493383
 Ni         3.5630359004        0.8807748330        9.2586415758
 Ni         0.9110351738       -0.1368493976        7.5106398240
 Ni        -1.2495364671       -1.2074754298        9.4784937248
 Ni        -1.4826811131        8.6765805354        3.9009592904
 Ni         0.7847228857        6.6031542307        3.6300567220
 Ni         3.0573981834        7.4038707299        5.5474965543
  H         2.8746236927        3.6069829433        6.0075204408
  H        -1.6933764697       11.0551127549        6.8900233776
  H        -1.6763309247        0.3819185381       13.2389151138
  H        -1.8393886359        4.2494812064        7.3878314918
  H         2.6243092855       -3.3449556018        5.6885720270
  H         2.6018603537        6.6682445014       -0.0506865137
  C         1.1522295585        2.6684404881        6.9615604005
  C        -1.0849516337       -2.7253340891        7.0875621959
  C         3.5451893530       -0.3533281111       11.9330566769
  C         3.3975101744       10.2405083183        5.8700827736
  C        -1.1633139869        7.5332276679        1.2880120322
  C         1.1714982758        4.9006557771        5.9027627389
  C         1.8346752347        3.7331465721        6.3102744659
  C        -2.7251053302       11.2401356986        6.5967846080
  C        -2.7131885715        0.0481901168       13.1910758577
  C        -0.1713674011        2.9423148997        7.4466571227
  C         4.3247277418       -2.5243756276        6.7471343970
  C         2.0976919865       -0.5424493573       11.8807542031
  C         2.0147315945       10.4723161035        5.5333713978
  C         4.2347137740        7.1848087503        1.2248044155
  C        -0.2097753540        5.0942720655        6.3022358680
  C        -0.9937839073        1.9116129094        8.0306946231
  C         3.5153653396       -1.4398816987        7.3217805409
  C         1.3615379713       -0.8024943980       10.6065858703
  C         1.1288867000        9.4675279618        4.9208696064
  C         3.3650477871        7.1250000267        2.3989255117
  C        -1.1172546073        6.1096382705        5.7494966398
  C        -0.8048309597        4.1190416283        7.0796976696
  C         3.6719730813       -3.4801632519        5.9640032680
  C         3.6689581816        6.9024385704       -0.0186522924
  O         1.7891587076        1.5255792028        7.1455053232
  O        -0.3685542142       -1.8823009822        7.8804357095
  O        -2.5477136875       -0.3518088850       10.8323840724
  O        -2.7306280467        9.1119301584        5.5387635354
  O        -0.5289248923        7.8464004637        2.4516390727
  O         1.8317198588        5.7677290998        5.0919220274
  O        -0.5211617272        0.7200732578        8.1669918175
  O         4.0665407871       -0.7440998842        8.2847553383
  O         1.8277107264       -0.4253532116        9.5023407274
  O         1.4789399454        8.2245003061        4.9588621635
  O         3.7497955932        7.7412502670        3.4679171091
  O        -0.7663021771        6.6996012357        4.6576661530
  O        -2.1421448580        2.1666952613        8.5666592367
  O         2.3795397511       -1.1871559437        6.8208093658
  O         0.1517245914       -1.2435427853       10.7217175568
  O        -0.0040401720        9.8182714193        4.4363570685
  O         2.2377225223        6.5092374120        2.3609364411
  O        -2.2637215550        6.3526151098        6.2799922923
  O         2.7203630630        1.9724208177       10.2989152574
  C         2.0579490417        3.0425768289       10.0376871756
  O         0.9943867727        3.8623844139       10.6536586052
  H         2.4570107246        3.7449326253        9.2456427750
  H         1.4001926134        4.6356171098       10.5521191588
      59
 i =      121, E =     -1483.2411552381
 Ni         3.5100827173        0.8985975834        9.2517042250
 Ni         0.9376501097       -0.1490894675        7.4953394394
 Ni        -1.2503899363       -1.1990279414        9.4859323662
 Ni        -1.4850136201        8.6826691493        3.8988961876
 Ni         0.7957666659        6.6225809462        3.6300478969
 Ni         3.0625712416        7.3947019227        5.5458517836
  H         2.8671407098        3.5995075999        5.9909464416
  H        -1.6829678110       11.0542171388        6.8796318989
  H        -1.6632507793        0.3582521151       13.2457216955
  H        -1.8424210004        4.2592570217        7.3848529594
  H         2.6324740564       -3.3296193522        5.7067095663
  H         2.6074690852        6.6777862800       -0.0612017823
  C         1.1515231618        2.6698001943        6.9632070540
  C        -1.0682918344       -2.7191451690        7.0918149852
  C         3.5431977872       -0.3407513558       11.9311425041
  C         3.4067338906       10.2521467521        5.8559419545
  C        -1.1626572557        7.5438619041        1.2807158895
  C         1.1713457897        4.9052422268        5.9009240495
  C         1.8260893527        3.7287122006        6.2921778856
  C        -2.7188036296       11.2377399079        6.6047198242
  C        -2.6934357024        0.0012386159       13.1853911100
  C        -0.1883136339        2.9278959185        7.4184663965
  C         4.3388940468       -2.5268727396        6.7714927458
  C         2.1217353729       -0.6222272578       11.8711866904
  C         2.0146062450       10.4746244732        5.5512296775
  C         4.2437381642        7.1697211781        1.2191942770
  C        -0.2116277505        5.0916357545        6.2955396078
  C        -0.9840155312        1.8997665850        8.0559273486
  C         3.5388461840       -1.4213490553        7.3213311503
  C         1.3356953656       -0.7920022342       10.6219686684
  C         1.1293988840        9.4765533080        4.9281838849
  C         3.3648409610        7.1519870730        2.3886165538
  C        -1.1177835168        6.1066171767        5.7413810353
  C        -0.8038972903        4.1313444586        7.0958504188
  C         3.6820085561       -3.4676135970        5.9718286948
  C         3.6709402442        6.9176058020       -0.0259289109
  O         1.7778879440        1.5123870344        7.0890173730
  O        -0.3723199418       -1.8748383876        7.9011490802
  O        -2.5563963164       -0.4046107180       10.8056400955
  O        -2.7351374093        9.1070004289        5.5495977936
  O        -0.5249755176        7.8460943199        2.4485467740
  O         1.8248954185        5.7695346753        5.0817948595
  O        -0.5005736849        0.7087138368        8.1721223621
  O         4.0794497592       -0.7250996615        8.2873434907
  O         1.8387013168       -0.4491024842        9.5059597217
  O         1.4758274094        8.2315062087        5.0037590458
  O         3.7395678263        7.7752591952        3.4568547731
  O        -0.7896215126        6.6693539456        4.6241091438
  O        -2.1554777313        2.1544100312        8.5448293681
  O         2.4022358118       -1.1952097974        6.8139501321
  O         0.1525972307       -1.3028923443       10.7195561080
  O        -0.0044042724        9.8199857598        4.4401644562
  O         2.2457151093        6.5171532982        2.3611186776
  O        -2.2578422529        6.3495361090        6.2864310957
  O         2.6613444277        1.9866655604       10.3316735206
  C         2.0157998868        3.0669563771       10.0489325416
  O         0.9725983688        3.8768159841       10.6760746517
  H         2.4187320777        3.7498008604        9.2504991722
  H         1.4282255737        4.6776944565       10.5780697893
      59
 i =      122, E =     -1483.2620454476
 Ni         3.4086014216        0.9182047268        9.2183898379
 Ni         0.9783382131       -0.1310729208        7.4879018298
 Ni        -1.2665253364       -1.2041011939        9.5097888338
 Ni        -1.4875245807        8.6969616898        3.8855942669
 Ni         0.7915495844        6.6379973382        3.6255063710
 Ni         3.0556300195        7.3960991388        5.5457729220
  H         2.8502316233        3.5752339468        5.9631628483
  H        -1.6550683508       11.0513419116        6.8672881931
  H        -1.6435811586        0.2969388709       13.2349728979
  H        -1.8533721162        4.2809067892        7.3859547215
  H         2.6450548854       -3.2940786266        5.7424545146
  H         2.6008690819        6.6852154904       -0.0727400656
  C         1.1419179109        2.6589312283        6.9354326004
  C        -1.0463227152       -2.7146313772        7.1196479095
  C         3.5693025145       -0.4437332871       11.9068842580
  C         3.4146356751       10.2606721085        5.8788482552
  C        -1.1496336779        7.5282453176        1.2673551686
  C         1.1545880471        4.8959554685        5.8759043648
  C         1.8169178433        3.7317546678        6.2778589208
  C        -2.6924705816       11.2506779249        6.6098250036
  C        -2.6844102431       -0.0236664316       13.1677912959
  C        -0.2099560960        2.9051266800        7.3835283860
  C         4.3600917945       -2.5337986589        6.8117949362
  C         2.1230615175       -0.6704171015       11.8867458178
  C         2.0331563940       10.5005651952        5.5424763747
  C         4.2496872299        7.1792336490        1.2132105731
  C        -0.2140760340        5.1017392437        6.3095344534
  C        -0.9602435311        1.8879376957        8.1201377212
  C         3.5760120044       -1.3863075345        7.3025501586
  C         1.3286718771       -0.8128777957       10.6403946756
  C         1.1186476062        9.4776601526        4.9884126336
  C         3.3800631754        7.1620213923        2.3860378744
  C        -1.1289069412        6.0896021365        5.7139839019
  C        -0.8138712653        4.1356666268        7.1057113838
  C         3.6945462888       -3.4553617029        5.9949739700
  C         3.6689789254        6.8957209309       -0.0217141294
  O         1.7863107645        1.5040856027        6.9906780291
  O        -0.3483739252       -1.8663865342        7.9279048730
  O        -2.5662686313       -0.4260778661       10.7816989514
  O        -2.7327233087        9.1079789189        5.5728862488
  O        -0.4997051250        7.8537155137        2.4238833876
  O         1.8148141919        5.7771925633        5.0770067775
  O        -0.5062436199        0.6850606421        8.2064257036
  O         4.0853028106       -0.6977813084        8.2872886736
  O         1.8320585741       -0.4333692011        9.5223718276
  O         1.4582287540        8.2393757786        5.0433662438
  O         3.7168520880        7.8301309069        3.4446878221
  O        -0.8162719728        6.6423510043        4.5925610695
  O        -2.1761695007        2.1502642151        8.4960024234
  O         2.4234776622       -1.1942016073        6.8102376866
  O         0.1632247952       -1.3737582050       10.7290825876
  O         0.0066364665        9.8249528422        4.4440097037
  O         2.2525417874        6.5461260944        2.3595148227
  O        -2.2535847625        6.3614996540        6.2822850608
  O         2.5641117266        2.0058412592       10.3440306985
  C         1.9534669271        3.0896432068       10.0526564717
  O         1.0160136133        3.8731253234       10.7286775331
  H         2.3655874704        3.7477948727        9.2649309133
  H         1.4997152356        4.7187663013       10.6381573435
      59
 i =      123, E =     -1483.2773497050
 Ni         3.2984662535        0.9359300130        9.1789236457
 Ni         1.0002907465       -0.1079360498        7.4811818965
 Ni        -1.2735855526       -1.1994036017        9.5260851499
 Ni        -1.4823498060        8.7146384549        3.8834076584
 Ni         0.7754231243        6.6488919016        3.6162209719
 Ni         3.0448610375        7.3990643386        5.5527634686
  H         2.8308678676        3.5522568299        5.9274276085
  H        -1.6209866195       11.0525788774        6.8550207973
  H        -1.6189867410        0.2235379956       13.2102085644
  H        -1.8520503194        4.2963421782        7.3965418084
  H         2.6708049936       -3.2564769109        5.7870946678
  H         2.6025100220        6.6926306447       -0.0745980356
  C         1.1278359659        2.6425033615        6.8740237247
  C        -1.0224237237       -2.7124748911        7.1480322152
  C         3.5626340912       -0.4596301957       11.9036684752
  C         3.4263486242       10.2755891888        5.8915501696
  C        -1.1372022339        7.5122153454        1.2508610482
  C         1.1472179603        4.9105518674        5.8706603670
  C         1.8032242927        3.7324165921        6.2417041089
  C        -2.6650474140       11.2569887272        6.6245843318
  C        -2.6558261677       -0.1072089014       13.1521046217
  C        -0.2028575291        2.9056857652        7.4050477721
  C         4.3912617143       -2.5125063644        6.8307790590
  C         2.1310879102       -0.7516923189       11.8988481319
  C         2.0370908708       10.5046098952        5.5802639357
  C         4.2615169582        7.1664237482        1.2170374797
  C        -0.2268159434        5.0942053982        6.2925185716
  C        -0.9869225406        1.8581728027        8.0721579354
  C         3.5795602848       -1.3882681275        7.3249456368
  C         1.3411515419       -0.8584980663       10.6486573744
  C         1.1376811322        9.4935172813        4.9894401731
  C         3.3776933709        7.2083635370        2.3842936222
  C        -1.1297614083        6.0964713443        5.7112471708
  C        -0.8195870698        4.1207413808        7.0942061057
  C         3.7214612981       -3.4360585368        6.0212341691
  C         3.6741203522        6.8771469913       -0.0134150305
  O         1.7749642402        1.4967270381        6.9091488451
  O        -0.3146857711       -1.8672406434        7.9526740052
  O        -2.5704370086       -0.4717693927       10.7643074835
  O        -2.7393385228        9.1123103213        5.5759269900
  O        -0.4886779126        7.8574080063        2.4038125638
  O         1.8075289682        5.7864650127        5.0640344138
  O        -0.4910753242        0.6833533209        8.2645544529
  O         4.0950512640       -0.6498076219        8.2727701038
  O         1.8092695615       -0.3921650538        9.5370017817
  O         1.4242282512        8.2367017709        5.1098189497
  O         3.6985708243        7.8943290901        3.4365120375
  O        -0.8577043390        6.5985858295        4.5475647189
  O        -2.1775533015        2.1473413609        8.4903221267
  O         2.4411651088       -1.1634187908        6.8011848491
  O         0.1818323336       -1.4367277347       10.7368375412
  O         0.0140610117        9.8362292680        4.4772205009
  O         2.2542236467        6.5844481625        2.3580628148
  O        -2.2602203556        6.3573440239        6.2678268222
  O         2.4617984608        2.0217121531       10.3644359701
  C         1.8976098775        3.1134988460       10.0637594615
  O         1.0748322269        3.8619109685       10.7962733318
  H         2.3079535695        3.7385518989        9.2795612374
  H         1.5398606406        4.7512534174       10.7042351280
      59
 i =      124, E =     -1483.2858928655
 Ni         3.2387881140        0.9501298040        9.1633235446
 Ni         0.9994651124       -0.1219224968        7.4806364994
 Ni        -1.2587263594       -1.1724354075        9.5194563097
 Ni        -1.4762910011        8.7140062491        3.8993838829
 Ni         0.7725476748        6.6657631639        3.6110386540
 Ni         3.0457146339        7.4071669216        5.5535955859
  H         2.8194296981        3.5504275719        5.8932982095
  H        -1.6085181342       11.0617828001        6.8504430972
  H        -1.6033181624        0.1639846182       13.1890707096
  H        -1.8424138622        4.2884700495        7.4054428918
  H         2.6919699417       -3.2390291237        5.8113497467
  H         2.6139561374        6.6963277982       -0.0632204907
  C         1.1263435291        2.6565307025        6.8668766643
  C        -1.0056143064       -2.7056008609        7.1437081668
  C         3.5754560282       -0.4968745077       11.9147830738
  C         3.4331939484       10.2700050184        5.9012090255
  C        -1.1215328813        7.4729883346        1.2584969647
  C         1.1489534354        4.9183734884        5.8564256680
  C         1.7908649794        3.7233575387        6.2019747724
  C        -2.6592514183       11.2512422881        6.6343572964
  C        -2.6479654361       -0.1415238368       13.1609243780
  C        -0.2075414408        2.8933570816        7.3740716453
  C         4.4026974658       -2.5008940289        6.8416139593
  C         2.1379227286       -0.7709588781       11.8961823913
  C         2.0430188780       10.5035506725        5.6008736189
  C         4.2638384124        7.1712071146        1.2174753152
  C        -0.2268420361        5.0963207605        6.2755407407
  C        -0.9923272178        1.8625188495        8.0646819017
  C         3.5906367926       -1.3728499062        7.3286276289
  C         1.3485302766       -0.8947300527       10.6532166989
  C         1.1274615215        9.4984675332        5.0203850572
  C         3.3647981817        7.2462769351        2.3774498910
  C        -1.1545215075        6.0756619080        5.6875758423
  C        -0.8123737271        4.1238135809        7.0864103601
  C         3.7391555337       -3.4328263862        6.0406920536
  C         3.6947630294        6.8447924982       -0.0166806966
  O         1.7304411874        1.4821860276        6.8639882376
  O        -0.3069562903       -1.8828019994        7.9708233042
  O        -2.5613069858       -0.5066719755       10.7715490722
  O        -2.7320613956        9.1158055397        5.5595012969
  O        -0.4915047595        7.8692710240        2.4075222025
  O         1.8104229140        5.8003837877        5.0531416312
  O        -0.4770316785        0.6972600351        8.2512425126
  O         4.0967908314       -0.6263442615        8.2723443867
  O         1.7869242091       -0.3711387909        9.5484222298
  O         1.4266954447        8.2506100862        5.1460689262
  O         3.6898338181        7.9410252871        3.4191313108
  O        -0.8697080692        6.5657159701        4.5295048223
  O        -2.1786213316        2.1487544450        8.4824004815
  O         2.4565110636       -1.1409513346        6.7961625045
  O         0.1941303599       -1.4784334900       10.7300410252
  O         0.0181683188        9.8434887567        4.4707721691
  O         2.2482320345        6.6071109548        2.3535472525
  O        -2.2702929349        6.3599554958        6.2681899257
  O         2.4126272830        2.0335803528       10.4009644138
  C         1.8894445756        3.1410749953       10.0870141383
  O         1.0853032283        3.8658665960       10.8402290621
  H         2.2767842608        3.7364545855        9.2819085077
  H         1.4844204045        4.7703478411       10.7312906751
      59
 i =      125, E =     -1483.2943851501
 Ni         3.2146605632        0.9472315450        9.1571160977
 Ni         0.9905796615       -0.1245735651        7.4899367865
 Ni        -1.2414465446       -1.1468298976        9.5258536592
 Ni        -1.4851354615        8.7194355355        3.9046908324
 Ni         0.7673324165        6.6613222219        3.6061222566
 Ni         3.0439422860        7.4166864899        5.5528326578
  H         2.8043861130        3.5545573118        5.8487995173
  H        -1.6073790733       11.0754728384        6.8545450418
  H        -1.5910637543        0.0982923062       13.1721213247
  H        -1.8377292106        4.2735365461        7.4136611067
  H         2.7004526448       -3.2342020875        5.8237232201
  H         2.6262800148        6.6794528249       -0.0436103085
  C         1.1014125185        2.6412113678        6.8197236044
  C        -0.9984554534       -2.7082234653        7.1650370635
  C         3.5928122854       -0.5540845746       11.9318866194
  C         3.4383947534       10.2607631104        5.9093316360
  C        -1.1139004500        7.4704618794        1.2761895922
  C         1.1416683616        4.9041698320        5.8228576104
  C         1.7843440309        3.7211136153        6.1930786307
  C        -2.6595016363       11.2533036099        6.6319952079
  C        -2.6457861086       -0.1762769653       13.1779572029
  C        -0.2068994489        2.9036739788        7.3653527377
  C         4.4116820882       -2.4827354612        6.8415095584
  C         2.1462791112       -0.7866246753       11.8930438118
  C         2.0448735117       10.5082464116        5.6213240789
  C         4.2761395443        7.1585763521        1.2156579183
  C        -0.2257720188        5.1029491921        6.2653586827
  C        -0.9951295157        1.8743348859        8.0528125180
  C         3.6113037561       -1.3403057646        7.3256286592
  C         1.3551743638       -0.8986564965       10.6598029730
  C         1.1258126797        9.5016864976        5.0408336633
  C         3.3628280006        7.2590456660        2.3675870810
  C        -1.1647309844        6.0724122332        5.6742938240
  C        -0.8145012333        4.1249924730        7.0654713793
  C         3.7426398653       -3.4292394699        6.0630533088
  C         3.7022538863        6.8346932370       -0.0161999167
  O         1.7020500544        1.4786881697        6.8537030764
  O        -0.2926179974       -1.8989483434        7.9923427372
  O        -2.5447190208       -0.5137119638       10.8054876800
  O        -2.7187506642        9.1143001896        5.5647371203
  O        -0.4837775962        7.8726840520        2.4209774267
  O         1.8163722469        5.8061624463        5.0464762926
  O        -0.4800291603        0.7084203358        8.2278326598
  O         4.0923439336       -0.6041075804        8.2840359895
  O         1.7781598794       -0.3492808654        9.5580607048
  O         1.4246190366        8.2569920495        5.1748986117
  O         3.6716506853        7.9904438290        3.3901959807
  O        -0.8865748865        6.5391449533        4.5039702841
  O        -2.1750001939        2.1553624770        8.4703701021
  O         2.4696259747       -1.1248471979        6.8071006966
  O         0.2165196355       -1.5002329888       10.7148745614
  O         0.0211504254        9.8345489965        4.4688938228
  O         2.2359602617        6.6414051416        2.3469625216
  O        -2.2820386399        6.3544216051        6.2512732358
  O         2.4039844178        2.0298611271       10.4424248632
  C         1.9277707266        3.1539218665       10.1194073817
  O         1.0733299524        3.8533528985       10.8725601038
  H         2.2771656488        3.7201811669        9.2773691755
  H         1.3776814661        4.7654687726       10.7391868093
      59
 i =      126, E =     -1483.3003371801
 Ni         3.2405426588        0.9241021752        9.1575633016
 Ni         0.9732717886       -0.1187547690        7.5027524222
 Ni        -1.2381275171       -1.1550801516        9.5303565774
 Ni        -1.4925322379        8.7342676343        3.9033098826
 Ni         0.7598214356        6.6552257401        3.5965938411
 Ni         3.0373824775        7.4115825605        5.5528353399
  H         2.7945822197        3.5575555416        5.8240998100
  H        -1.6080845055       11.0847957828        6.8682490397
  H        -1.5850499277        0.0569801289       13.1728845389
  H        -1.8448494505        4.2674655283        7.4107663247
  H         2.6950619090       -3.2421884775        5.8237688473
  H         2.6326164546        6.6527055503       -0.0246050309
  C         1.0963675655        2.6424129807        6.8304568377
  C        -0.9994862230       -2.7059726076        7.1771201041
  C         3.5898960059       -0.5515250496       11.9457165320
  C         3.4360392057       10.2650293589        5.9188458934
  C        -1.1053614862        7.4610632061        1.2881069391
  C         1.1359878459        4.9060495799        5.8260316242
  C         1.7705882541        3.7020497746        6.1663779309
  C        -2.6601174229       11.2573106670        6.6407450358
  C        -2.6458431131       -0.1951280014       13.1906041444
  C        -0.2100620036        2.9078768643        7.3437614874
  C         4.4099793688       -2.4737959742        6.8396015694
  C         2.1451590636       -0.7764916192       11.9019285365
  C         2.0396519532       10.5120404845        5.6291562775
  C         4.2821605565        7.1584721033        1.2263200803
  C        -0.2366601107        5.0973266432        6.2525873828
  C        -0.9990798866        1.8911069361        8.0449208872
  C         3.6002728052       -1.3400613283        7.3305457239
  C         1.3714812292       -0.8863844377       10.6596402978
  C         1.1244569291        9.5001828517        5.0468003652
  C         3.3646382806        7.2625648775        2.3718688845
  C        -1.1623512363        6.0722679355        5.6568253337
  C        -0.8209320583        4.1330011515        7.0666150277
  C         3.7389773508       -3.4223574069        6.0644569907
  C         3.7070238732        6.8161317296       -0.0009946553
  O         1.7094607379        1.4793529354        6.8660576617
  O        -0.2789926902       -1.8969164353        7.9859214442
  O        -2.5099862771       -0.4882981921       10.8454099130
  O        -2.7292441564        9.1146436822        5.5715464517
  O        -0.4773123657        7.8753338063        2.4273912191
  O         1.8083135221        5.7928708177        5.0325681854
  O        -0.5170169256        0.7079375740        8.2076725342
  O         4.0814041073       -0.5998204758        8.2872999117
  O         1.7751153934       -0.3194379230        9.5601140820
  O         1.4233772275        8.2576377975        5.1777704057
  O         3.6669084418        8.0159019117        3.3779349636
  O        -0.8725262649        6.5598123298        4.5107620280
  O        -2.1719233021        2.1785554622        8.4629352409
  O         2.4635235788       -1.1254141722        6.8031238640
  O         0.2332607841       -1.4723302371       10.7068754731
  O         0.0205598136        9.8331674051        4.4764531278
  O         2.2240140966        6.6773608611        2.3438019278
  O        -2.2792864619        6.3568810873        6.2290084520
  O         2.4406010557        2.0123335883       10.4466123096
  C         1.9914493007        3.1355742714       10.1349868718
  O         1.0797283136        3.8174953313       10.8796168001
  H         2.3272706923        3.6947543936        9.2703618287
  H         1.2991468747        4.7335515847       10.7281634977
      59
 i =      127, E =     -1483.3057658755
 Ni         3.2330692558        0.9060419837        9.1472617574
 Ni         0.9507005991       -0.1164083895        7.4865892297
 Ni        -1.2377155774       -1.1645636266        9.5401143721
 Ni        -1.4921381281        8.7578881422        3.9011437416
 Ni         0.7602234783        6.6655782345        3.5781712989
 Ni         3.0349188721        7.4108636643        5.5568084255
  H         2.7799323139        3.5445106977        5.7887761549
  H        -1.6012209791       11.0883732173        6.8793946064
  H        -1.5676849706        0.0023967551       13.1906179424
  H        -1.8480740188        4.2737613343        7.4018704100
  H         2.6912783527       -3.2373167297        5.8345352310
  H         2.6425000598        6.6253926287       -0.0115554607
  C         1.0895587375        2.6382037093        6.8119795314
  C        -0.9906805057       -2.6910983025        7.1728479105
  C         3.6002071096       -0.5553043842       11.9553993150
  C         3.4329666954       10.2733346839        5.9371512483
  C        -1.0994598612        7.4499165257        1.2968317056
  C         1.1161100523        4.8960827380        5.7987922739
  C         1.7626780881        3.7032016497        6.1468662141
  C        -2.6550662071       11.2600921465        6.6600441277
  C        -2.6336150530       -0.2244168369       13.2061795504
  C        -0.2095475550        2.9121402732        7.3414177192
  C         4.4092668379       -2.4775510723        6.8581080381
  C         2.1596511038       -0.7901675210       11.9095009269
  C         2.0398097529       10.5200747981        5.6317996939
  C         4.2882441528        7.1445793271        1.2394796412
  C        -0.2459625929        5.1006314213        6.2521429315
  C        -1.0121479804        1.8973378246        8.0308674043
  C         3.5924562767       -1.3394422667        7.3298311476
  C         1.3795289637       -0.8627479456       10.6643125741
  C         1.1201949340        9.5009211330        5.0636667747
  C         3.3554797347        7.3021044155        2.3736638575
  C        -1.1526853728        6.0827858077        5.6458702882
  C        -0.8276151827        4.1282902116        7.0551905542
  C         3.7391972702       -3.4139411453        6.0665100862
  C         3.7167105338        6.7981954669        0.0118745886
  O         1.7056813618        1.4736420237        6.8663333464
  O        -0.2774875877       -1.8858117665        7.9875410558
  O        -2.4851570907       -0.4856647222       10.8588882921
  O        -2.7397661620        9.1209867544        5.5766873603
  O        -0.4680483575        7.8823890140        2.4275450810
  O         1.7966085871        5.7930159519        5.0209199344
  O        -0.5376928464        0.7071230651        8.1999669178
  O         4.0730762019       -0.6012637895        8.2915698063
  O         1.7691525100       -0.2940507680        9.5560529579
  O         1.4154128590        8.2595775478        5.1979213856
  O         3.6670288900        8.0488520640        3.3709235046
  O        -0.8708067212        6.5597324008        4.4895427544
  O        -2.1771970336        2.1921873689        8.4660667345
  O         2.4586416342       -1.1313461118        6.7957592143
  O         0.2525176316       -1.4688127621       10.6990879340
  O         0.0213662274        9.8450832579        4.4921562399
  O         2.2254425036        6.6928331889        2.3420151808
  O        -2.2747537278        6.3616945593        6.2052155376
  O         2.4373520271        2.0024910900       10.4476449578
  C         2.0191876678        3.1243133994       10.1427913496
  O         1.1110536080        3.7840934955       10.8997196842
  H         2.3753507037        3.6737689960        9.2633376297
  H         1.2331938397        4.7194235760       10.7244697091
      59
 i =      128, E =     -1483.3097455450
 Ni         3.2330709106        0.8749269103        9.1368556286
 Ni         0.9063567811       -0.1198446342        7.4652379838
 Ni        -1.2357271661       -1.1784632614        9.5443051907
 Ni        -1.4865352204        8.7877977025        3.8844955882
 Ni         0.7582006374        6.6953660351        3.5447676314
 Ni         3.0361224980        7.4182900474        5.5596362575
  H         2.7568566766        3.5197066754        5.7328473434
  H        -1.6011017315       11.0893514340        6.8992939588
  H        -1.5362983225       -0.0757714004       13.2455238397
  H        -1.8519213346        4.2862779896        7.3800869763
  H         2.6836600530       -3.2254506133        5.8492203429
  H         2.6652227163        6.5793995237        0.0010958976
  C         1.0764908228        2.6332480165        6.7888041103
  C        -0.9955022513       -2.6879177636        7.1846872146
  C         3.6253300386       -0.5639555150       11.9699494647
  C         3.4352636637       10.2819320250        5.9497535102
  C        -1.0911969696        7.4442857337        1.3090726338
  C         1.1036105820        4.8943298899        5.7732862264
  C         1.7473376610        3.6953988439        6.1053165404
  C        -2.6525080846       11.2664881159        6.6764494282
  C        -2.6047461547       -0.2752279031       13.2333956685
  C        -0.2213891086        2.9173717235        7.3294824735
  C         4.4101465359       -2.4729861048        6.8611861862
  C         2.1859081252       -0.7998417205       11.9089633700
  C         2.0410103788       10.5236923327        5.6479264690
  C         4.2962497694        7.1370218286        1.2476887355
  C        -0.2546379385        5.1020280697        6.2261192911
  C        -1.0302621010        1.9113763195        8.0247443421
  C         3.5729923785       -1.3534484909        7.3367942196
  C         1.3819894998       -0.8430048413       10.6677338426
  C         1.1252108097        9.5118200137        5.0671337458
  C         3.3700830744        7.3156548840        2.3766639960
  C        -1.1507444828        6.0929553171        5.6268569349
  C        -0.8310189300        4.1361502595        7.0386560380
  C         3.7338010987       -3.4121016165        6.0769839749
  C         3.7372577961        6.7758385164        0.0191013477
  O         1.6955237846        1.4670985712        6.8836759600
  O        -0.2830469372       -1.8637581993        7.9813076490
  O        -2.4496685389       -0.4802262375       10.8737757111
  O        -2.7329294354        9.1298093600        5.5913862364
  O        -0.4454140498        7.8999368930        2.4226298982
  O         1.7710346800        5.7979156142        4.9921327694
  O        -0.5739470293        0.7083042961        8.1693924809
  O         4.0595554492       -0.6174169915        8.3021730230
  O         1.7811962797       -0.2829061296        9.5543201659
  O         1.3957021664        8.2613212157        5.2366629528
  O         3.6532818540        8.1197613766        3.3474171488
  O        -0.8666460658        6.5615942945        4.4619620722
  O        -2.1898606884        2.2131287312        8.4820238917
  O         2.4474133988       -1.1350657368        6.7954076308
  O         0.2616419295       -1.4661273523       10.6898185190
  O         0.0125654197        9.8620957193        4.5403452516
  O         2.2288898303        6.7262336731        2.3366311280
  O        -2.2718415258        6.3810863396        6.1857443801
  O         2.4338919033        1.9893282438       10.4443081966
  C         2.0562746241        3.1083986260       10.1454276342
  O         1.1873739089        3.7378420698       10.9283519322
  H         2.4507593289        3.6419004542        9.2425821566
  H         1.1336706672        4.7058196120       10.7041567867
      59
 i =      129, E =     -1483.3131171032
 Ni         3.2614454313        0.8740385848        9.1586853218
 Ni         0.8971429777       -0.1164890507        7.4494722343
 Ni        -1.2327821842       -1.1851404039        9.5448846789
 Ni        -1.4900896034        8.7888940526        3.8907360386
 Ni         0.7545124812        6.7039357183        3.5536651270
 Ni         3.0418391257        7.4185224535        5.5540283323
  H         2.7579302841        3.5172610793        5.7392689760
  H        -1.6127608435       11.0840674183        6.9015909175
  H        -1.5358574763       -0.0554538552       13.2736551002
  H        -1.8551654154        4.2935182251        7.3722474278
  H         2.6818085893       -3.2327061181        5.8408471800
  H         2.6716939189        6.5778403740       -0.0114495125
  C         1.0790953781        2.6367558479        6.7995054730
  C        -1.0060916271       -2.6870864016        7.1753036663
  C         3.6269233262       -0.5535966897       11.9636112935
  C         3.4336326318       10.2820908623        5.9385576502
  C        -1.0879716985        7.4507454948        1.3022697842
  C         1.1134184369        4.8975050785        5.7714664031
  C         1.7472177042        3.6943574784        6.1059887496
  C        -2.6621350307       11.2659949065        6.6724060414
  C        -2.6007662110       -0.2647343768       13.2288622088
  C        -0.2270751337        2.9217065070        7.3344369899
  C         4.4000849713       -2.4809518426        6.8569708576
  C         2.1866927108       -0.7874074644       11.9052273893
  C         2.0417376072       10.5179967279        5.6381829914
  C         4.3028731713        7.1341969307        1.2449423225
  C        -0.2459348351        5.1026075377        6.2207553751
  C        -1.0300779796        1.9083008787        8.0231932262
  C         3.5706230676       -1.3574112534        7.3347627137
  C         1.3861902310       -0.8597864364       10.6587611735
  C         1.1164796839        9.5036162166        5.0790815923
  C         3.3676335040        7.3242147216        2.3672576704
  C        -1.1499839217        6.0925940336        5.6289238947
  C        -0.8317452307        4.1418297016        7.0348761093
  C         3.7316518002       -3.4206500500        6.0689642989
  C         3.7399609213        6.7908490577        0.0158845223
  O         1.7096411529        1.4761865694        6.8975977812
  O        -0.2945179193       -1.8555705438        7.9747131128
  O        -2.4517514449       -0.4790192985       10.8656051790
  O        -2.7339966744        9.1276397003        5.5956212257
  O        -0.4624697155        7.9013703834        2.4309041006
  O         1.7753328660        5.7994644427        4.9867173539
  O        -0.5645121024        0.7110271158        8.1698467060
  O         4.0614860399       -0.6419446010        8.3140192429
  O         1.7986735987       -0.3143423396        9.5487755135
  O         1.4032343137        8.2595127243        5.2270803779
  O         3.6644382389        8.1061929646        3.3436988522
  O        -0.8704119927        6.5720985812        4.4658576044
  O        -2.1905010897        2.2042304166        8.4955329252
  O         2.4389961351       -1.1438623050        6.8068907885
  O         0.2503007377       -1.4566830661       10.7010794020
  O         0.0108319845        9.8623351525        4.5333315831
  O         2.2342983512        6.7114383978        2.3509386878
  O        -2.2702099464        6.3804393330        6.1928186443
  O         2.4507481419        1.9937905554       10.4495814036
  C         2.0580603104        3.1158181006       10.1418402248
  O         1.1876207399        3.7555235042       10.9172539937
  H         2.4409022771        3.6486861948        9.2324851570
  H         1.1303064954        4.7146922224       10.6854585300
      59
 i =      130, E =     -1483.3151227303
 Ni         3.2697555357        0.8704176453        9.1795417692
 Ni         0.8828736517       -0.1181112053        7.4316697445
 Ni        -1.2275659941       -1.1875474350        9.5480219525
 Ni        -1.4934832809        8.7893762348        3.8988656814
 Ni         0.7481011357        6.7079921400        3.5680427742
 Ni         3.0415702046        7.4197837721        5.5505672235
  H         2.7547135990        3.5093667781        5.7310495568
  H        -1.6222076724       11.0829528796        6.9054614596
  H        -1.5289009083       -0.0587764123       13.2916225387
  H        -1.8600623216        4.3055193877        7.3621893050
  H         2.6836409539       -3.2409363967        5.8377610535
  H         2.6780177138        6.5763710962       -0.0244262458
  C         1.0797702390        2.6470469962        6.8028434755
  C        -1.0114305089       -2.6827957012        7.1687986240
  C         3.6387134321       -0.5557996052       11.9622168587
  C         3.4265554540       10.2777591280        5.9402202759
  C        -1.0829680111        7.4468270174        1.3034620875
  C         1.1131969450        4.8972951699        5.7548692452
  C         1.7451869256        3.6960009438        6.0967929454
  C        -2.6695261273       11.2681428025        6.6671708713
  C        -2.5976467214       -0.2582880707       13.2332432650
  C        -0.2360285126        2.9208618305        7.3264884469
  C         4.3950474465       -2.4793096306        6.8552396124
  C         2.1978031321       -0.7893840298       11.9073295969
  C         2.0385590063       10.5155713684        5.6399748249
  C         4.3029625426        7.1470032722        1.2411991619
  C        -0.2431060576        5.1071863721        6.2150081871
  C        -1.0278813444        1.9074201478        8.0288670893
  C         3.5606015234       -1.3649748972        7.3442527702
  C         1.3969931902       -0.8759969850       10.6596437959
  C         1.1180449642        9.5009518169        5.0811795418
  C         3.3736720323        7.3218290972        2.3645407751
  C        -1.1550470494        6.0924830367        5.6227454386
  C        -0.8363200629        4.1450683947        7.0259688406
  C         3.7329609286       -3.4201341586        6.0669219811
  C         3.7479260769        6.7861835524        0.0107176326
  O         1.7022274391        1.4797570041        6.8916930964
  O        -0.2956058093       -1.8453649844        7.9702003886
  O        -2.4450753934       -0.4775968968       10.8638822907
  O        -2.7394446787        9.1254585145        5.5960394847
  O        -0.4635184957        7.9085546293        2.4349206942
  O         1.7816554075        5.8004065213        4.9798104077
  O        -0.5600932790        0.7154754541        8.1698935384
  O         4.0651607982       -0.6584672953        8.3251908529
  O         1.7977230319       -0.3249150540        9.5524181372
  O         1.3983658488        8.2526733895        5.2419405684
  O         3.6579998724        8.1272568698        3.3340567661
  O        -0.8834704317        6.5762193687        4.4595976838
  O        -2.1911161394        2.1870764121        8.5152017753
  O         2.4336759370       -1.1370845910        6.8090187815
  O         0.2512727791       -1.4606292717       10.7127401033
  O         0.0100251682        9.8571629139        4.5320313629
  O         2.2316270812        6.7264613101        2.3536611007
  O        -2.2721718103        6.3776234902        6.1960908104
  O         2.4527686637        1.9995201632       10.4631230319
  C         2.0606952580        3.1288033922       10.1448235318
  O         1.1982468132        3.7685900640       10.9231812819
  H         2.4127070441        3.6492997116        9.2223829188
  H         1.1123283346        4.7233108613       10.6770000662
      59
 i =      131, E =     -1483.3163877845
 Ni         3.2907665480        0.8688531746        9.1904223973
 Ni         0.8799280641       -0.1206027199        7.4334743147
 Ni        -1.2288647386       -1.1884148009        9.5436314700
 Ni        -1.4929930899        8.7853269144        3.9011168748
 Ni         0.7442761531        6.7161163988        3.5709761440
 Ni         3.0349543027        7.4225800124        5.5511240161
  H         2.7502983753        3.5029923235        5.7266151830
  H        -1.6311131584       11.0856569741        6.9103858568
  H        -1.5239585552       -0.0572472331       13.2960311447
  H        -1.8655212662        4.3156723120        7.3510091759
  H         2.6787521907       -3.2481983363        5.8312263158
  H         2.6856095183        6.5742195805       -0.0332806129
  C         1.0716319736        2.6482470618        6.7961755795
  C        -1.0191502571       -2.6802880524        7.1647229953
  C         3.6470868298       -0.5554349599       11.9688612799
  C         3.4214823081       10.2711960194        5.9450275909
  C        -1.0892441243        7.4581126715        1.3067141969
  C         1.1129860076        4.9008744833        5.7543456560
  C         1.7419437440        3.6946869453        6.0941439488
  C        -2.6767255351       11.2706532734        6.6643856963
  C        -2.5940570167       -0.2519309576       13.2419988632
  C        -0.2443088798        2.9223288399        7.3259708688
  C         4.3879478050       -2.4797481400        6.8470168338
  C         2.2056401866       -0.7886777367       11.9111075267
  C         2.0371797546       10.5134328630        5.6383947199
  C         4.3018639885        7.1463247222        1.2421188923
  C        -0.2479222259        5.1065194631        6.2024247546
  C        -1.0298716555        1.9100016074        8.0365683894
  C         3.5538754571       -1.3687110409        7.3439547448
  C         1.4009883865       -0.8752792042       10.6664335040
  C         1.1157669938        9.4974939716        5.0867291961
  C         3.3670636519        7.3384169358        2.3635401798
  C        -1.1634103746        6.0941790333        5.6188671762
  C        -0.8416763764        4.1466856638        7.0185081842
  C         3.7260445410       -3.4251110605        6.0660782281
  C         3.7552451668        6.7824687089        0.0080780507
  O         1.6923093565        1.4844061288        6.8957064956
  O        -0.2924112050       -1.8334662246        7.9571159955
  O        -2.4428842037       -0.4619710642       10.8706643984
  O        -2.7371688688        9.1246299442        5.5947357503
  O        -0.4580217225        7.9064601700        2.4341751970
  O         1.7735145310        5.7988633528        4.9703790921
  O        -0.5667991889        0.7189733613        8.1658989066
  O         4.0608388584       -0.6674462005        8.3271089113
  O         1.7988371566       -0.3150917999        9.5667503212
  O         1.4004961056        8.2519775869        5.2361720541
  O         3.6588268453        8.1294616953        3.3357080781
  O        -0.8859472764        6.5848351758        4.4631148689
  O        -2.1900017953        2.1928871332        8.5294641359
  O         2.4265151784       -1.1358592789        6.8097560991
  O         0.2504714996       -1.4563414779       10.7212804937
  O         0.0074713546        9.8521702089        4.5333650148
  O         2.2312936724        6.7330654862        2.3465824539
  O        -2.2772979969        6.3786067268        6.1999349647
  O         2.4690721765        2.0078897032       10.4568633405
  C         2.0745213737        3.1358967263       10.1419572022
  O         1.2177947216        3.7707545620       10.9283312882
  H         2.3934473206        3.6511497342        9.2181092330
  H         1.1090469671        4.7189015644       10.6762857252
      59
 i =      132, E =     -1483.3170468580
 Ni         3.3104379292        0.8737921824        9.2002550851
 Ni         0.8848839177       -0.1222533452        7.4393544823
 Ni        -1.2269699688       -1.1903931946        9.5387814737
 Ni        -1.4938449591        8.7829549945        3.9020610768
 Ni         0.7398118563        6.7160858357        3.5705501654
 Ni         3.0364974750        7.4212447148        5.5486506360
  H         2.7436052583        3.5013130554        5.7255597351
  H        -1.6323715932       11.0895619899        6.9119592480
  H        -1.5226775336       -0.0505456516       13.2946692064
  H        -1.8731789111        4.3218564139        7.3435303672
  H         2.6729082421       -3.2531826163        5.8266890543
  H         2.6893902938        6.5759870823       -0.0384809978
  C         1.0656491241        2.6431269910        6.7924883964
  C        -1.0215255392       -2.6780972202        7.1536123014
  C         3.6466161966       -0.5520963592       11.9728229862
  C         3.4211705803       10.2728140595        5.9394613952
  C        -1.0864177496        7.4540918546        1.3068686167
  C         1.1076645716        4.8976713956        5.7497624157
  C         1.7363491989        3.6929106834        6.0972509540
  C        -2.6792538511       11.2678991955        6.6681651570
  C        -2.5916676863       -0.2472618428       13.2420565126
  C        -0.2477229206        2.9253876776        7.3263491271
  C         4.3821934021       -2.4809812917        6.8431289651
  C         2.2083740700       -0.7967958772       11.9167197607
  C         2.0322320827       10.5070311858        5.6426134555
  C         4.3001512779        7.1604519521        1.2437112958
  C        -0.2533545593        5.1037785456        6.1985186918
  C        -1.0318140024        1.9116447580        8.0360277994
  C         3.5553684335       -1.3623921662        7.3375846747
  C         1.4023490286       -0.8683355630       10.6729887537
  C         1.1155144929        9.4948597035        5.0805424587
  C         3.3665486310        7.3337283885        2.3649517467
  C        -1.1653475602        6.0964134067        5.6203772872
  C        -0.8496729426        4.1454944386        7.0147598155
  C         3.7200586147       -3.4281318716        6.0639503942
  C         3.7575908272        6.7828408703        0.0107445256
  O         1.6919484147        1.4841532792        6.8896558529
  O        -0.2917737868       -1.8325973980        7.9486132778
  O        -2.4426772068       -0.4618876049       10.8726702099
  O        -2.7370816352        9.1241082187        5.5967806148
  O        -0.4582528655        7.9122844364        2.4329545658
  O         1.7699428231        5.8002014941        4.9717438422
  O        -0.5690535895        0.7214904570        8.1657813400
  O         4.0611494996       -0.6677117128        8.3248676243
  O         1.7964664650       -0.3011463097        9.5784672691
  O         1.4003322816        8.2479992781        5.2334707036
  O         3.6571234237        8.1315320037        3.3354668942
  O        -0.8913791678        6.5879314635        4.4635152114
  O        -2.1880448828        2.2031145149        8.5313306383
  O         2.4220763254       -1.1392034361        6.8121675741
  O         0.2524812253       -1.4523962207       10.7305500863
  O         0.0026720043        9.8492834844        4.5397697624
  O         2.2296151143        6.7344790421        2.3399200760
  O        -2.2772204345        6.3795027531        6.2048869706
  O         2.4828359710        2.0210256510       10.4534673114
  C         2.0830696924        3.1481660835       10.1404600349
  O         1.2194604357        3.7780074804       10.9314746667
  H         2.3793832635        3.6604062642        9.2179555249
  H         1.1028526363        4.7179960899       10.6775940662
      59
 i =      133, E =     -1483.3175987157
 Ni         3.3053635927        0.8805101248        9.2061997546
 Ni         0.8863834673       -0.1209626602        7.4379637752
 Ni        -1.2244579982       -1.1948965732        9.5374763445
 Ni        -1.4968848982        8.7865494406        3.8969848780
 Ni         0.7336612912        6.7141165216        3.5655787349
 Ni         3.0374307785        7.4202850219        5.5483105364
  H         2.7365060025        3.4998139561        5.7171992606
  H        -1.6283617104       11.0924450859        6.9118520278
  H        -1.5196283777       -0.0567449773       13.2938231208
  H        -1.8780236652        4.3224305097        7.3392776113
  H         2.6699848425       -3.2528231097        5.8297680846
  H         2.6913143201        6.5765908174       -0.0368382456
  C         1.0628827900        2.6406533497        6.7900569520
  C        -1.0198090435       -2.6812307398        7.1539973059
  C         3.6489820553       -0.5606297082       11.9731145447
  C         3.4215771125       10.2742417304        5.9417492240
  C        -1.0829534758        7.4592461852        1.3062321152
  C         1.1012111108        4.8970582022        5.7467563770
  C         1.7286311974        3.6879933617        6.0866238116
  C        -2.6745232020       11.2693375629        6.6664864678
  C        -2.5858340143       -0.2609192684       13.2389213549
  C        -0.2504474820        2.9238878820        7.3177059173
  C         4.3859028983       -2.4737564945        6.8390174917
  C         2.2112537554       -0.8087885138       11.9219691609
  C         2.0314561840       10.5086034227        5.6436305037
  C         4.3076275157        7.1562799968        1.2443015979
  C        -0.2598555572        5.1008730999        6.1945060150
  C        -1.0338794838        1.9116438270        8.0319198425
  C         3.5568703658       -1.3586812644        7.3408963024
  C         1.4060410847       -0.8680650846       10.6769952238
  C         1.1125598381        9.4923868681        5.0872213813
  C         3.3661661077        7.3419393346        2.3619901896
  C        -1.1666715298        6.0968023766        5.6179618396
  C        -0.8543282941        4.1450704432        7.0136365390
  C         3.7179057526       -3.4269479195        6.0689419032
  C         3.7571273928        6.7864748458        0.0155859778
  O         1.6900186537        1.4792251301        6.8697135503
  O        -0.2889977307       -1.8369857273        7.9477722925
  O        -2.4414074655       -0.4754251316       10.8687225635
  O        -2.7377738554        9.1239708624        5.5998855251
  O        -0.4576674517        7.9135240295        2.4345696151
  O         1.7666762011        5.8012781873        4.9717873080
  O        -0.5699194731        0.7214080346        8.1692282481
  O         4.0650884170       -0.6544278244        8.3199630451
  O         1.7920886525       -0.2980115638        9.5810371935
  O         1.3972514335        8.2459621397        5.2388917048
  O         3.6534064972        8.1391345597        3.3336848111
  O        -0.9021469625        6.5838959714        4.4550922307
  O        -2.1900402835        2.2029960765        8.5273506858
  O         2.4245406319       -1.1351368758        6.8128322438
  O         0.2584268820       -1.4539503156       10.7341541706
  O        -0.0002285884        9.8463634730        4.5487091013
  O         2.2313417920        6.7383532193        2.3413148097
  O        -2.2752889706        6.3854247646        6.2053992984
  O         2.4745647691        2.0349705151       10.4603928895
  C         2.0791871696        3.1654855822       10.1435001216
  O         1.2179360048        3.7880649621       10.9419384882
  H         2.3770288060        3.6713761095        9.2184995922
  H         1.0794017270        4.7260059953       10.6791495707
      59
 i =      134, E =     -1483.3182266765
 Ni         3.3083783608        0.8826566383        9.2136884294
 Ni         0.8841742158       -0.1196232045        7.4359573634
 Ni        -1.2271558689       -1.1960419516        9.5351766285
 Ni        -1.4976727052        8.7869746425        3.8957809911
 Ni         0.7250322011        6.7067061140        3.5637676252
 Ni         3.0364537561        7.4191170409        5.5510812550
  H         2.7336364513        3.4999236381        5.7156876434
  H        -1.6302564882       11.0938659865        6.9106230334
  H        -1.5202892173       -0.0521843167       13.2917945646
  H        -1.8790783160        4.3163614065        7.3360141903
  H         2.6653303387       -3.2561239546        5.8311076577
  H         2.6918867189        6.5804286236       -0.0302436085
  C         1.0611522374        2.6404986695        6.7874840164
  C        -1.0190641494       -2.6804804017        7.1502580311
  C         3.6506190865       -0.5613586777       11.9720600404
  C         3.4199750248       10.2738007723        5.9432920932
  C        -1.0827117193        7.4595796045        1.3061678963
  C         1.0952145847        4.8960507304        5.7470542159
  C         1.7256499855        3.6876582689        6.0824756319
  C        -2.6753494937       11.2714620152        6.6619675133
  C        -2.5868502459       -0.2576780361       13.2371965043
  C        -0.2515929829        2.9202136868        7.3136620704
  C         4.3852406300       -2.4712254351        6.8393967272
  C         2.2113807358       -0.8038049372       11.9214113802
  C         2.0294792271       10.5097564931        5.6449482912
  C         4.3085483708        7.1552776420        1.2441360274
  C        -0.2651029679        5.1006220409        6.1941525317
  C        -1.0347619009        1.9115757062        8.0318627299
  C         3.5543819563       -1.3565845313        7.3417697328
  C         1.4051213230       -0.8602323137       10.6768221191
  C         1.1119969393        9.4898971967        5.0899872911
  C         3.3668336326        7.3389996808        2.3630870958
  C        -1.1723168249        6.0957207945        5.6192536556
  C        -0.8550607665        4.1415967476        7.0104433843
  C         3.7171664618       -3.4223241712        6.0647902306
  C         3.7587303195        6.7871894116        0.0155876332
  O         1.6844598516        1.4807656178        6.8831070357
  O        -0.2911909400       -1.8412718041        7.9474905608
  O        -2.4435386164       -0.4762840036       10.8633096066
  O        -2.7407315680        9.1226111488        5.6028463457
  O        -0.4600766022        7.9108240221        2.4362951404
  O         1.7647701700        5.7999309796        4.9753209172
  O        -0.5695148944        0.7208308791        8.1741570426
  O         4.0618865943       -0.6472309096        8.3172720369
  O         1.7943315488       -0.3022105270        9.5768668598
  O         1.3986437232        8.2443490414        5.2313209952
  O         3.6555588200        8.1293684902        3.3388432874
  O        -0.9139944594        6.5823274787        4.4541932752
  O        -2.1926303456        2.1966806621        8.5267404187
  O         2.4218736451       -1.1352882491        6.8126006073
  O         0.2592424640       -1.4449019714       10.7324801064
  O        -0.0033321815        9.8421936190        4.5605748093
  O         2.2320965121        6.7341473895        2.3463604016
  O        -2.2767904631        6.3906004250        6.2109709699
  O         2.4748690200        2.0457001888       10.4555478536
  C         2.0762948926        3.1753101272       10.1394519994
  O         1.2151259469        3.7964716627       10.9404530872
  H         2.3903997621        3.6834276127        9.2180113252
  H         1.0687033918        4.7281247041       10.6718412493
      59
 i =      135, E =     -1483.3186980008
 Ni         3.3066739887        0.8888582723        9.2172326908
 Ni         0.8832897300       -0.1136853322        7.4352293022
 Ni        -1.2272962701       -1.1957599996        9.5371425920
 Ni        -1.4956909974        8.7865335051        3.9017430939
 Ni         0.7122034142        6.7100391036        3.5585620283
 Ni         3.0359288719        7.4180626922        5.5568958250
  H         2.7233675213        3.4980782072        5.7039176952
  H        -1.6333629159       11.0964271587        6.9064004001
  H        -1.5159036016       -0.0578306002       13.2898688680
  H        -1.8844802055        4.3062860578        7.3319068784
  H         2.6620500527       -3.2557855409        5.8381320786
  H         2.6951015209        6.5849910378       -0.0200142506
  C         1.0517885211        2.6368156365        6.7788946234
  C        -1.0181693992       -2.6747552079        7.1497669235
  C         3.6536408335       -0.5644641275       11.9717949273
  C         3.4188428206       10.2758614480        5.9459384604
  C        -1.0815367602        7.4534570822        1.3057388187
  C         1.0886282991        4.8945832266        5.7426468953
  C         1.7162345341        3.6848840365        6.0733628395
  C        -2.6788100241       11.2767581120        6.6591146816
  C        -2.5851600725       -0.2595045838       13.2365970235
  C        -0.2592595418        2.9171308604        7.3087918826
  C         4.3837265391       -2.4694988012        6.8435374827
  C         2.2123662595       -0.7983331781       11.9183259549
  C         2.0282709762       10.5114274300        5.6505613442
  C         4.3083375780        7.1536216782        1.2456132384
  C        -0.2712651840        5.1002120356        6.1889257783
  C        -1.0392290591        1.9090381204        8.0302924535
  C         3.5539743589       -1.3477465753        7.3374585900
  C         1.4050090259       -0.8614392300       10.6744088071
  C         1.1083922485        9.4887204751        5.1030914065
  C         3.3666334372        7.3365914190        2.3664407430
  C        -1.1851544458        6.0913563356        5.6188625696
  C        -0.8608329293        4.1376691629        6.9999364138
  C         3.7172443333       -3.4181416482        6.0637271915
  C         3.7643695749        6.7851568572        0.0147043705
  O         1.6836582055        1.4831608433        6.8834917214
  O        -0.2900970737       -1.8418308184        7.9477511421
  O        -2.4446336977       -0.4778532127       10.8576156098
  O        -2.7453816882        9.1218470205        5.6121094132
  O        -0.4624090706        7.9103605175        2.4358897068
  O         1.7573561410        5.7991224146        4.9712539300
  O        -0.5683379467        0.7194330028        8.1824232350
  O         4.0574375833       -0.6447360064        8.3198613924
  O         1.8012854013       -0.3012494134        9.5751158839
  O         1.4017685058        8.2457156485        5.2354329966
  O         3.6544972888        8.1339057718        3.3405732694
  O        -0.9389465160        6.5692666039        4.4464158866
  O        -2.1973451710        2.1934241033        8.5231315100
  O         2.4172813104       -1.1363988362        6.8124487717
  O         0.2611253062       -1.4429104191       10.7350297142
  O        -0.0120905157        9.8368972018        4.5879819341
  O         2.2309443002        6.7324702055        2.3513836107
  O        -2.2828566060        6.3913635397        6.2191169943
  O         2.4692903275        2.0664181931       10.4492420387
  C         2.0735890712        3.1961037751       10.1338238438
  O         1.2145783990        3.8083459129       10.9437221949
  H         2.4082058602        3.7025905013        9.2143055715
  H         1.0392839098        4.7344261483       10.6606590830
      59
 i =      136, E =     -1483.3191813093
 Ni         3.3092446601        0.8907776117        9.2135703974
 Ni         0.8847825606       -0.1145713923        7.4391894878
 Ni        -1.2264101503       -1.1899397115        9.5373988476
 Ni        -1.4959432750        8.7799065740        3.9074184142
 Ni         0.7163631880        6.7081405303        3.5639920080
 Ni         3.0358689555        7.4205280087        5.5608466148
  H         2.7208508909        3.4992883054        5.7057539341
  H        -1.6351706491       11.0972290130        6.9025299371
  H        -1.5194551200       -0.0494530583       13.2851495502
  H        -1.8895215484        4.2999734412        7.3321111166
  H         2.6631968980       -3.2544015689        5.8379028354
  H         2.6906488212        6.5879308529       -0.0198809755
  C         1.0513859182        2.6373495014        6.7813934023
  C        -1.0213951845       -2.6742669102        7.1509388578
  C         3.6495705386       -0.5572056442       11.9704727639
  C         3.4154800119       10.2755750984        5.9472068883
  C        -1.0830403546        7.4540786416        1.3072775809
  C         1.0858800199        4.8917117199        5.7387378559
  C         1.7144321265        3.6877863755        6.0785442797
  C        -2.6815366558       11.2775331428        6.6574540081
  C        -2.5890365760       -0.2522241295       13.2360382952
  C        -0.2614979694        2.9147974723        7.3094373182
  C         4.3831217749       -2.4672717107        6.8372453038
  C         2.2091084249       -0.7916108648       11.9175557120
  C         2.0265592951       10.5110287070        5.6500870868
  C         4.3067207879        7.1520688376        1.2460125751
  C        -0.2729222618        5.0994000779        6.1917889904
  C        -1.0399636090        1.9078515600        8.0324956637
  C         3.5498195844       -1.3527047726        7.3385271220
  C         1.4025563704       -0.8615529303       10.6732825810
  C         1.1056908149        9.4892829458        5.1048717333
  C         3.3651363061        7.3297474513        2.3680531808
  C        -1.1894890473        6.0886032928        5.6188772691
  C        -0.8655376922        4.1342170193        6.9987370287
  C         3.7151134405       -3.4222623946        6.0682505749
  C         3.7595287821        6.7909946974        0.0142520792
  O         1.6869256381        1.4836069919        6.8839742355
  O        -0.2928960396       -1.8400885743        7.9457387938
  O        -2.4474291248       -0.4701569279       10.8571723369
  O        -2.7449778876        9.1230774597        5.6195731519
  O        -0.4580095855        7.9077382209        2.4358942749
  O         1.7606253776        5.7981800470        4.9753777959
  O        -0.5659173085        0.7197939596        8.1826537403
  O         4.0594148660       -0.6506865744        8.3191833882
  O         1.8010330697       -0.2978628191        9.5750837372
  O         1.4043059907        8.2462007726        5.2352961606
  O         3.6566915293        8.1231311238        3.3435599550
  O        -0.9339841385        6.5728753568        4.4565734555
  O        -2.1985870649        2.1944856294        8.5212548314
  O         2.4163647184       -1.1330490013        6.8090260351
  O         0.2588405250       -1.4430865671       10.7345119564
  O        -0.0172534285        9.8322925509        4.5885387922
  O         2.2295407268        6.7264311110        2.3484524130
  O        -2.2865376192        6.3854454215        6.2198855202
  O         2.4715553439        2.0737846170       10.4348920171
  C         2.0713258828        3.2006154677       10.1238996104
  O         1.2096077864        3.8126467314       10.9344789229
  H         2.4112650506        3.7118198876        9.2105115083
  H         1.0428469895        4.7324954281       10.6521215705
      59
 i =      137, E =     -1483.3195588617
 Ni         3.3133359005        0.8851703194        9.2143103592
 Ni         0.8771402700       -0.1176022907        7.4374403944
 Ni        -1.2266048534       -1.1863037442        9.5392998694
 Ni        -1.4981135814        8.7830441786        3.9053173952
 Ni         0.7210582098        6.7119148258        3.5639498490
 Ni         3.0325093075        7.4213951074        5.5636181227
  H         2.7153809771        3.4968654384        5.6980616654
  H        -1.6369601048       11.0998396552        6.9017022914
  H        -1.5189255096       -0.0514060938       13.2894261128
  H        -1.8982091665        4.2965934479        7.3265656860
  H         2.6627729295       -3.2521387975        5.8398014928
  H         2.6891849968        6.5836201640       -0.0228464540
  C         1.0498916818        2.6368831226        6.7796113573
  C        -1.0245605699       -2.6698710598        7.1487980969
  C         3.6474879908       -0.5527675384       11.9719232049
  C         3.4108095593       10.2759190266        5.9505950921
  C        -1.0805788381        7.4517084509        1.3095797323
  C         1.0828694296        4.8926244078        5.7363846466
  C         1.7096808008        3.6866559915        6.0731410160
  C        -2.6849509387       11.2773163374        6.6611551403
  C        -2.5883959765       -0.2510061921       13.2386183916
  C        -0.2647247140        2.9132702939        7.3083792763
  C         4.3794923991       -2.4690357545        6.8362332809
  C         2.2077602025       -0.7854730324       11.9199010556
  C         2.0220761177       10.5086259610        5.6548397604
  C         4.3082314879        7.1520611087        1.2488458895
  C        -0.2792399058        5.0938453421        6.1854901537
  C        -1.0450069974        1.9073398304        8.0290683462
  C         3.5492093781       -1.3546749870        7.3378453235
  C         1.4022350577       -0.8591598096       10.6738161529
  C         1.1009996819        9.4886020050        5.1115197378
  C         3.3650948442        7.3313612083        2.3690785286
  C        -1.1862076756        6.0952741557        5.6167175866
  C        -0.8728049508        4.1317140928        6.9976323917
  C         3.7121693131       -3.4248492198        6.0711318082
  C         3.7572117816        6.7922073749        0.0175117178
  O         1.6877975728        1.4823168596        6.8869471643
  O        -0.2972995034       -1.8340821452        7.9435887143
  O        -2.4403693724       -0.4568186896       10.8673502291
  O        -2.7461364507        9.1239270236        5.6294423309
  O        -0.4518670249        7.9066681456        2.4362097420
  O         1.7557058801        5.7971707043        4.9712942352
  O        -0.5718447945        0.7199682411        8.1756578431
  O         4.0592579915       -0.6588886971        8.3222902597
  O         1.7970622412       -0.2935696550        9.5748686553
  O         1.4014383132        8.2442247486        5.2418862934
  O         3.6562990814        8.1283102681        3.3405943964
  O        -0.9268444307        6.5831533601        4.4576400436
  O        -2.2017149610        2.1967889418        8.5234269527
  O         2.4152712969       -1.1331317447        6.8125051127
  O         0.2585382011       -1.4438552204       10.7296538030
  O        -0.0208944147        9.8319797032        4.5849441778
  O         2.2290867050        6.7308288538        2.3441082778
  O        -2.2876789509        6.3829807305        6.2108731298
  O         2.4753092557        2.0803930723       10.4212733968
  C         2.0775114427        3.2057401709       10.1136891926
  O         1.2140119921        3.8133475485       10.9270669517
  H         2.4137561991        3.7160467812        9.1977912096
  H         1.0246030828        4.7292974133       10.6338285301
      59
 i =      138, E =     -1483.3199250151
 Ni         3.3049366436        0.8906427710        9.2114057426
 Ni         0.8867287038       -0.1188255823        7.4415832229
 Ni        -1.2287278804       -1.1843198097        9.5405944863
 Ni        -1.4976804456        8.7843102545        3.9044043949
 Ni         0.7196813856        6.7068077168        3.5652634993
 Ni         3.0271177038        7.4183873774        5.5684392987
  H         2.7125750251        3.4964612481        5.6939469074
  H        -1.6361266067       11.1022650924        6.8965058001
  H        -1.5209737778       -0.0456817445       13.2840051937
  H        -1.9049792523        4.2912927439        7.3219739455
  H         2.6611913295       -3.2497549027        5.8441260442
  H         2.6862014463        6.5907176768       -0.0265145844
  C         1.0463676410        2.6358675739        6.7760327912
  C        -1.0243795432       -2.6686813767        7.1502506952
  C         3.6433615177       -0.5510058571       11.9716976698
  C         3.4061449077       10.2745908217        5.9569471446
  C        -1.0811202528        7.4508648254        1.3080071990
  C         1.0803066216        4.8921370057        5.7390804474
  C         1.7065688085        3.6829236762        6.0685997637
  C        -2.6845106476       11.2791706090        6.6593521257
  C        -2.5883020707       -0.2507996125       13.2362735438
  C        -0.2691626819        2.9095939911        7.3044745687
  C         4.3799587865       -2.4682555484        6.8380491050
  C         2.2052574988       -0.7863314472       11.9209131097
  C         2.0167206132       10.5073181032        5.6626572085
  C         4.3071429267        7.1543818117        1.2490966744
  C        -0.2845143995        5.0905813036        6.1828750008
  C        -1.0455567880        1.9019772151        8.0281910622
  C         3.5539050798       -1.3524151285        7.3396351119
  C         1.3986444489       -0.8588334434       10.6766776524
  C         1.1013099800        9.4868487843        5.1148496462
  C         3.3658283248        7.3323121469        2.3713418442
  C        -1.1896208409        6.0950664475        5.6140440340
  C        -0.8788319034        4.1279845926        6.9949982865
  C         3.7107255662       -3.4217513687        6.0727959384
  C         3.7555111024        6.7924163504        0.0176278947
  O         1.6852875946        1.4818699948        6.8772769688
  O        -0.2967012866       -1.8317011090        7.9438379531
  O        -2.4481686131       -0.4597802687       10.8653311456
  O        -2.7519756113        9.1224770088        5.6320771776
  O        -0.4529223736        7.9050026764        2.4355366317
  O         1.7518951070        5.7955049080        4.9724721885
  O        -0.5687686239        0.7172010647        8.1789068366
  O         4.0618717651       -0.6521327366        8.3206135662
  O         1.7940324218       -0.2938530459        9.5780240684
  O         1.3977366710        8.2398879870        5.2431431441
  O         3.6548103203        8.1310174488        3.3424117847
  O        -0.9313723125        6.5827496536        4.4536570924
  O        -2.2049559982        2.1918602445        8.5171825146
  O         2.4202806680       -1.1334846466        6.8136669834
  O         0.2574164385       -1.4515165835       10.7286119723
  O        -0.0208768622        9.8305098532        4.5865999766
  O         2.2303512749        6.7323805007        2.3446971099
  O        -2.2889555768        6.3853153067        6.2130993854
  O         2.4666967911        2.0976138133       10.4090038530
  C         2.0690123276        3.2238578533       10.1018006753
  O         1.2064796134        3.8272866233       10.9206372786
  H         2.3985985324        3.7326906213        9.1872149552
  H         1.0140773975        4.7350730842       10.6206104326
      59
 i =      139, E =     -1483.3202244786
 Ni         3.2997631292        0.8864224831        9.2122249350
 Ni         0.8848816821       -0.1181109136        7.4416624060
 Ni        -1.2300846737       -1.1842566881        9.5417391658
 Ni        -1.4945643090        8.7866811595        3.9076136490
 Ni         0.7178118859        6.7102274252        3.5612395617
 Ni         3.0256486320        7.4192043995        5.5739883710
  H         2.7077815659        3.4943893537        5.6866934268
  H        -1.6351503697       11.1036932514        6.8943738223
  H        -1.5223391554       -0.0478068619       13.2843492225
  H        -1.9088974634        4.2870231067        7.3156826272
  H         2.6587908960       -3.2474732665        5.8484195174
  H         2.6862656439        6.5915876437       -0.0251326329
  C         1.0431879646        2.6325313406        6.7734590750
  C        -1.0243858005       -2.6692687164        7.1531593649
  C         3.6411036437       -0.5468659722       11.9722634514
  C         3.4044835245       10.2747301136        5.9621615828
  C        -1.0829735649        7.4519819280        1.3079165920
  C         1.0762891691        4.8862630965        5.7313997962
  C         1.7032482102        3.6798345494        6.0660891631
  C        -2.6838974169       11.2802278683        6.6609142636
  C        -2.5890559581       -0.2542650162       13.2371029531
  C        -0.2730995096        2.9083777059        7.2983245873
  C         4.3803924655       -2.4658952926        6.8412453238
  C         2.2049161987       -0.7876561397       11.9195775848
  C         2.0134609344       10.5064914959        5.6704584026
  C         4.3070275339        7.1517696953        1.2492344819
  C        -0.2851142863        5.0918115701        6.1829739816
  C        -1.0483492828        1.9024115681        8.0265551069
  C         3.5519843278       -1.3525157278        7.3422181076
  C         1.3971607257       -0.8578336067       10.6764711890
  C         1.1010065261        9.4874889053        5.1177369291
  C         3.3664321689        7.3369237719        2.3716604784
  C        -1.1949826839        6.0896803792        5.6096115331
  C        -0.8826155171        4.1256134327        6.9872202136
  C         3.7087562580       -3.4199032739        6.0774058909
  C         3.7549467504        6.7941551014        0.0174815716
  O         1.6847421239        1.4809271745        6.8796134524
  O        -0.2968499713       -1.8317457869        7.9463666311
  O        -2.4471494795       -0.4632429094       10.8666798924
  O        -2.7554297835        9.1231502417        5.6324879995
  O        -0.4579246477        7.9098110316        2.4356592555
  O         1.7489713126        5.7970319802        4.9718007960
  O        -0.5717744607        0.7180633091        8.1809537170
  O         4.0592919017       -0.6504508839        8.3225221869
  O         1.7926252949       -0.2956780453        9.5772732032
  O         1.3973132031        8.2411201486        5.2417728513
  O         3.6556853129        8.1359094313        3.3410603674
  O        -0.9310411618        6.5798917069        4.4516632853
  O        -2.2107519046        2.1882577568        8.5141314816
  O         2.4198522025       -1.1328743878        6.8128407947
  O         0.2551774136       -1.4488286633       10.7303492195
  O        -0.0199379818        9.8351822436        4.5912851249
  O         2.2326004394        6.7323032674        2.3497128521
  O        -2.2898484809        6.3899237802        6.2167621026
  O         2.4614073511        2.1054037958       10.4008717623
  C         2.0670611805        3.2327541040       10.0929478331
  O         1.2078634639        3.8330491549       10.9152416505
  H         2.3929634689        3.7391490693        9.1738196672
  H         0.9948866287        4.7366255383       10.6012775451
      59
 i =      140, E =     -1483.3206509239
 Ni         3.2915988933        0.8826785148        9.2081116342
 Ni         0.8821964242       -0.1177224986        7.4422577313
 Ni        -1.2319539598       -1.1818207245        9.5440878144
 Ni        -1.4950567716        8.7901376667        3.9065604353
 Ni         0.7184021135        6.7123263474        3.5638150710
 Ni         3.0252801470        7.4220790559        5.5840770991
  H         2.7034178458        3.4919478454        5.6828009713
  H        -1.6338534777       11.1051716800        6.8896000569
  H        -1.5279597082       -0.0448384755       13.2815310432
  H        -1.9136030111        4.2794555834        7.3066371890
  H         2.6556588317       -3.2438138389        5.8539614397
  H         2.6829782244        6.5960726441       -0.0231576283
  C         1.0412693326        2.6303028774        6.7734431972
  C        -1.0238437870       -2.6693347090        7.1561937134
  C         3.6390553043       -0.5469550285       11.9707063931
  C         3.4046649217       10.2748349728        5.9665285134
  C        -1.0875956490        7.4570994997        1.3094365401
  C         1.0727635532        4.8843029936        5.7304114789
  C         1.6990113492        3.6761223594        6.0619488572
  C        -2.6845304082       11.2802148095        6.6649882982
  C        -2.5958748807       -0.2497586218       13.2380069035
  C        -0.2776754134        2.9031307343        7.2915933158
  C         4.3798461196       -2.4656655857        6.8478919073
  C         2.2006905952       -0.7832897699       11.9174688625
  C         2.0111891111       10.5057003216        5.6791358587
  C         4.3039870109        7.1517974589        1.2487996247
  C        -0.2897799725        5.0860503376        6.1771850475
  C        -1.0552352873        1.9010754740        8.0227132907
  C         3.5501489959       -1.3514862955        7.3425448429
  C         1.3938515594       -0.8573968090       10.6749625604
  C         1.0997493905        9.4897727301        5.1206099624
  C         3.3663645320        7.3357374887        2.3724632822
  C        -1.1941527100        6.0917970558        5.6155438626
  C        -0.8857151698        4.1206533355        6.9817330657
  C         3.7052992738       -3.4203729560        6.0856302634
  C         3.7519018876        6.7968696763        0.0164017475
  O         1.6834573182        1.4798207751        6.8830209605
  O        -0.2977463099       -1.8343662195        7.9530336281
  O        -2.4496885243       -0.4634923403       10.8665777498
  O        -2.7555916583        9.1245052000        5.6341691771
  O        -0.4603083407        7.9118346698        2.4363239649
  O         1.7498388791        5.7950846185        4.9734041755
  O        -0.5723694691        0.7201298466        8.1871886140
  O         4.0563414732       -0.6513942686        8.3254553545
  O         1.7908381034       -0.2997042222        9.5744596808
  O         1.3993764041        8.2453038707        5.2381639330
  O         3.6562211205        8.1332005523        3.3413224466
  O        -0.9350951751        6.5764135907        4.4485328600
  O        -2.2193137073        2.1866074181        8.5102314424
  O         2.4178902612       -1.1324710642        6.8114612141
  O         0.2492785926       -1.4426700743       10.7355011372
  O        -0.0181885366        9.8382462054        4.5897734522
  O         2.2320043481        6.7299269801        2.3559126791
  O        -2.2924069627        6.3868509202        6.2175303492
  O         2.4523374271        2.1176914856       10.3830889574
  C         2.0583513219        3.2452918232       10.0753515401
  O         1.2043832421        3.8437008369       10.9016026956
  H         2.3792332053        3.7518629457        9.1534237844
  H         0.9770779628        4.7389481411       10.5716641142
      59
 i =      141, E =     -1483.3203858475
 Ni         3.2764410046        0.8745197153        9.1959527776
 Ni         0.8731836904       -0.1178170493        7.4425959385
 Ni        -1.2396257794       -1.1762355355        9.5522822069
 Ni        -1.4989568625        8.7994362751        3.9049558227
 Ni         0.7175788488        6.7161262943        3.5699445522
 Ni         3.0233821226        7.4282870709        5.6119831738
  H         2.6886678095        3.4818419916        5.6711478603
  H        -1.6341852830       11.1113716297        6.8772093657
  H        -1.5427686854       -0.0279895831       13.2774258906
  H        -1.9328579432        4.2572948672        7.2754930470
  H         2.6459931660       -3.2368803377        5.8712165344
  H         2.6720500641        6.6098204393       -0.0207598295
  C         1.0301114986        2.6212115383        6.7660108515
  C        -1.0270908998       -2.6686676714        7.1680576156
  C         3.6295417195       -0.5382241836       11.9680272625
  C         3.3998058118       10.2744797695        5.9826747461
  C        -1.0984530587        7.4698136498        1.3122094596
  C         1.0607864725        4.8780882265        5.7268514279
  C         1.6853209860        3.6662847644        6.0511913324
  C        -2.6894990389       11.2834467065        6.6737503131
  C        -2.6119674404       -0.2332155319       13.2394024477
  C        -0.2944934961        2.8895732492        7.2776836691
  C         4.3746667526       -2.4683289314        6.8649764284
  C         2.1876146849       -0.7695017869       11.9151131114
  C         2.0025622500       10.5026397442        5.7007664312
  C         4.2949206334        7.1561621184        1.2506533465
  C        -0.3037779760        5.0729423802        6.1649093431
  C        -1.0759264152        1.8931436872        8.0116980209
  C         3.5457970595       -1.3509166663        7.3448497672
  C         1.3813622984       -0.8498629309       10.6740546061
  C         1.0958158475        9.4919911108        5.1286451569
  C         3.3628766320        7.3322247472        2.3761939207
  C        -1.2004008318        6.0875038866        5.6168240791
  C        -0.9013944496        4.1024433851        6.9586448810
  C         3.6946751495       -3.4241675164        6.1071852638
  C         3.7415649276        6.8075690487        0.0167139130
  O         1.6795398676        1.4774362205        6.8909504156
  O        -0.3025319819       -1.8335452609        7.9676954695
  O        -2.4562265621       -0.4557187734       10.8697816845
  O        -2.7590749991        9.1291324436        5.6421474329
  O        -0.4666849221        7.9158753197        2.4388656164
  O         1.7458704791        5.7899057899        4.9769305469
  O        -0.5785454046        0.7207712231        8.1959185090
  O         4.0514627528       -0.6555940107        8.3327350329
  O         1.7871781637       -0.3112493408        9.5681783712
  O         1.3987229070        8.2474739371        5.2366329270
  O         3.6557076426        8.1293673777        3.3415940235
  O        -0.9359673592        6.5844109671        4.4541498709
  O        -2.2417995999        2.1840851690        8.5023392489
  O         2.4124862252       -1.1322916317        6.8129219202
  O         0.2312001108       -1.4269651291       10.7464427324
  O        -0.0158738335        9.8413135820        4.5869783023
  O         2.2266930044        6.7258146822        2.3643140253
  O        -2.2974881623        6.3834602699        6.2211754473
  O         2.4299334931        2.1668224933       10.3153316392
  C         2.0324307616        3.2938769255       10.0092674434
  O         1.1943478315        3.8863475510       10.8491931281
  H         2.3337829550        3.8015829623        9.0796949182
  H         0.9174195795        4.7504801985       10.4670048953
      59
 i =      142, E =     -1483.3213397607
 Ni         3.2882737035        0.8786052841        9.2002171057
 Ni         0.8785289690       -0.1198236977        7.4439922628
 Ni        -1.2369844541       -1.1795284822        9.5485638702
 Ni        -1.4991723494        8.7949067936        3.9056403865
 Ni         0.7185938757        6.7141940210        3.5673188585
 Ni         3.0261962563        7.4317721595        5.5927922163
  H         2.6972017167        3.4843973673        5.6808392431
  H        -1.6350473555       11.1088847662        6.8851991745
  H        -1.5373053163       -0.0291385548       13.2807906961
  H        -1.9251253683        4.2686482720        7.2862168032
  H         2.6510507710       -3.2437135729        5.8641873176
  H         2.6749014424        6.6051250506       -0.0231266125
  C         1.0347529013        2.6246838997        6.7680080868
  C        -1.0274126890       -2.6705232673        7.1663116192
  C         3.6326699870       -0.5404018304       11.9703030964
  C         3.4022931670       10.2755501713        5.9739030298
  C        -1.0937850209        7.4654442642        1.3104656703
  C         1.0673979706        4.8819304219        5.7302814931
  C         1.6930448711        3.6717772423        6.0586784793
  C        -2.6880976396       11.2821890246        6.6706659595
  C        -2.6053408683       -0.2356948581       13.2384628332
  C        -0.2873065839        2.8957338313        7.2838967054
  C         4.3754415605       -2.4700127471        6.8587212350
  C         2.1916123203       -0.7741033708       11.9186921985
  C         2.0076580579       10.5039497422        5.6871638575
  C         4.2973937165        7.1582384586        1.2497361663
  C        -0.2972224750        5.0784251771        6.1700155974
  C        -1.0636567408        1.8954477935        8.0183420196
  C         3.5475395890       -1.3538850772        7.3469547963
  C         1.3870405326       -0.8524248933       10.6759959859
  C         1.0972830845        9.4900405401        5.1220588828
  C         3.3619131592        7.3344936688        2.3731042051
  C        -1.1961451343        6.0902974946        5.6166204241
  C        -0.8949675556        4.1103291681        6.9684729447
  C         3.7004008540       -3.4247853703        6.0972271635
  C         3.7443337133        6.8035772682        0.0175957489
  O         1.6801047407        1.4782495841        6.8875361452
  O        -0.3003759953       -1.8320182284        7.9618872207
  O        -2.4527326190       -0.4589201514       10.8701328185
  O        -2.7538390593        9.1305426572        5.6353037877
  O        -0.4649032794        7.9142786490        2.4386476742
  O         1.7475642682        5.7924945079        4.9758219936
  O        -0.5759843160        0.7182294535        8.1861069904
  O         4.0547861948       -0.6533198672        8.3296740662
  O         1.7896688572       -0.3034341303        9.5740515757
  O         1.3956938771        8.2444733367        5.2381272129
  O         3.6556893083        8.1320736257        3.3393104574
  O        -0.9319447070        6.5841327380        4.4545737738
  O        -2.2261245919        2.1864802442        8.5105207793
  O         2.4161192058       -1.1323067971        6.8138388341
  O         0.2394207753       -1.4360017268       10.7380003877
  O        -0.0155987810        9.8387007605        4.5824124559
  O         2.2264458793        6.7292408500        2.3548555780
  O        -2.2958572637        6.3856023000        6.2150017404
  O         2.4429863817        2.1483910049       10.3404205033
  C         2.0435914215        3.2759175501       10.0324922787
  O         1.1960076454        3.8737332779       10.8644103521
  H         2.3411502527        3.7834339849        9.1037843226
  H         0.9451656649        4.7479671892       10.5038831200
      59
 i =      143, E =     -1483.3214277283
 Ni         3.2964398587        0.8804034613        9.2038464550
 Ni         0.8809781419       -0.1190630691        7.4421867243
 Ni        -1.2339952540       -1.1816537652        9.5473963656
 Ni        -1.5014575072        8.7919492068        3.9069361497
 Ni         0.7175694616        6.7109846850        3.5675595267
 Ni         3.0248050598        7.4275376618        5.5895596476
  H         2.7010423473        3.4856660675        5.6857753671
  H        -1.6354215843       11.1083328042        6.8928577932
  H        -1.5322405488       -0.0309972769       13.2844884462
  H        -1.9218804650        4.2754589607        7.2920346123
  H         2.6540651266       -3.2496001945        5.8613141916
  H         2.6770450395        6.6009592202       -0.0229440255
  C         1.0364688268        2.6273383471        6.7691154745
  C        -1.0270719875       -2.6704016236        7.1649167607
  C         3.6361673507       -0.5436560958       11.9727943662
  C         3.4046834653       10.2787833301        5.9650901246
  C        -1.0901968596        7.4637822706        1.3103300170
  C         1.0695110844        4.8829764029        5.7299345844
  C         1.6960319172        3.6746670265        6.0611170230
  C        -2.6870828214       11.2815673919        6.6698253825
  C        -2.5995563259       -0.2380949819       13.2385743324
  C        -0.2839176355        2.8997987787        7.2872945828
  C         4.3755659854       -2.4719364117        6.8560846832
  C         2.1952897522       -0.7777569058       11.9202151529
  C         2.0110429035       10.5051938686        5.6781138605
  C         4.2998493303        7.1584783116        1.2490955474
  C        -0.2934779866        5.0837482379        6.1747056608
  C        -1.0585301673        1.8976311898        8.0203612570
  C         3.5482209508       -1.3549032600        7.3469170895
  C         1.3904230702       -0.8540596884       10.6769687666
  C         1.0980159078        9.4884240301        5.1176599780
  C         3.3638179737        7.3385241813        2.3736130596
  C        -1.1970918975        6.0880998163        5.6103837520
  C        -0.8926441947        4.1151927639        6.9731534915
  C         3.7039801896       -3.4256490873        6.0915315301
  C         3.7461793580        6.8022153204        0.0179515450
  O         1.6824875816        1.4800305345        6.8836603841
  O        -0.3000413955       -1.8312814619        7.9601832986
  O        -2.4500809925       -0.4599885615       10.8707585633
  O        -2.7561668880        9.1289146266        5.6315298920
  O        -0.4609956932        7.9127855444        2.4392241478
  O         1.7481010061        5.7922876764        4.9750414295
  O        -0.5727355658        0.7183498658        8.1832160455
  O         4.0581087615       -0.6521986650        8.3266478365
  O         1.7912662825       -0.2985802685        9.5765594847
  O         1.3977601626        8.2430984031        5.2401359818
  O         3.6517960449        8.1334606299        3.3448897148
  O        -0.9328043850        6.5848440449        4.4539897873
  O        -2.2187928697        2.1888304512        8.5131123987
  O         2.4170083094       -1.1340893281        6.8146731620
  O         0.2448241296       -1.4410019436       10.7356701210
  O        -0.0197352187        9.8350189075        4.5894047150
  O         2.2288040119        6.7339734804        2.3529310361
  O        -2.2923716303        6.3862968084        6.2161810152
  O         2.4498886870        2.1396075347       10.3537545430
  C         2.0492226909        3.2664565488       10.0452524523
  O         1.2050514626        3.8671131678       10.8762541204
  H         2.3483728558        3.7741726742        9.1175477860
  H         0.9584019800        4.7472300828       10.5242703319
      59
 i =      144, E =     -1483.3215684035
 Ni         3.2936783755        0.8779431563        9.1992697301
 Ni         0.8812544447       -0.1193403074        7.4431900649
 Ni        -1.2355626534       -1.1810009567        9.5490059758
 Ni        -1.5002422639        8.7925869004        3.9096571554
 Ni         0.7184438190        6.7128004268        3.5652357100
 Ni         3.0252652921        7.4291206941        5.5896408657
  H         2.7015732384        3.4851602523        5.6878364181
  H        -1.6352103729       11.1085000113        6.8941816054
  H        -1.5345669317       -0.0262663636       13.2838653489
  H        -1.9236584156        4.2728789954        7.2889479406
  H         2.6534520551       -3.2507220490        5.8644002844
  H         2.6751758145        6.6032714031       -0.0218724827
  C         1.0360558563        2.6265549449        6.7689036187
  C        -1.0275388827       -2.6716624159        7.1691889413
  C         3.6335652095       -0.5397336764       11.9731395823
  C         3.4044833803       10.2785835354        5.9669792368
  C        -1.0915385631        7.4645461810        1.3100506152
  C         1.0699082206        4.8826498462        5.7305431948
  C         1.6960856973        3.6741831632        6.0619393814
  C        -2.6864924127       11.2823936015        6.6701151242
  C        -2.6013371658       -0.2352162331       13.2382424243
  C        -0.2847866482        2.8987063121        7.2857137622
  C         4.3753743695       -2.4733899176        6.8592556829
  C         2.1934301103       -0.7767350067       11.9206771980
  C         2.0119478820       10.5068800939        5.6773257408
  C         4.2975380360        7.1619177737        1.2500221214
  C        -0.2940461304        5.0819469108        6.1730572004
  C        -1.0584580971        1.8970130093        8.0201933751
  C         3.5478170833       -1.3563822423        7.3484298470
  C         1.3889388258       -0.8531690856       10.6775094041
  C         1.0982849419        9.4888456146        5.1179560602
  C         3.3625219108        7.3371325542        2.3743672053
  C        -1.1959674434        6.0893462341        5.6123739949
  C        -0.8937538704        4.1138929922        6.9715868004
  C         3.7035278576       -3.4262180707        6.0939473704
  C         3.7445093130        6.8042663789        0.0188444321
  O         1.6826297699        1.4794781981        6.8838219632
  O        -0.3012831250       -1.8314528283        7.9642912826
  O        -2.4523696628       -0.4599817155       10.8707134044
  O        -2.7539375082        9.1307140404        5.6311479193
  O        -0.4632833315        7.9141144819        2.4395098048
  O         1.7463719125        5.7922180462        4.9744179573
  O        -0.5731754511        0.7175974927        8.1830785633
  O         4.0577975676       -0.6520656719        8.3267957819
  O         1.7902753475       -0.2996193725        9.5761634959
  O         1.3972476634        8.2433438234        5.2401930654
  O         3.6532893715        8.1329771838        3.3447489809
  O        -0.9309538269        6.5828303264        4.4534141903
  O        -2.2200700189        2.1866318196        8.5101691828
  O         2.4175680740       -1.1341196668        6.8149864095
  O         0.2430341797       -1.4400079792       10.7348767977
  O        -0.0173816339        9.8372590956        4.5865104479
  O         2.2282158494        6.7311885719        2.3519764104
  O        -2.2926225165        6.3863082706        6.2156627763
  O         2.4461320930        2.1439616220       10.3421804363
  C         2.0438623439        3.2702131554       10.0338753264
  O         1.2031487639        3.8727750062       10.8655363768
  H         2.3399786742        3.7796883794        9.1052009671
  H         0.9547405969        4.7488032987       10.5077851518
      59
 i =      145, E =     -1483.3216406962
 Ni         3.2935692391        0.8766300664        9.1954770511
 Ni         0.8805409760       -0.1204494477        7.4447862548
 Ni        -1.2357025266       -1.1810252248        9.5511690447
 Ni        -1.5016431662        8.7965767724        3.9095863887
 Ni         0.7161328476        6.7116714374        3.5664896242
 Ni         3.0264731530        7.4310642774        5.5875922531
  H         2.7019479643        3.4847382161        5.6885996552
  H        -1.6347262487       11.1085939158        6.8970954821
  H        -1.5363807517       -0.0232726114       13.2841687904
  H        -1.9250959461        4.2711671793        7.2851383334
  H         2.6525870304       -3.2527958856        5.8680607655
  H         2.6745120187        6.6050554306       -0.0204220133
  C         1.0355753727        2.6262814569        6.7678260134
  C        -1.0280620401       -2.6715048951        7.1716755972
  C         3.6333587637       -0.5385183224       11.9735658020
  C         3.4061657139       10.2800292624        5.9670597905
  C        -1.0929545765        7.4685906958        1.3112556096
  C         1.0694348309        4.8816621974        5.7289673016
  C         1.6959735769        3.6737228523        6.0615233008
  C        -2.6861011756       11.2828393421        6.6732200590
  C        -2.6031816604       -0.2327676025       13.2390763400
  C        -0.2853311896        2.8978381049        7.2839705318
  C         4.3743367389       -2.4744446067        6.8627468653
  C         2.1927183540       -0.7748832880       11.9215092662
  C         2.0129869859       10.5068489853        5.6791311038
  C         4.2970743439        7.1633988413        1.2503325244
  C        -0.2946026105        5.0810022699        6.1714859835
  C        -1.0595109695        1.8966263552        8.0176575761
  C         3.5465533622       -1.3570143373        7.3498296458
  C         1.3886532961       -0.8530215844       10.6785012179
  C         1.0996589539        9.4894311017        5.1172974698
  C         3.3603210834        7.3392622052        2.3732315481
  C        -1.1965822792        6.0887422147        5.6113577301
  C        -0.8946975680        4.1123368482        6.9687230232
  C         3.7034532515       -3.4267079152        6.0957452416
  C         3.7440504954        6.8058743914        0.0194269806
  O         1.6804831795        1.4782982863        6.8834317386
  O        -0.3025460689       -1.8317107069        7.9683713605
  O        -2.4523856113       -0.4599012951       10.8711598299
  O        -2.7509493538        9.1325501133        5.6322930137
  O        -0.4631110874        7.9157125537        2.4406311237
  O         1.7465646018        5.7915286301        4.9741623505
  O        -0.5738574715        0.7175926351        8.1828123919
  O         4.0568156618       -0.6529186646        8.3282819127
  O         1.7906677408       -0.3003542763        9.5770137070
  O         1.3960251572        8.2433370698        5.2411510021
  O         3.6548729246        8.1336970075        3.3428427734
  O        -0.9328836103        6.5841803015        4.4534075528
  O        -2.2201870172        2.1867421823        8.5089276210
  O         2.4170540020       -1.1341226750        6.8150261728
  O         0.2420629977       -1.4383023546       10.7376831417
  O        -0.0158680403        9.8374750432        4.5859574917
  O         2.2263186818        6.7319855281        2.3539731152
  O        -2.2922808880        6.3885289701        6.2155117092
  O         2.4436783511        2.1506003105       10.3321215459
  C         2.0403271095        3.2765579909       10.0236256262
  O         1.2008563920        3.8803080031       10.8565334785
  H         2.3290880495        3.7866517834        9.0921948579
  H         0.9445056586        4.7517928818       10.4905260471
      59
 i =      146, E =     -1483.3218234106
 Ni         3.2956121840        0.8760336557        9.1919822164
 Ni         0.8799344820       -0.1206476983        7.4456928034
 Ni        -1.2362880302       -1.1804723319        9.5554173179
 Ni        -1.5037646541        8.8013787281        3.9128701965
 Ni         0.7148063190        6.7125784567        3.5661458697
 Ni         3.0267275184        7.4300889626        5.5884601959
  H         2.7032208559        3.4848938958        5.6918629479
  H        -1.6345708073       11.1089478232        6.9044846436
  H        -1.5387909268       -0.0150750998       13.2851412120
  H        -1.9276516391        4.2686642242        7.2785262602
  H         2.6518465432       -3.2583378697        5.8739704460
  H         2.6733617033        6.6087366896       -0.0182786251
  C         1.0348233180        2.6252407204        6.7654576798
  C        -1.0294509039       -2.6715888250        7.1774794871
  C         3.6330359095       -0.5356006398       11.9749035402
  C         3.4083046017       10.2824558672        5.9679205910
  C        -1.0950766039        7.4744935058        1.3128214058
  C         1.0688620131        4.8804975051        5.7270000361
  C         1.6959904017        3.6734295140        6.0619546099
  C        -2.6852449686       11.2844662490        6.6775933511
  C        -2.6056634782       -0.2256901065       13.2402657007
  C        -0.2860223762        2.8966123762        7.2809918947
  C         4.3732283518       -2.4758312556        6.8662263547
  C         2.1920933265       -0.7722807802       11.9230356212
  C         2.0155459299       10.5067057060        5.6789810092
  C         4.2959419717        7.1674259999        1.2506558427
  C        -0.2959766907        5.0790469966        6.1678119522
  C        -1.0599885641        1.8960201085        8.0141329467
  C         3.5444131356       -1.3594178528        7.3529760424
  C         1.3883454128       -0.8514203344       10.6802242046
  C         1.1005070539        9.4893513552        5.1173978424
  C         3.3596494022        7.3412730581        2.3738443480
  C        -1.1964743606        6.0897823317        5.6111173724
  C        -0.8963354830        4.1102373864        6.9642723503
  C         3.7035125147       -3.4295818649        6.0996697290
  C         3.7429785912        6.8100993141        0.0201846988
  O         1.6789455824        1.4772786101        6.8829236640
  O        -0.3048890122       -1.8306314705        7.9752953230
  O        -2.4525567699       -0.4588229107       10.8725166757
  O        -2.7503333337        9.1344588712        5.6306497178
  O        -0.4643936682        7.9189694464        2.4429440139
  O         1.7449922563        5.7897610033        4.9723091424
  O        -0.5736845136        0.7177144521        8.1828440810
  O         4.0558320254       -0.6539903392        8.3300449078
  O         1.7908714184       -0.3015106482        9.5778067627
  O         1.3977166196        8.2441974652        5.2414780746
  O         3.6532827472        8.1361312724        3.3447065320
  O        -0.9344682046        6.5845045915        4.4526542081
  O        -2.2192679794        2.1859300351        8.5073965914
  O         2.4163800068       -1.1341579104        6.8159275769
  O         0.2418015847       -1.4369069206       10.7411219165
  O        -0.0148097618        9.8378050696        4.5858983152
  O         2.2260766141        6.7338102976        2.3541694692
  O        -2.2909476872        6.3886874677        6.2170595766
  O         2.4402042121        2.1657193418       10.3145832476
  C         2.0328585159        3.2908709835       10.0052327213
  O         1.1974917727        3.8988059447       10.8405636789
  H         2.3078438474        3.8024988067        9.0690334293
  H         0.9279313015        4.7604038942       10.4593033633
      59
 i =      147, E =     -1483.3178603794
 Ni         3.3093381121        0.8712528582        9.1630399298
 Ni         0.8755524148       -0.1212910663        7.4530676697
 Ni        -1.2422548571       -1.1739255234        9.5873397309
 Ni        -1.5199430685        8.8373884661        3.9390925572
 Ni         0.7047409437        6.7176455575        3.5645140686
 Ni         3.0283510906        7.4258289849        5.5958086467
  H         2.7115647971        3.4860398893        5.7162893332
  H        -1.6347038710       11.1131358330        6.9595775658
  H        -1.5578233327        0.0514331844       13.2913064442
  H        -1.9501231796        4.2463514016        7.2266065293
  H         2.6445491540       -3.2993292777        5.9201268049
  H         2.6635379488        6.6381026595       -0.0016491011
  C         1.0283344885        2.6172960654        6.7499164554
  C        -1.0395562988       -2.6715295137        7.2208367917
  C         3.6277911144       -0.5092560217       11.9853063634
  C         3.4225732099       10.3000036429        5.9748285258
  C        -1.1109422362        7.5200115368        1.3246391598
  C         1.0628825766        4.8700515679        5.7114566414
  C         1.6943729062        3.6692561931        6.0638311547
  C        -2.6810252045       11.2951729900        6.7118954546
  C        -2.6244221770       -0.1699664255       13.2486790964
  C        -0.2941729247        2.8850819744        7.2554125695
  C         4.3637947701       -2.4874964570        6.8963399896
  C         2.1846605287       -0.7480992241       11.9344134016
  C         2.0318504061       10.5058503926        5.6819050501
  C         4.2873919081        7.1979225430        1.2540942488
  C        -0.3075650338        5.0631929436        6.1407344472
  C        -1.0638127187        1.8906132625        7.9895502513
  C         3.5293400796       -1.3750276295        7.3749159591
  C         1.3856691949       -0.8394915987       10.6916591556
  C         1.1081541802        9.4893373808        5.1168832399
  C         3.3533243387        7.3575068952        2.3788029293
  C        -1.1969798370        6.0959024276        5.6085477429
  C        -0.9116223956        4.0926195281        6.9290140409
  C         3.7025144042       -3.4494217885        6.1302536580
  C         3.7335861503        6.8439302366        0.0267884757
  O         1.6697913522        1.4703111637        6.8794175587
  O        -0.3222573952       -1.8221853473        8.0268083419
  O        -2.4566779265       -0.4469495111       10.8828601412
  O        -2.7436864026        9.1497899319        5.6227556535
  O        -0.4746558424        7.9440871563        2.4611448539
  O         1.7333027261        5.7754343280        4.9597214790
  O        -0.5727168604        0.7179686334        8.1839371477
  O         4.0472379257       -0.6629536085        8.3447079906
  O         1.7904255794       -0.3057947629        9.5833765254
  O         1.4081036677        8.2492571647        5.2436632314
  O         3.6425386674        8.1502334964        3.3599879470
  O        -0.9462294609        6.5876826236        4.4481171405
  O        -2.2139493083        2.1788703537        8.4944507882
  O         2.4105017162       -1.1358964969        6.8236126343
  O         0.2389139906       -1.4255159905       10.7631174489
  O        -0.0081933111        9.8400397064        4.5901423677
  O         2.2245750837        6.7447553146        2.3573879103
  O        -2.2822921692        6.3904710065        6.2270070238
  O         2.4126064125        2.2882711912       10.1677310949
  C         1.9738233619        3.4054875633        9.8543544700
  O         1.1755967067        4.0456304861       10.7106981126
  H         2.1477429014        3.9305945733        8.8841571048
  H         0.8021435474        4.8281016520       10.2093033633
      59
 i =      148, E =     -1483.3219244143
 Ni         3.2967972899        0.8764250991        9.1838934029
 Ni         0.8804214406       -0.1198602389        7.4471318316
 Ni        -1.2377939467       -1.1798873145        9.5627284176
 Ni        -1.5062340442        8.8051040780        3.9214584069
 Ni         0.7142234215        6.7137747650        3.5646195274
 Ni         3.0265781417        7.4260885375        5.5886966042
  H         2.7090679751        3.4881704384        5.7019788651
  H        -1.6344315153       11.1089799289        6.9195053541
  H        -1.5420839716        0.0018085049       13.2852848457
  H        -1.9290383401        4.2651106106        7.2721760927
  H         2.6517547332       -3.2681297377        5.8829775636
  H         2.6715573598        6.6153719131       -0.0145013489
  C         1.0355312325        2.6244451499        6.7635219368
  C        -1.0306752522       -2.6725368555        7.1859685632
  C         3.6314446833       -0.5286577868       11.9772197527
  C         3.4125168082       10.2853403704        5.9672981363
  C        -1.0974590865        7.4837249675        1.3147873963
  C         1.0700900999        4.8794201388        5.7261704300
  C         1.6986186567        3.6737745408        6.0649419511
  C        -2.6836678697       11.2850197328        6.6847284625
  C        -2.6084373322       -0.2127590918       13.2410811937
  C        -0.2850873855        2.8948660349        7.2779214430
  C         4.3720106736       -2.4790281550        6.8728685816
  C         2.1906976466       -0.7673061773       11.9253666655
  C         2.0206143454       10.5074167387        5.6770541131
  C         4.2945921438        7.1748601850        1.2517832966
  C        -0.2958554408        5.0768472144        6.1648818716
  C        -1.0582984396        1.8947671015        8.0104000435
  C         3.5434294257       -1.3612736861        7.3564161583
  C         1.3888850827       -0.8493720633       10.6818137006
  C         1.1037438591        9.4896640817        5.1151485248
  C         3.3590482408        7.3444637100        2.3760130463
  C        -1.1953820644        6.0899653549        5.6104325405
  C        -0.8967811579        4.1077784521        6.9599000835
  C         3.7048945399       -3.4333646238        6.1045608093
  C         3.7412553634        6.8180145636        0.0218395246
  O         1.6788024513        1.4763067893        6.8810128300
  O        -0.3080738600       -1.8311062627        7.9860320185
  O        -2.4549874293       -0.4549266137       10.8739433563
  O        -2.7481574136        9.1360038916        5.6280153067
  O        -0.4665117947        7.9247512903        2.4467362855
  O         1.7422085138        5.7865427808        4.9688216777
  O        -0.5722036976        0.7167865229        8.1836502128
  O         4.0537041853       -0.6562567840        8.3339949272
  O         1.7900784326       -0.3009666862        9.5779064664
  O         1.4003761325        8.2451667356        5.2422764246
  O         3.6487728310        8.1381237648        3.3513724245
  O        -0.9335948099        6.5832948789        4.4531705048
  O        -2.2166339803        2.1831350391        8.5028619129
  O         2.4160888671       -1.1354096208        6.8185090744
  O         0.2430428299       -1.4356188209       10.7439450687
  O        -0.0132933363        9.8380091688        4.5866384495
  O         2.2270526214        6.7356692501        2.3538576686
  O        -2.2878583903        6.3879775744        6.2188945137
  O         2.4327471896        2.1893515487       10.2842269203
  C         2.0168181742        3.3114027079        9.9749078982
  O         1.1903944586        3.9297666964       10.8136744088
  H         2.2749865379        3.8286792921        9.0346727222
  H         0.9115988667        4.7756896207       10.4136546185
      59
 i =      149, E =     -1483.3218619224
 Ni         3.2998668248        0.8771005163        9.1942207963
 Ni         0.8812207009       -0.1185954197        7.4443398741
 Ni        -1.2348321429       -1.1794304550        9.5559026633
 Ni        -1.5048618851        8.8026982490        3.9176827962
 Ni         0.7141518422        6.7104676708        3.5662232444
 Ni         3.0283457798        7.4251969122        5.5846428491
  H         2.7043809075        3.4867965476        5.6920824887
  H        -1.6365934520       11.1087003497        6.9116313137
  H        -1.5355076950       -0.0132260369       13.2880809377
  H        -1.9271885711        4.2698261511        7.2791031951
  H         2.6515818217       -3.2604148774        5.8745368145
  H         2.6770311183        6.6081215455       -0.0178583376
  C         1.0349019009        2.6253991658        6.7656421814
  C        -1.0302966716       -2.6723546297        7.1786456293
  C         3.6342353253       -0.5315793007       11.9772723987
  C         3.4070509325       10.2805689276        5.9705591482
  C        -1.0921439398        7.4736783930        1.3143467246
  C         1.0686161253        4.8793897457        5.7246542416
  C         1.6963822260        3.6731556504        6.0613546732
  C        -2.6858506772       11.2839655064        6.6781718842
  C        -2.6022512219       -0.2236155593       13.2420474060
  C        -0.2866044057        2.8963713154        7.2798205439
  C         4.3738830220       -2.4746511804        6.8642234952
  C         2.1948244623       -0.7711671812       11.9238617215
  C         2.0161648062       10.5076875440        5.6770005956
  C         4.2969672810        7.1726688973        1.2528466645
  C        -0.2956534906        5.0785083631        6.1666286288
  C        -1.0590211822        1.8967102878        8.0160678278
  C         3.5431736552       -1.3612814061        7.3551245056
  C         1.3898932035       -0.8480814579       10.6807199359
  C         1.1008693122        9.4869353682        5.1212122432
  C         3.3587838298        7.3435281857        2.3745326085
  C        -1.1946753331        6.0911273365        5.6108279225
  C        -0.8962193356        4.1111532069        6.9645261509
  C         3.7031697822       -3.4300237886        6.1006373885
  C         3.7463932875        6.8106310135        0.0216482623
  O         1.6823715916        1.4790062778        6.8831535675
  O        -0.3039172352       -1.8263424987        7.9696317334
  O        -2.4514744003       -0.4584684674       10.8731590803
  O        -2.7506303638        9.1332465539        5.6325205777
  O        -0.4655078431        7.9218877866        2.4461507453
  O         1.7454791658        5.7875723616        4.9702703352
  O        -0.5732179364        0.7176647579        8.1798888153
  O         4.0566208795       -0.6548242693        8.3309214075
  O         1.7933249956       -0.2983774738        9.5785637967
  O         1.3986260834        8.2422482514        5.2414500874
  O         3.6534740466        8.1363246531        3.3457346435
  O        -0.9370840234        6.5833239631        4.4495121372
  O        -2.2192108493        2.1863058244        8.5065381895
  O         2.4168257075       -1.1342539915        6.8152101765
  O         0.2457469973       -1.4386315524       10.7384149882
  O        -0.0153894898        9.8373933867        4.5904785147
  O         2.2265398940        6.7336197076        2.3533194877
  O        -2.2897871956        6.3865468880        6.2158378526
  O         2.4416804341        2.1734388464       10.3102488158
  C         2.0330842874        3.2969521002       10.0012779357
  O         1.2032253298        3.9084571472       10.8389344905
  H         2.3067825958        3.8089521164        9.0637414795
  H         0.9206959436        4.7672703353       10.4506881214
      59
 i =      150, E =     -1483.3220631320
 Ni         3.2980565324        0.8773332181        9.1896304954
 Ni         0.8812745669       -0.1192854063        7.4454783309
 Ni        -1.2360791373       -1.1792480479        9.5594301417
 Ni        -1.5057438930        8.8038828135        3.9206542737
 Ni         0.7156165481        6.7129856729        3.5649624946
 Ni         3.0280808338        7.4223791856        5.5843815448
  H         2.7080529783        3.4882424799        5.6979387805
  H        -1.6358136421       11.1081866185        6.9171425801
  H        -1.5384478263       -0.0046462781       13.2868934180
  H        -1.9268494557        4.2680916897        7.2769009616
  H         2.6519078272       -3.2640715750        5.8787114859
  H         2.6747807627        6.6117833478       -0.0165504981
  C         1.0363651960        2.6250635519        6.7652605085
  C        -1.0297053777       -2.6716174284        7.1807279968
  C         3.6335852716       -0.5298935515       11.9774916134
  C         3.4100365337       10.2822212762        5.9692348069
  C        -1.0951287199        7.4813409798        1.3152820655
  C         1.0700690077        4.8794115931        5.7258768154
  C         1.6985545857        3.6735470028        6.0636000590
  C        -2.6851800758       11.2832442239        6.6830378930
  C        -2.6049080637       -0.2173443756       13.2422522484
  C        -0.2849589942        2.8959324676        7.2793033282
  C         4.3729099370       -2.4778038230        6.8693740721
  C         2.1932820109       -0.7678588442       11.9248318047
  C         2.0180102634       10.5062468804        5.6785922647
  C         4.2963948901        7.1736060759        1.2521919098
  C        -0.2948839520        5.0778051258        6.1660958478
  C        -1.0583115457        1.8955094460        8.0127442705
  C         3.5444844341       -1.3605457878        7.3551167830
  C         1.3904858326       -0.8490973038       10.6810329262
  C         1.1028608057        9.4882463987        5.1174991948
  C         3.3599268747        7.3433070610        2.3754092787
  C        -1.1948200088        6.0894914327        5.6098749273
  C        -0.8955564081        4.1097569503        6.9627295248
  C         3.7044813638       -3.4315133763        6.1017895397
  C         3.7438955830        6.8152847886        0.0216766053
  O         1.6814387047        1.4775550675        6.8821423692
  O        -0.3052149647       -1.8288920072        7.9768848356
  O        -2.4533746656       -0.4569152176       10.8734356520
  O        -2.7500269092        9.1334889564        5.6298664264
  O        -0.4662801208        7.9239491795        2.4476157038
  O         1.7439826660        5.7857942873        4.9681530075
  O        -0.5720379711        0.7172944560        8.1822564764
  O         4.0555873672       -0.6554710696        8.3326583791
  O         1.7914130703       -0.2983934309        9.5783473621
  O         1.3998437930        8.2434648836        5.2419102873
  O         3.6508058458        8.1373093274        3.3486831779
  O        -0.9330130544        6.5836843087        4.4522646209
  O        -2.2174692770        2.1841835456        8.5051557362
  O         2.4171355738       -1.1348194570        6.8169962637
  O         0.2453811456       -1.4374043193       10.7404318650
  O        -0.0139617621        9.8380842396        4.5875257189
  O         2.2276788551        6.7343324290        2.3528609257
  O        -2.2882283808        6.3869837764        6.2176735350
  O         2.4370127927        2.1833926494       10.2964003129
  C         2.0244559319        3.3057767632        9.9871305826
  O         1.1979198658        3.9230164609       10.8252867888
  H         2.2893763145        3.8204952074        9.0478238173
  H         0.9169902000        4.7746007052       10.4300368952
      59
 i =      151, E =     -1483.3221121436
 Ni         3.2985539882        0.8771184864        9.1870817280
 Ni         0.8804355094       -0.1197780443        7.4453912683
 Ni        -1.2361935719       -1.1794860759        9.5608440167
 Ni        -1.5069851035        8.8053084570        3.9225512531
 Ni         0.7145459562        6.7125511381        3.5650165460
 Ni         3.0280072463        7.4209888541        5.5829462455
  H         2.7100952581        3.4891372151        5.7008816340
  H        -1.6357795588       11.1072922256        6.9212275580
  H        -1.5386464056       -0.0004366435       13.2871038569
  H        -1.9261696369        4.2677260668        7.2768087668
  H         2.6523645194       -3.2656365365        5.8801053949
  H         2.6748211316        6.6130110690       -0.0155122735
  C         1.0374350817        2.6248000080        6.7655674918
  C        -1.0300156182       -2.6728124742        7.1832698311
  C         3.6330943365       -0.5268687890       11.9779292961
  C         3.4107953088       10.2820092142        5.9701480251
  C        -1.0947001322        7.4824396377        1.3157192456
  C         1.0709483292        4.8786734626        5.7256334504
  C         1.6999572857        3.6736994767        6.0652303944
  C        -2.6846040909       11.2828162387        6.6847883876
  C        -2.6053502805       -0.2129389317       13.2423325558
  C        -0.2838945501        2.8956722935        7.2792900402
  C         4.3732882347       -2.4777487120        6.8695771928
  C         2.1932278019       -0.7664937622       11.9250301787
  C         2.0192444935       10.5061041861        5.6777783533
  C         4.2965339140        7.1752992747        1.2523003747
  C        -0.2939917108        5.0773515403        6.1660158991
  C        -1.0573819723        1.8953631321        8.0125084864
  C         3.5445748257       -1.3607227886        7.3552037887
  C         1.3901923055       -0.8473805496       10.6814356945
  C         1.1035940693        9.4878101776        5.1170946356
  C         3.3600680292        7.3443731869        2.3759021150
  C        -1.1939618335        6.0892284756        5.6102274981
  C        -0.8948484291        4.1092227573        6.9624232412
  C         3.7047150955       -3.4331789745        6.1039307340
  C         3.7438687524        6.8172707974        0.0218708692
  O         1.6814376070        1.4767350730        6.8825140944
  O        -0.3055561332       -1.8302388492        7.9795089571
  O        -2.4533628561       -0.4549360199       10.8738794737
  O        -2.7489323805        9.1338350202        5.6292815411
  O        -0.4673609273        7.9269015705        2.4486413590
  O         1.7444117392        5.7838859883        4.9665350008
  O        -0.5724881691        0.7168017788        8.1829291477
  O         4.0552001117       -0.6563179360        8.3333819580
  O         1.7908881868       -0.2975120163        9.5780476633
  O         1.4002525364        8.2432243647        5.2405390948
  O         3.6496999183        8.1371434118        3.3506028277
  O        -0.9337138726        6.5835539915        4.4523991856
  O        -2.2163277718        2.1844340640        8.5040828151
  O         2.4170071456       -1.1349712576        6.8175443465
  O         0.2456773558       -1.4364701386       10.7420402350
  O        -0.0137049294        9.8378720162        4.5882898024
  O         2.2279487790        6.7350537428        2.3539018079
  O        -2.2877132199        6.3867449145        6.2171189229
  O         2.4363236227        2.1889918892       10.2874524537
  C         2.0219112426        3.3097966540        9.9791292487
  O         1.1992267541        3.9306555389       10.8185238619
  H         2.2826604025        3.8261660349        9.0396082930
  H         0.9169688890        4.7785339061       10.4197197342
      59
 i =      152, E =     -1483.3222746652
 Ni         3.2980626833        0.8778835879        9.1850500897
 Ni         0.8812324845       -0.1207700889        7.4448720981
 Ni        -1.2354352039       -1.1787300046        9.5629109189
 Ni        -1.5089012080        8.8074043550        3.9275661871
 Ni         0.7145955575        6.7128312797        3.5649846340
 Ni         3.0289776862        7.4176043907        5.5783693772
  H         2.7145834234        3.4906750868        5.7052453496
  H        -1.6361433944       11.1040088618        6.9296640962
  H        -1.5376829707        0.0078707657       13.2885866120
  H        -1.9229858152        4.2676783399        7.2777752917
  H         2.6533560944       -3.2674487091        5.8829442396
  H         2.6762726691        6.6160057924       -0.0146400867
  C         1.0399966330        2.6237444837        6.7655035811
  C        -1.0290852189       -2.6742790161        7.1868963075
  C         3.6340551641       -0.5221854624       11.9792174543
  C         3.4121783369       10.2810330713        5.9719254470
  C        -1.0942602917        7.4888905411        1.3174919055
  C         1.0729110264        4.8766884038        5.7246326999
  C         1.7033168977        3.6735019920        6.0675943976
  C        -2.6843621874       11.2799899772        6.6904166158
  C        -2.6044080215       -0.2052514380       13.2435739512
  C        -0.2817167430        2.8944827743        7.2790375708
  C         4.3747507898       -2.4781557368        6.8713561823
  C         2.1943713208       -0.7621398274       11.9263205199
  C         2.0199130609       10.5040743054        5.6804639002
  C         4.2973306470        7.1796370501        1.2535708471
  C        -0.2917959625        5.0764100813        6.1655185326
  C        -1.0558562125        1.8943392239        8.0121889228
  C         3.5456685806       -1.3608436679        7.3561234504
  C         1.3917931466       -0.8451903660       10.6824187848
  C         1.1047769838        9.4866539246        5.1174289864
  C         3.3600693300        7.3466787640        2.3771457972
  C        -1.1925805724        6.0874008569        5.6096710754
  C        -0.8919670822        4.1084255035        6.9628010091
  C         3.7058191835       -3.4346774206        6.1068405270
  C         3.7453639809        6.8207188206        0.0229008473
  O         1.6829132074        1.4755857654        6.8826400372
  O        -0.3047675745       -1.8314467434        7.9827473733
  O        -2.4534776408       -0.4538880225       10.8741625891
  O        -2.7464033362        9.1340758594        5.6295353105
  O        -0.4695365537        7.9330731256        2.4524829892
  O         1.7463204808        5.7782472785        4.9613577998
  O        -0.5713964857        0.7158802841        8.1830082918
  O         4.0552048922       -0.6565442363        8.3350645824
  O         1.7910104398       -0.2953346405        9.5785335731
  O         1.4003331598        8.2418815551        5.2398968517
  O         3.6475569109        8.1380041002        3.3536771092
  O        -0.9333671298        6.5819198368        4.4519144416
  O        -2.2151049249        2.1833297942        8.5023621735
  O         2.4184562903       -1.1351716395        6.8174719329
  O         0.2481921717       -1.4359011363       10.7434457048
  O        -0.0133401920        9.8378409728        4.5901638270
  O         2.2285957859        6.7358633292        2.3538182975
  O        -2.2869297927        6.3853396454        6.2157106299
  O         2.4335213585        2.2043931369       10.2713912982
  C         2.0164243355        3.3229022304        9.9626981580
  O         1.2035447315        3.9537545860       10.8046512762
  H         2.2680800704        3.8403654050        9.0203991005
  H         0.9144279910        4.7932204182       10.3951460488
      59
 i =      153, E =     -1483.3206494897
 Ni         3.2930093432        0.8907175890        9.1895896466
 Ni         0.8858197432       -0.1260556656        7.4421547348
 Ni        -1.2311418894       -1.1767200680        9.5718298440
 Ni        -1.5199052112        8.8172453015        3.9556953741
 Ni         0.7128121901        6.7134158991        3.5656441286
 Ni         3.0349409955        7.4043360281        5.5512441058
  H         2.7367671842        3.4975116135        5.7239325946
  H        -1.6391019624       11.0824956226        6.9743600276
  H        -1.5291527063        0.0541502478       13.2974143699
  H        -1.9041181934        4.2675491661        7.2857001656
  H         2.6582512672       -3.2729756126        5.8975079826
  H         2.6874478474        6.6344142959       -0.0111929975
  C         1.0540870046        2.6162775601        6.7656110062
  C        -1.0228844261       -2.6828242902        7.2031335626
  C         3.6425431891       -0.4941335366       11.9886805018
  C         3.4156681116       10.2705645246        5.9907241150
  C        -1.0897886573        7.5258325772        1.3306679631
  C         1.0830802846        4.8643257852        5.7162127726
  C         1.7194753305        3.6692209467        6.0760429861
  C        -2.6834549265       11.2630484484        6.7203483176
  C        -2.5966869728       -0.1608018708       13.2536286368
  C        -0.2708954076        2.8867481591        7.2776670145
  C         4.3833508515       -2.4785281055        6.8807446361
  C         2.2056911032       -0.7406918338       11.9339515593
  C         2.0209547901       10.4920727918        5.6991134732
  C         4.3031751996        7.2060259619        1.2612474028
  C        -0.2802006557        5.0699051212        6.1607390159
  C        -1.0509568747        1.8863308909        8.0089587712
  C         3.5551653823       -1.3552111393        7.3596860762
  C         1.4044003190       -0.8321994192       10.6883101493
  C         1.1084214543        9.4788988986        5.1255620243
  C         3.3605727381        7.3592030088        2.3842402477
  C        -1.1874562122        6.0750183982        5.6062352599
  C        -0.8760619958        4.1027764951        6.9640165075
  C         3.7100599492       -3.4423286403        6.1254810014
  C         3.7552616952        6.8440412663        0.0286550659
  O         1.6919944717        1.4682119311        6.8813030831
  O        -0.2970823471       -1.8376265854        7.9926655535
  O        -2.4528962571       -0.4494944477       10.8765063978
  O        -2.7326292766        9.1352896208        5.6335172758
  O        -0.4803617661        7.9722052752        2.4766829251
  O         1.7599848816        5.7450062485        4.9297087772
  O        -0.5664878991        0.7099735506        8.1861433319
  O         4.0534170299       -0.6531553692        8.3467889477
  O         1.7926792345       -0.2772115355        9.5841258395
  O         1.3983950004        8.2324462897        5.2360058352
  O         3.6362232891        8.1423063260        3.3702177649
  O        -0.9334148259        6.5730094004        4.4503081298
  O        -2.2118681290        2.1748622926        8.4954612215
  O         2.4268876435       -1.1354937522        6.8192432960
  O         0.2662592302       -1.4324570404       10.7498886319
  O        -0.0138674467        9.8358648859        4.6048783323
  O         2.2321999087        6.7400472063        2.3543689767
  O        -2.2856484706        6.3778318151        6.2067696703
  O         2.4154967086        2.3097376749       10.1903074690
  C         1.9856988026        3.4182089510        9.8736717388
  O         1.2281958417        4.1097550265       10.7306130746
  H         2.1853038415        3.9342104588        8.9108220433
  H         0.8911362217        4.8965429035       10.2521061116
      59
 i =      154, E =     -1483.3223308876
 Ni         3.2961252479        0.8816788424        9.1891641911
 Ni         0.8834273189       -0.1233431575        7.4445449244
 Ni        -1.2332487908       -1.1769831858        9.5635520269
 Ni        -1.5098178850        8.8076067105        3.9329346252
 Ni         0.7161697885        6.7132855998        3.5650331159
 Ni         3.0320460656        7.4140625466        5.5697867127
  H         2.7202203757        3.4917027008        5.7083063020
  H        -1.6375747778       11.0959224525        6.9388926656
  H        -1.5334798152        0.0167459782       13.2917562535
  H        -1.9148041123        4.2694600923        7.2855766348
  H         2.6557977776       -3.2651062968        5.8836413093
  H         2.6810200536        6.6186538158       -0.0147453413
  C         1.0449038031        2.6226070966        6.7680943107
  C        -1.0263980159       -2.6760921892        7.1881170221
  C         3.6377809830       -0.5155437558       11.9814262854
  C         3.4119733147       10.2765975290        5.9777210929
  C        -1.0923956481        7.4986971896        1.3205624307
  C         1.0765429864        4.8734268550        5.7221797529
  C         1.7079631518        3.6718435169        6.0689797126
  C        -2.6849890230       11.2739289416        6.6977955602
  C        -2.6003096125       -0.1960269583       13.2464910725
  C        -0.2778056941        2.8935860337        7.2810430485
  C         4.3777605892       -2.4779864641        6.8724583630
  C         2.1987454734       -0.7553577209       11.9284094486
  C         2.0185095827       10.4998121164        5.6873417139
  C         4.2999396876        7.1848991826        1.2562270297
  C        -0.2869469227        5.0758774197        6.1660030947
  C        -1.0541491558        1.8923329210        8.0127746660
  C         3.5493550073       -1.3586508457        7.3562747972
  C         1.3968008989       -0.8414366735       10.6836221479
  C         1.1043601814        9.4841727768        5.1213232700
  C         3.3611587519        7.3486322341        2.3796119038
  C        -1.1905037964        6.0834335740        5.6082291054
  C        -0.8855720793        4.1086213882        6.9662451752
  C         3.7077011933       -3.4348903661        6.1090820845
  C         3.7492761099        6.8256806891        0.0246842748
  O         1.6864217235        1.4739551539        6.8833496964
  O        -0.3017907581       -1.8322000205        7.9807693985
  O        -2.4527974326       -0.4515500050       10.8746105994
  O        -2.7446031152        9.1327333106        5.6310569222
  O        -0.4705871443        7.9409781984        2.4578516963
  O         1.7510649182        5.7717106936        4.9535646037
  O        -0.5701576817        0.7139703849        8.1827079737
  O         4.0554158859       -0.6555863470        8.3382119169
  O         1.7914867028       -0.2851768591        9.5814652179
  O         1.4000854154        8.2386873074        5.2389018707
  O         3.6452450869        8.1386891399        3.3578881082
  O        -0.9309564756        6.5800599236        4.4515716664
  O        -2.2143991408        2.1814008254        8.5016025949
  O         2.4219084486       -1.1350243303        6.8169502222
  O         0.2555208866       -1.4360983674       10.7423243977
  O        -0.0141582486        9.8382956921        4.5946796309
  O         2.2300381727        6.7361939200        2.3529513463
  O        -2.2867721717        6.3815463921        6.2126860018
  O         2.4316724041        2.2287055105       10.2563138939
  C         2.0140209636        3.3443928244        9.9455540174
  O         1.2150087715        3.9926730435       10.7903760328
  H         2.2573522525        3.8592919251        8.9990490854
  H         0.9170929457        4.8215914663       10.3680342482
      59
 i =      155, E =     -1483.3220664081
 Ni         3.2954383860        0.8768983953        9.1922897759
 Ni         0.8814441915       -0.1191900029        7.4428540497
 Ni        -1.2337449055       -1.1796896820        9.5558389658
 Ni        -1.5076153691        8.8040652592        3.9223539996
 Ni         0.7181285953        6.7121664707        3.5656563537
 Ni         3.0284480290        7.4187460974        5.5769356347
  H         2.7118744747        3.4880784339        5.6966365178
  H        -1.6358533771       11.1031818321        6.9166608837
  H        -1.5330434206       -0.0107957849       13.2890231501
  H        -1.9178929348        4.2736445283        7.2890729438
  H         2.6548175557       -3.2578767419        5.8727879135
  H         2.6787957297        6.6080345122       -0.0178981667
  C         1.0400275973        2.6247964236        6.7662640743
  C        -1.0255152706       -2.6727619656        7.1790888448
  C         3.6362100635       -0.5299102482       11.9787003011
  C         3.4085691476       10.2781265595        5.9708119476
  C        -1.0897330084        7.4769129308        1.3169278296
  C         1.0748668788        4.8807364749        5.7297846860
  C         1.7032232351        3.6737027251        6.0646880778
  C        -2.6850729802       11.2788647402        6.6828288005
  C        -2.6001524036       -0.2196775269       13.2439083254
  C        -0.2799647666        2.8981115128        7.2843969315
  C         4.3775392849       -2.4764200561        6.8667063514
  C         2.1969681557       -0.7690343648       11.9241931394
  C         2.0166410735       10.5063155325        5.6801995755
  C         4.2995726369        7.1732270196        1.2523240396
  C        -0.2897590112        5.0799470350        6.1696101046
  C        -1.0554126706        1.8969585484        8.0171402122
  C         3.5493406817       -1.3574742237        7.3509531860
  C         1.3929392192       -0.8482387194       10.6806596574
  C         1.1045458786        9.4887992186        5.1160467407
  C         3.3611167706        7.3440053212        2.3741915976
  C        -1.1928340074        6.0864117728        5.6084800488
  C        -0.8884810572        4.1136155559        6.9706633688
  C         3.7056067005       -3.4293938366        6.1010360628
  C         3.7478237232        6.8119344665        0.0216053509
  O         1.6851525150        1.4776809836        6.8821209767
  O        -0.2997018284       -1.8305879642        7.9732888397
  O        -2.4527141174       -0.4615914892       10.8722334581
  O        -2.7513875609        9.1302534866        5.6304530759
  O        -0.4685662112        7.9271887835        2.4518594265
  O         1.7500810398        5.7806794333        4.9642512492
  O        -0.5718504982        0.7171272685        8.1817774763
  O         4.0571070428       -0.6549601922        8.3316319922
  O         1.7899787464       -0.2914871091        9.5792770404
  O         1.3983448839        8.2421625789        5.2421421578
  O         3.6522739940        8.1346376399        3.3475930135
  O        -0.9289760290        6.5836797365        4.4533766169
  O        -2.2158597108        2.1857286254        8.5072825410
  O         2.4193200697       -1.1354636422        6.8174252689
  O         0.2503380247       -1.4409550839       10.7359662559
  O        -0.0130270391        9.8375288165        4.5869049952
  O         2.2288935873        6.7334787090        2.3526307449
  O        -2.2876519020        6.3872068202        6.2145140696
  O         2.4404616326        2.1742818331       10.3095318387
  C         2.0331141977        3.2965887181        9.9985559492
  O         1.2049830106        3.9197339417       10.8328344424
  H         2.3060470650        3.8075155568        9.0593988282
  H         0.9325722124        4.7787173138       10.4464611192
      59
 i =      156, E =     -1483.3224546962
 Ni         3.2964723851        0.8793059105        9.1921379117
 Ni         0.8826449461       -0.1219811051        7.4442989073
 Ni        -1.2333740589       -1.1787805231        9.5593353735
 Ni        -1.5079737483        8.8053877931        3.9275312407
 Ni         0.7165124027        6.7123894760        3.5654936101
 Ni         3.0308357745        7.4182919818        5.5737773265
  H         2.7149699928        3.4890312122        5.7012244426
  H        -1.6367142725       11.0988794213        6.9262301893
  H        -1.5328388099        0.0026521305       13.2907218317
  H        -1.9159876469        4.2720149816        7.2885717213
  H         2.6555941938       -3.2601982337        5.8774992346
  H         2.6802883125        6.6130406668       -0.0164609533
  C         1.0425382768        2.6241631519        6.7687872877
  C        -1.0263383278       -2.6745152390        7.1821913565
  C         3.6375726234       -0.5229536439       11.9801770976
  C         3.4094216835       10.2771797736        5.9747175317
  C        -1.0916896635        7.4894024366        1.3188853454
  C         1.0752088319        4.8760341305        5.7243322370
  C         1.7049489066        3.6723842081        6.0665097531
  C        -2.6852086789       11.2761287828        6.6899535113
  C        -2.5994522079       -0.2090704707       13.2454937053
  C        -0.2791638716        2.8957680012        7.2831812981
  C         4.3772284830       -2.4766106352        6.8688821886
  C         2.1983235633       -0.7619350842       11.9266255818
  C         2.0168688083       10.5027945774        5.6838342034
  C         4.2998731771        7.1781855452        1.2546490007
  C        -0.2880849538        5.0783536499        6.1686365724
  C        -1.0550533606        1.8945324560        8.0156813895
  C         3.5483184555       -1.3586822523        7.3546397514
  C         1.3954743967       -0.8446635900       10.6824024402
  C         1.1027586468        9.4857636827        5.1207168843
  C         3.3615225798        7.3446733888        2.3773907500
  C        -1.1914666348        6.0857340102        5.6097569997
  C        -0.8869867692        4.1111570988        6.9688192207
  C         3.7070222564       -3.4314318265        6.1038191957
  C         3.7487946563        6.8188371705        0.0233725505
  O         1.6852522465        1.4754892597        6.8829755103
  O        -0.3013175364       -1.8308456256        7.9750428202
  O        -2.4522546878       -0.4545438082       10.8740262077
  O        -2.7480725502        9.1317464412        5.6319300636
  O        -0.4693617080        7.9333198119        2.4551449469
  O         1.7513637826        5.7768682859        4.9594738038
  O        -0.5713514024        0.7151900951        8.1820174391
  O         4.0563172249       -0.6551461636        8.3350020840
  O         1.7912172890       -0.2868839875        9.5814573712
  O         1.3994235020        8.2402150916        5.2393398507
  O         3.6488300987        8.1372032616        3.3525086639
  O        -0.9317443455        6.5812559476        4.4517821610
  O        -2.2155053910        2.1837788674        8.5052413432
  O         2.4205496659       -1.1349057059        6.8162915002
  O         0.2532821813       -1.4372691532       10.7398582136
  O        -0.0145290612        9.8384350580        4.5922557497
  O         2.2291160480        6.7347055414        2.3526106038
  O        -2.2877465814        6.3836279385        6.2139861593
  O         2.4369459736        2.2014016528       10.2841266664
  C         2.0247008486        3.3204119410        9.9727834855
  O         1.2089936723        3.9560322785       10.8117800152
  H         2.2861673011        3.8322975936        9.0307214944
  H         0.9252747386        4.8004647960       10.4087807446
      59
 i =      157, E =     -1483.3193804742
 Ni         3.2946532383        0.8950748760        9.1879793495
 Ni         0.8893865539       -0.1346584609        7.4516430955
 Ni        -1.2290988948       -1.1702685906        9.5825524841
 Ni        -1.5149926031        8.8163892913        3.9607724190
 Ni         0.7107180305        6.7162746431        3.5652541893
 Ni         3.0428595393        7.4098240206        5.5516147405
  H         2.7366061351        3.4932631643        5.7280882614
  H        -1.6415712063       11.0720208152        6.9887304414
  H        -1.5313732664        0.0827128955       13.3026734488
  H        -1.9025263486        4.2613804633        7.2849264341
  H         2.6599818521       -3.2744086950        5.9091350589
  H         2.6897074175        6.6450068844       -0.0063198886
  C         1.0551866303        2.6152407349        6.7719207749
  C        -1.0280381394       -2.6856882538        7.2113992525
  C         3.6455432159       -0.4792271645       11.9911234281
  C         3.4172282719       10.2712675617        5.9998235753
  C        -1.0968521231        7.5536620906        1.3337396390
  C         1.0807944474        4.8531664164        5.7002430585
  C         1.7176226098        3.6636075799        6.0747435363
  C        -2.6848132955       11.2606183480        6.7351252560
  C        -2.5978323699       -0.1374899375       13.2571571532
  C        -0.2725563905        2.8821181979        7.2748696676
  C         4.3798801805       -2.4790964130        6.8863758960
  C         2.2075120474       -0.7206588287       11.9423139699
  C         2.0207698468       10.4850434130        5.7100046106
  C         4.3020960237        7.2162018592        1.2688576416
  C        -0.2789324466        5.0658681597        6.1573156016
  C        -1.0528402491        1.8810029829        8.0048267247
  C         3.5477959730       -1.3629504059        7.3747468045
  C         1.4096198336       -0.8193543423       10.6953739350
  C         1.0989251816        9.4733733899        5.1428823104
  C         3.3596554204        7.3611790088        2.3931341088
  C        -1.1843459276        6.0769640653        5.6092987096
  C        -0.8755976787        4.0977486729        6.9594289113
  C         3.7132272484       -3.4450920791        6.1298316391
  C         3.7560192746        6.8593601199        0.0351805098
  O         1.6881894298        1.4639037141        6.8861453307
  O        -0.3059350685       -1.8337166910        7.9955368038
  O        -2.4519613431       -0.4264892343       10.8816131524
  O        -2.7328195279        9.1367457192        5.6385463246
  O        -0.4747655513        7.9761555143        2.4781756697
  O         1.7577560317        5.7491239363        4.9265672785
  O        -0.5674017477        0.7055905362        8.1830516461
  O         4.0498626858       -0.6579995816        8.3597097829
  O         1.7956360208       -0.2540494334        9.5961247513
  O         1.4039150412        8.2304413324        5.2330181978
  O         3.6302390199        8.1495937765        3.3815692290
  O        -0.9390956315        6.5701324754        4.4452742145
  O        -2.2136193749        2.1713524813        8.4899795210
  O         2.4297134491       -1.1324507458        6.8151270208
  O         0.2762082492       -1.4258448248       10.7577497785
  O        -0.0191954459        9.8410522042        4.6185716563
  O         2.2311787130        6.7433887233        2.3541159194
  O        -2.2856470103        6.3663087218        6.2083256453
  O         2.4072919328        2.3762089196       10.1261192009
  C         1.9686696597        3.4772134751        9.8078226605
  O         1.2305864810        4.1942430591       10.6747299939
  H         2.1504891941        3.9912063820        8.8396729954
  H         0.8675468227        4.9471738846       10.1587807446
      59
 i =      158, E =     -1483.3223427761
 Ni         3.2945642732        0.8835988507        9.1922933337
 Ni         0.8842010319       -0.1236785538        7.4444601241
 Ni        -1.2313776731       -1.1757280331        9.5655939776
 Ni        -1.5091043488        8.8074497772        3.9348851297
 Ni         0.7156746495        6.7139595999        3.5655767999
 Ni         3.0336768148        7.4167742912        5.5681495620
  H         2.7207718762        3.4886941996        5.7077507756
  H        -1.6383030091       11.0908693977        6.9424943982
  H        -1.5321888847        0.0239223895       13.2947787750
  H        -1.9113581139        4.2704409413        7.2894904924
  H         2.6566852843       -3.2630085104        5.8850100742
  H         2.6831586244        6.6214060735       -0.0137222731
  C         1.0457931705        2.6213731654        6.7684827267
  C        -1.0259794971       -2.6773650224        7.1902852154
  C         3.6401161111       -0.5099130587       11.9834292654
  C         3.4113864101       10.2744054450        5.9822184470
  C        -1.0924259160        7.5049011299        1.3228368878
  C         1.0775628576        4.8712743759        5.7195666332
  C         1.7085180002        3.6698358490        6.0677421522
  C        -2.6851906838       11.2718082219        6.7014649863
  C        -2.5988960060       -0.1894509097       13.2489468438
  C        -0.2766606910        2.8927567741        7.2818302597
  C         4.3786293464       -2.4777522669        6.8738949180
  C         2.2016903974       -0.7511949040       11.9315081321
  C         2.0183076294       10.4989422750        5.6911918591
  C         4.3004335702        7.1890765999        1.2589726538
  C        -0.2854414333        5.0748642348        6.1652780394
  C        -1.0541412668        1.8911662751        8.0128788674
  C         3.5494266566       -1.3594331580        7.3599634038
  C         1.3996546554       -0.8367689492       10.6868255534
  C         1.1025205856        9.4836570654        5.1262477647
  C         3.3606009924        7.3506661677        2.3820100600
  C        -1.1898005979        6.0826848778        5.6085923402
  C        -0.8831130826        4.1085802459        6.9680172066
  C         3.7081027599       -3.4348615144        6.1113185832
  C         3.7510437907        6.8296299576        0.0270269642
  O         1.6870459348        1.4731060163        6.8835618002
  O        -0.3013871765       -1.8312833287        7.9805363804
  O        -2.4516285699       -0.4449510254       10.8764749946
  O        -2.7437667607        9.1321052279        5.6336817807
  O        -0.4696198164        7.9445597699        2.4602547131
  O         1.7528466749        5.7702374420        4.9508558870
  O        -0.5699795910        0.7129835956        8.1824075647
  O         4.0530727815       -0.6586546257        8.3449825577
  O         1.7907233611       -0.2747062763        9.5865907477
  O         1.4002257640        8.2380104329        5.2386985122
  O         3.6440483198        8.1406630050        3.3613117059
  O        -0.9322830922        6.5790322970        4.4506712909
  O        -2.2152723922        2.1793849358        8.5007205269
  O         2.4235820013       -1.1341083246        6.8173812785
  O         0.2606303156       -1.4345638693       10.7447181856
  O        -0.0165164342        9.8389989507        4.6026380695
  O         2.2299769703        6.7371633457        2.3530150803
  O        -2.2871125609        6.3786035655        6.2122017071
  O         2.4282027745        2.2494407601       10.2423337356
  C         2.0097318479        3.3638629701        9.9277506369
  O         1.2151789559        4.0233479506       10.7734889781
  H         2.2510877237        3.8744811821        8.9782469605
  H         0.9126729154        4.8433284598       10.3413490161
      59
 i =      159, E =     -1483.3224964930
 Ni         3.2954367597        0.8810970860        9.1888873960
 Ni         0.8831649541       -0.1245447819        7.4474125983
 Ni        -1.2319962527       -1.1775142816        9.5650972497
 Ni        -1.5105238702        8.8077866280        3.9352395043
 Ni         0.7160174925        6.7129947548        3.5659199815
 Ni         3.0311217330        7.4182579216        5.5714263562
  H         2.7167486580        3.4864280678        5.7017681299
  H        -1.6371554343       11.0943416406        6.9363464830
  H        -1.5324300213        0.0143459741       13.2947304584
  H        -1.9135912198        4.2711679649        7.2892064088
  H         2.6569950304       -3.2612909939        5.8834068334
  H         2.6826528741        6.6172856886       -0.0136556427
  C         1.0429278694        2.6225452993        6.7674826073
  C        -1.0261464781       -2.6759611613        7.1887093767
  C         3.6391490617       -0.5135669148       11.9840737400
  C         3.4098238826       10.2770120870        5.9803290620
  C        -1.0913032841        7.4992784201        1.3235165338
  C         1.0757279469        4.8729250673        5.7204607351
  C         1.7058964935        3.6698238289        6.0646703877
  C        -2.6848562204       11.2740347848        6.6983013363
  C        -2.5988984735       -0.1980811874       13.2496329230
  C        -0.2784499642        2.8942829646        7.2820267634
  C         4.3779895086       -2.4772887461        6.8741136822
  C         2.2009017058       -0.7545439242       11.9307990672
  C         2.0171026194       10.5011034455        5.6898418747
  C         4.3009280183        7.1857584719        1.2578117635
  C        -0.2871903758        5.0762465245        6.1657607945
  C        -1.0552190619        1.8926492288        8.0132900773
  C         3.5485068066       -1.3598337237        7.3601049499
  C         1.3984673001       -0.8371877093       10.6869545022
  C         1.1009618018        9.4849096415        5.1271331775
  C         3.3616233188        7.3481713283        2.3800549734
  C        -1.1906017007        6.0846305925        5.6087297293
  C        -0.8854855664        4.1095555515        6.9671435049
  C         3.7082634780       -3.4326669988        6.1096480404
  C         3.7504875985        6.8255701309        0.0266756162
  O         1.6842155607        1.4736330811        6.8830606084
  O        -0.3015877935       -1.8303196226        7.9795685127
  O        -2.4530619856       -0.4506912225       10.8754594344
  O        -2.7502190936        9.1315394943        5.6333594353
  O        -0.4710901043        7.9396772701        2.4623943608
  O         1.7518494382        5.7731258887        4.9546498285
  O        -0.5725534784        0.7133318244        8.1813721360
  O         4.0523369110       -0.6612944009        8.3463825334
  O         1.7892034738       -0.2687904756        9.5896120938
  O         1.4001103590        8.2400120356        5.2387746960
  O         3.6454467662        8.1408590058        3.3570355001
  O        -0.9311254240        6.5812589442        4.4514499616
  O        -2.2151001472        2.1832023021        8.5021769192
  O         2.4228016889       -1.1344095397        6.8178745308
  O         0.2603037559       -1.4366253800       10.7411626924
  O        -0.0146497735        9.8396162728        4.5949545503
  O         2.2292431384        6.7382537043        2.3532314349
  O        -2.2874571291        6.3822493498        6.2122324060
  O         2.4319853641        2.2349694733       10.2523888240
  C         2.0180160015        3.3506659629        9.9389877328
  O         1.2138393514        4.0006538917       10.7828238447
  H         2.2659472608        3.8593418199        8.9910312442
  H         0.9112454171        4.8294996965       10.3582565507
      59
 i =      160, E =     -1483.3222426194
 Ni         3.2995626615        0.8762065462        9.1910933119
 Ni         0.8815028507       -0.1255818192        7.4495483560
 Ni        -1.2311393636       -1.1821208775        9.5621843854
 Ni        -1.5121569846        8.8045085899        3.9326091345
 Ni         0.7170440237        6.7123265285        3.5653340710
 Ni         3.0277022112        7.4207167808        5.5780172915
  H         2.7082644495        3.4823374079        5.6897572237
  H        -1.6357500631       11.1011034661        6.9193280473
  H        -1.5299900805       -0.0091837468       13.2953312221
  H        -1.9162668434        4.2774087043        7.2928297713
  H         2.6564740135       -3.2555235546        5.8746055105
  H         2.6823826604        6.6070833952       -0.0155667533
  C         1.0390859470        2.6248111085        6.7681170326
  C        -1.0254546480       -2.6730054210        7.1814254003
  C         3.6397628575       -0.5289937027       11.9847765055
  C         3.4056940247       10.2793368115        5.9742253989
  C        -1.0890309167        7.4838416591        1.3228761715
  C         1.0739821826        4.8782668802        5.7251813925
  C         1.7008821259        3.6705605346        6.0603633678
  C        -2.6849141189       11.2782765052        6.6861917083
  C        -2.5969796175       -0.2168157494       13.2502341086
  C        -0.2804333008        2.8987278981        7.2839006431
  C         4.3779934598       -2.4756535564        6.8691972102
  C         2.2004673165       -0.7649391405       11.9299785418
  C         2.0139470519       10.5056974523        5.6844441963
  C         4.3020053495        7.1752431685        1.2554781948
  C        -0.2889652342        5.0808355405        6.1697166540
  C        -1.0548145451        1.8976887449        8.0182441060
  C         3.5478957893       -1.3614977276        7.3597039933
  C         1.3966595615       -0.8387000078       10.6878943559
  C         1.1019558471        9.4889986056        5.1186471764
  C         3.3611429342        7.3449637728        2.3745672216
  C        -1.1918527927        6.0889173268        5.6111260842
  C        -0.8882993046        4.1148764804        6.9708708176
  C         3.7071251275       -3.4274689167        6.1023579712
  C         3.7505763207        6.8136571697        0.0256345899
  O         1.6816325506        1.4749387844        6.8817872813
  O        -0.3001486740       -1.8294275978        7.9749798063
  O        -2.4531133417       -0.4649444316       10.8746224431
  O        -2.7579422186        9.1297665780        5.6333719380
  O        -0.4736760823        7.9273298726        2.4639143106
  O         1.7503098682        5.7798668033        4.9622382250
  O        -0.5751446981        0.7157383301        8.1803673858
  O         4.0524735381       -0.6686901518        8.3494165897
  O         1.7809355701       -0.2529389074        9.5974456758
  O         1.3982234250        8.2419859012        5.2426057061
  O         3.6510221750        8.1356352017        3.3482395471
  O        -0.9302112160        6.5840712491        4.4528075382
  O        -2.2137392577        2.1895700362        8.5089289918
  O         2.4220240388       -1.1348998263        6.8188802538
  O         0.2606105807       -1.4422337456       10.7360025187
  O        -0.0122618165        9.8386570815        4.5820227933
  O         2.2290031965        6.7341253729        2.3524142025
  O        -2.2869850791        6.3897129556        6.2165289653
  O         2.4438140255        2.1917393074       10.2936872299
  C         2.0391541853        3.3122784504        9.9791063034
  O         1.2109731593        3.9424390589       10.8138516518
  H         2.3090428101        3.8145696587        9.0356656866
  H         0.9250426335        4.7971826698       10.4173303683
      59
 i =      161, E =     -1483.3227685562
 Ni         3.2971112861        0.8800484380        9.1931856451
 Ni         0.8832536570       -0.1252704012        7.4468537686
 Ni        -1.2298348238       -1.1780195355        9.5656905547
 Ni        -1.5111979484        8.8054996473        3.9359989996
 Ni         0.7160553890        6.7132287434        3.5658087587
 Ni         3.0309649515        7.4190299983        5.5730990976
  H         2.7143217178        3.4841139242        5.6975479851
  H        -1.6373432094       11.0948085986        6.9317581795
  H        -1.5298867250        0.0086784148       13.2971309209
  H        -1.9125089533        4.2755451643        7.2931754347
  H         2.6566374925       -3.2582405610        5.8798276549
  H         2.6837789659        6.6144952826       -0.0140311646
  C         1.0426053757        2.6224757631        6.7678640010
  C        -1.0249674937       -2.6751876549        7.1865861595
  C         3.6412481145       -0.5185009458       11.9860472614
  C         3.4083312897       10.2760502783        5.9790906271
  C        -1.0904944333        7.4957274356        1.3245170161
  C         1.0763793978        4.8747506872        5.7224605371
  C         1.7047879577        3.6695058365        6.0632612032
  C        -2.6852403265       11.2744690622        6.6944857101
  C        -2.5967899532       -0.2015682374       13.2514881284
  C        -0.2777360604        2.8960213208        7.2835034362
  C         4.3790905546       -2.4770801647        6.8720231214
  C         2.2028579597       -0.7578224514       11.9327800027
  C         2.0162511949       10.5026039883        5.6881827255
  C         4.3015657769        7.1831189684        1.2586131027
  C        -0.2865031703        5.0778841248        6.1679041922
  C        -1.0538667626        1.8945013630        8.0155890469
  C         3.5494489908       -1.3616622613        7.3622948216
  C         1.3994059281       -0.8344019005       10.6899477380
  C         1.1023521982        9.4865489792        5.1227734164
  C         3.3605876061        7.3482076382        2.3791082828
  C        -1.1905659393        6.0854424872        5.6101376921
  C        -0.8847126283        4.1124710609        6.9710198907
  C         3.7074939075       -3.4310211017        6.1073259275
  C         3.7518000932        6.8221318100        0.0276662405
  O         1.6847687218        1.4737860436        6.8825921545
  O        -0.3001264658       -1.8300942423        7.9786273404
  O        -2.4517841022       -0.4549200256       10.8769083885
  O        -2.7498427291        9.1306734452        5.6344101847
  O        -0.4719986660        7.9375925451        2.4642408821
  O         1.7518657915        5.7744199049        4.9556752041
  O        -0.5719939211        0.7144332038        8.1811565482
  O         4.0503701988       -0.6696121409        8.3546830322
  O         1.7815998277       -0.2518467616        9.5974522871
  O         1.3992731709        8.2399493190        5.2409363468
  O         3.6471581068        8.1382926363        3.3559456118
  O        -0.9312418077        6.5816505327        4.4523644800
  O        -2.2139193132        2.1835895188        8.5052615039
  O         2.4243613038       -1.1342528499        6.8193495028
  O         0.2642766842       -1.4392087409       10.7405266462
  O        -0.0146815771        9.8389033400        4.5941363235
  O         2.2294157473        6.7356186859        2.3526850113
  O        -2.2865147767        6.3841440408        6.2150337088
  O         2.4359399309        2.2260645210       10.2648771741
  C         2.0248013129        3.3432998646        9.9481580542
  O         1.2148386272        3.9919381087       10.7879463129
  H         2.2803349708        3.8469015083        9.0001937407
  H         0.9198817253        4.8279060159       10.3715315862
      59
 i =      162, E =     -1483.3229315829
 Ni         3.2944995758        0.8813692947        9.1965601033
 Ni         0.8838516736       -0.1250279181        7.4453166411
 Ni        -1.2281936773       -1.1776847046        9.5669197096
 Ni        -1.5107244771        8.8046458974        3.9365481244
 Ni         0.7162229480        6.7127107645        3.5670044995
 Ni         3.0306449805        7.4191499688        5.5732488179
  H         2.7139231176        3.4831870499        5.6952189522
  H        -1.6366890349       11.0940976540        6.9292165612
  H        -1.5285970121        0.0066773193       13.2988948518
  H        -1.9103779940        4.2774082504        7.2966190909
  H         2.6574323718       -3.2556127878        5.8784633800
  H         2.6844305226        6.6138760433       -0.0141730030
  C         1.0425920464        2.6220900638        6.7671057713
  C        -1.0240667762       -2.6753803244        7.1861845379
  C         3.6421435339       -0.5183455817       11.9872068732
  C         3.4087632512       10.2760617718        5.9778889597
  C        -1.0898714120        7.4941273351        1.3255506664
  C         1.0768534435        4.8745740748        5.7232004182
  C         1.7052868206        3.6693614442        6.0630129329
  C        -2.6849689439       11.2739394487        6.6939351759
  C        -2.5953524812       -0.2038952717       13.2527566757
  C        -0.2768882189        2.8962369124        7.2860170270
  C         4.3801507885       -2.4766917719        6.8717650320
  C         2.2047765047       -0.7602876942       11.9339128312
  C         2.0164003085       10.5028765542        5.6874328738
  C         4.3018124362        7.1823758978        1.2594559443
  C        -0.2853360109        5.0788499789        6.1702199362
  C        -1.0538411424        1.8938765482        8.0163873316
  C         3.5510443686       -1.3621214068        7.3651915288
  C         1.4002179083       -0.8326760005       10.6917374162
  C         1.1015901105        9.4862938150        5.1242290296
  C         3.3614563845        7.3463202899        2.3799193280
  C        -1.1900672999        6.0849987682        5.6107742256
  C        -0.8830920291        4.1130707594        6.9733889741
  C         3.7081645506       -3.4300722694        6.1062743384
  C         3.7528971914        6.8200519586        0.0282873804
  O         1.6852675076        1.4743265450        6.8831074719
  O        -0.2987821104       -1.8299722372        7.9778631645
  O        -2.4514527388       -0.4547192684       10.8777196429
  O        -2.7488403306        9.1302065028        5.6351124333
  O        -0.4711257310        7.9386246700        2.4646220721
  O         1.7528391039        5.7737174278        4.9560306385
  O        -0.5717871251        0.7138045140        8.1807584370
  O         4.0457157615       -0.6778823474        8.3663673148
  O         1.7782864472       -0.2439746333        9.6016196405
  O         1.3994451385        8.2404304521        5.2397720469
  O         3.6474220926        8.1384438139        3.3557444008
  O        -0.9305926478        6.5815942687        4.4536721906
  O        -2.2140729205        2.1825464548        8.5066662106
  O         2.4268710136       -1.1332022107        6.8204519390
  O         0.2670620579       -1.4408464973       10.7403822082
  O        -0.0145773844        9.8392359874        4.5940467379
  O         2.2290735684        6.7363229310        2.3530344743
  O        -2.2861664500        6.3843725903        6.2148389138
  O         2.4350220186        2.2249026786       10.2714413649
  C         2.0256065136        3.3428741193        9.9521808744
  O         1.2159886511        3.9926427196       10.7901879533
  H         2.2867432588        3.8432582827        9.0042165337
  H         0.9269176797        4.8317477413       10.3776912125
      59
 i =      163, E =     -1483.3227433175
 Ni         3.2892424945        0.8879002240        9.2090185006
 Ni         0.8828736501       -0.1264671670        7.4409831432
 Ni        -1.2223382927       -1.1793372646        9.5773100620
 Ni        -1.5111689777        8.8033434574        3.9414855879
 Ni         0.7177026906        6.7146854159        3.5675931050
 Ni         3.0307936981        7.4188607754        5.5765382026
  H         2.7098837453        3.4782739975        5.6853502327
  H        -1.6340278932       11.0923246880        6.9216035328
  H        -1.5245611523        0.0016307863       13.3085512571
  H        -1.9050561840        4.2826537394        7.3071640487
  H         2.6604708877       -3.2483711837        5.8753803771
  H         2.6878916164        6.6112594497       -0.0128190527
  C         1.0424472327        2.6210318660        6.7679606964
  C        -1.0209215928       -2.6762769951        7.1856335365
  C         3.6477433068       -0.5215631103       11.9932593933
  C         3.4083685663       10.2768376592        5.9770590686
  C        -1.0876852048        7.4888270320        1.3314720198
  C         1.0770193008        4.8729856071        5.7234284439
  C         1.7043146489        3.6673034656        6.0603123618
  C        -2.6825123915       11.2741667523        6.6904589943
  C        -2.5919686812       -0.2064184663       13.2601049504
  C        -0.2760572718        2.8957599911        7.2914832276
  C         4.3839836287       -2.4746130714        6.8738558516
  C         2.2110444831       -0.7634977217       11.9401925728
  C         2.0159930372       10.5047618964        5.6866258128
  C         4.3041077287        7.1774908362        1.2644858391
  C        -0.2825388931        5.0816500172        6.1767817981
  C        -1.0536335116        1.8915426346        8.0203547694
  C         3.5546375325       -1.3681693092        7.3854908563
  C         1.4051027712       -0.8232296392       10.6989022224
  C         1.1036461585        9.4879469546        5.1211548249
  C         3.3614580221        7.3462785583        2.3820193784
  C        -1.1876718101        6.0864770798        5.6147248422
  C        -0.8790910863        4.1153939051        6.9808343004
  C         3.7110241331       -3.4251650796        6.1040975716
  C         3.7574389466        6.8136337952        0.0326041424
  O         1.6858128574        1.4736519875        6.8840961724
  O        -0.2967433534       -1.8288581249        7.9771399980
  O        -2.4503617468       -0.4483286643       10.8835570168
  O        -2.7492100150        9.1296474766        5.6354062669
  O        -0.4707215405        7.9419442671        2.4696453747
  O         1.7535974870        5.7726711520        4.9567669617
  O        -0.5758270070        0.7089686187        8.1767817434
  O         4.0249645905       -0.7172812071        8.4239624573
  O         1.7720626335       -0.2167096410        9.6177093172
  O         1.3978380379        8.2399883860        5.2425474820
  O         3.6493772685        8.1363099207        3.3568035387
  O        -0.9300256601        6.5796187809        4.4546776583
  O        -2.2155845624        2.1801835436        8.5086383309
  O         2.4386720050       -1.1268388770        6.8266527594
  O         0.2793097234       -1.4425004100       10.7417168695
  O        -0.0157680654        9.8387966831        4.5992981931
  O         2.2298765491        6.7347087683        2.3532817722
  O        -2.2847865579        6.3833156869        6.2162728701
  O         2.4332979374        2.2294937347       10.2898026415
  C         2.0291979976        3.3494629083        9.9608585863
  O         1.2149123362        4.0027582352       10.7919554232
  H         2.3065920657        3.8365953439        9.0110929950
  H         0.9425753523        4.8502501178       10.3892306630
      59
 i =      164, E =     -1483.3230006198
 Ni         3.2911929577        0.8875346886        9.2089367873
 Ni         0.8833543907       -0.1274905450        7.4436093696
 Ni        -1.2228831376       -1.1791802848        9.5807570584
 Ni        -1.5121743180        8.8026531565        3.9451840017
 Ni         0.7166481532        6.7141725947        3.5682216973
 Ni         3.0305409054        7.4190012446        5.5758800393
  H         2.7100157055        3.4781508061        5.6870655745
  H        -1.6339752143       11.0924107866        6.9252975276
  H        -1.5244695580        0.0061289309       13.3087305378
  H        -1.9059145732        4.2813423351        7.3068732027
  H         2.6602556234       -3.2498581966        5.8777832167
  H         2.6888844609        6.6120980735       -0.0107046869
  C         1.0427455531        2.6198610292        6.7683978654
  C        -1.0189641006       -2.6756035269        7.1877302554
  C         3.6474204143       -0.5176473350       11.9963191313
  C         3.4091475842       10.2765362514        5.9787328798
  C        -1.0883248664        7.4931390793        1.3331460670
  C         1.0774273803        4.8728867849        5.7235243179
  C         1.7036909184        3.6660332630        6.0602462465
  C        -2.6820324671       11.2742589492        6.6921570261
  C        -2.5913171400       -0.2038460330       13.2621351658
  C        -0.2756580796        2.8955738584        7.2898610115
  C         4.3849996059       -2.4777421456        6.8777302893
  C         2.2111559490       -0.7610124020       11.9416686920
  C         2.0175702779       10.5060346809        5.6862827131
  C         4.3044851195        7.1792289745        1.2658228991
  C        -0.2829733275        5.0798630323        6.1749782005
  C        -1.0541520861        1.8915372678        8.0179133191
  C         3.5562121601       -1.3706178855        7.3875782717
  C         1.4066068179       -0.8218742596       10.6998000857
  C         1.1026872733        9.4878798287        5.1242295302
  C         3.3612408800        7.3460210480        2.3830463796
  C        -1.1891154896        6.0846883333        5.6138235025
  C        -0.8797744249        4.1152222515        6.9808654109
  C         3.7106874510       -3.4260020951        6.1063414692
  C         3.7575281309        6.8164793168        0.0340479937
  O         1.6859436659        1.4721779353        6.8837377297
  O        -0.2964195562       -1.8299786943        7.9816572630
  O        -2.4486659795       -0.4473799197       10.8866692699
  O        -2.7485009414        9.1298643535        5.6357482894
  O        -0.4716324331        7.9410800178        2.4726057316
  O         1.7538180576        5.7713179413        4.9556959566
  O        -0.5760926533        0.7090990476        8.1774407791
  O         4.0302428338       -0.7138562477        8.4196337762
  O         1.7689175393       -0.2063692284        9.6208093716
  O         1.3988135163        8.2408157422        5.2419768005
  O         3.6468892243        8.1379714902        3.3582595951
  O        -0.9312559721        6.5780107603        4.4544065456
  O        -2.2152413858        2.1800671492        8.5067688550
  O         2.4417230697       -1.1249606038        6.8291260473
  O         0.2807510241       -1.4406538793       10.7423470558
  O        -0.0155581769        9.8388144791        4.5981696639
  O         2.2291303920        6.7354302942        2.3537196507
  O        -2.2850445745        6.3844821225        6.2175058975
  O         2.4334052982        2.2379633153       10.2811045028
  C         2.0279503189        3.3564484625        9.9523933714
  O         1.2157724541        4.0127814376       10.7847939256
  H         2.2981435897        3.8433560438        9.0009872253
  H         0.9394237953        4.8559950052       10.3764135509
      59
 i =      165, E =     -1483.3228513438
 Ni         3.2930781182        0.8889354626        9.2145393095
 Ni         0.8867837251       -0.1310801728        7.4503335872
 Ni        -1.2191081366       -1.1834431765        9.5979933115
 Ni        -1.5163466601        8.7969598022        3.9668969168
 Ni         0.7153136154        6.7141146968        3.5685521485
 Ni         3.0307974956        7.4186041771        5.5742460855
  H         2.7116444149        3.4751369089        5.6890396167
  H        -1.6298549981       11.0890165585        6.9353867909
  H        -1.5218387411        0.0179962605       13.3180058394
  H        -1.9015430660        4.2814265263        7.3142562265
  H         2.6653027158       -3.2504079444        5.8855602071
  H         2.6941948238        6.6123763861       -0.0030548973
  C         1.0446884057        2.6184917953        6.7715114352
  C        -1.0142952257       -2.6797187709        7.1999008891
  C         3.6525546326       -0.5096365517       12.0086967154
  C         3.4139165891       10.2795706555        5.9796170202
  C        -1.0877452593        7.5030363140        1.3438068507
  C         1.0796650588        4.8708369517        5.7231562449
  C         1.7042639960        3.6618317357        6.0590443327
  C        -2.6764839767       11.2737495154        6.6977121865
  C        -2.5883182912       -0.1937074501       13.2738262813
  C        -0.2729804085        2.8941911396        7.2898758002
  C         4.3900764424       -2.4841833786        6.8915059011
  C         2.2169828435       -0.7536043326       11.9506431670
  C         2.0220641470       10.5073483651        5.6870215934
  C         4.3074858800        7.1831016302        1.2729785676
  C        -0.2807681677        5.0771007805        6.1747661621
  C        -1.0546523274        1.8891869522        8.0139146472
  C         3.5658461802       -1.3763849278        7.4036602042
  C         1.4123335993       -0.8061767371       10.7093204279
  C         1.1025072620        9.4886701126        5.1266995458
  C         3.3608270491        7.3491168332        2.3877214670
  C        -1.1881300008        6.0821983141        5.6152408812
  C        -0.8767040427        4.1151313555        6.9848300083
  C         3.7153123276       -3.4270504621        6.1134436071
  C         3.7611178950        6.8212829274        0.0412055233
  O         1.6854324556        1.4685713840        6.8828696459
  O        -0.2938055029       -1.8303226441        7.9900484983
  O        -2.4434150739       -0.4411283700       10.8976893783
  O        -2.7478724446        9.1305433485        5.6374534627
  O        -0.4758713634        7.9438523031        2.4874757481
  O         1.7548694782        5.7678928193        4.9528438010
  O        -0.5777795056        0.7056522818        8.1756454088
  O         4.0387655310       -0.7198519767        8.4353810909
  O         1.7530970700       -0.1510017009        9.6431106066
  O         1.4005314172        8.2421152811        5.2430367090
  O         3.6406593483        8.1411861957        3.3656403394
  O        -0.9302013364        6.5727229454        4.4555179046
  O        -2.2140197216        2.1763763672        8.5036039410
  O         2.4588526982       -1.1185468436        6.8416270100
  O         0.2949061303       -1.4403167025       10.7448268967
  O        -0.0159035583        9.8396819827        4.5985715350
  O         2.2290559114        6.7374864126        2.3551559155
  O        -2.2842997690        6.3841290709        6.2183685687
  O         2.4320779303        2.2662540715       10.2641290763
  C         2.0259631435        3.3814166464        9.9286309501
  O         1.2216570665        4.0549591375       10.7593202720
  H         2.2818163464        3.8593374584        8.9685349043
  H         0.9420069914        4.8897309620       10.3363846963
      59
 i =      166, E =     -1483.3231664889
 Ni         3.2926931456        0.8895928521        9.2108305076
 Ni         0.8852609472       -0.1271766282        7.4482968541
 Ni        -1.2187574301       -1.1864575293        9.5911076504
 Ni        -1.5147535662        8.7957327609        3.9553557866
 Ni         0.7161426221        6.7150030519        3.5684448732
 Ni         3.0306667296        7.4198767964        5.5769111583
  H         2.7115467996        3.4749209984        5.6897935952
  H        -1.6284767186       11.0896197419        6.9335326501
  H        -1.5241265220        0.0201025210       13.3189849214
  H        -1.9034657155        4.2788040570        7.3101516317
  H         2.6651050074       -3.2505270982        5.8876507447
  H         2.6921690591        6.6136458690       -0.0035701771
  C         1.0431580536        2.6183595433        6.7690026198
  C        -1.0161064423       -2.6809979041        7.1994367954
  C         3.6503911727       -0.5075833370       12.0056886713
  C         3.4144869078       10.2797875599        5.9795086294
  C        -1.0890331984        7.5010508834        1.3412578160
  C         1.0772277017        4.8693387975        5.7215203421
  C         1.7046096054        3.6636196401        6.0608903637
  C        -2.6761918888       11.2729637653        6.6990531972
  C        -2.5907216228       -0.1923741772       13.2713335073
  C        -0.2745067634        2.8932191234        7.2893730113
  C         4.3883892289       -2.4821599382        6.8923023954
  C         2.2144437523       -0.7519467028       11.9485070010
  C         2.0215392186       10.5062886881        5.6887115996
  C         4.3051556290        7.1842940507        1.2727451897
  C        -0.2822355079        5.0774710244        6.1755882547
  C        -1.0555343934        1.8887660542        8.0139203813
  C         3.5642193551       -1.3731045749        7.4018182660
  C         1.4078077198       -0.8051637726       10.7073369064
  C         1.1024097139        9.4889194958        5.1262774505
  C         3.3605146856        7.3485301480        2.3888301998
  C        -1.1874628651        6.0836918450        5.6155476767
  C        -0.8785653719        4.1121927381        6.9807876834
  C         3.7150381416       -3.4282222909        6.1166695920
  C         3.7599257762        6.8210705627        0.0402780586
  O         1.6856829121        1.4703943639        6.8835703964
  O        -0.2926501212       -1.8313002624        7.9865237463
  O        -2.4444175739       -0.4421845466       10.8944241743
  O        -2.7475703542        9.1309636174        5.6349012620
  O        -0.4712377923        7.9420867798        2.4803525602
  O         1.7536412999        5.7694519463        4.9551091277
  O        -0.5767812123        0.7066351625        8.1754040483
  O         4.0384789042       -0.7125688505        8.4293505030
  O         1.7590096811       -0.1670594006        9.6368618804
  O         1.4008231646        8.2427979469        5.2424039856
  O         3.6399748490        8.1402933135        3.3667889632
  O        -0.9301169915        6.5759258638        4.4555593627
  O        -2.2148552578        2.1763002634        8.5045050580
  O         2.4555344139       -1.1186643124        6.8428870844
  O         0.2890760397       -1.4389287371       10.7438382086
  O        -0.0163168109        9.8388539342        4.5984294347
  O         2.2287601772        6.7371898276        2.3550935502
  O        -2.2847640151        6.3828202007        6.2169788540
  O         2.4306532320        2.2675249211       10.2599594458
  C         2.0231800621        3.3827791669        9.9255943776
  O         1.2190482670        4.0544964982       10.7570105849
  H         2.2783383780        3.8631689385        8.9658924253
  H         0.9358652057        4.8872109943       10.3308042624
      59
 i =      167, E =     -1483.3233471539
 Ni         3.2916707601        0.8913791178        9.2080952065
 Ni         0.8819376249       -0.1233816546        7.4428917736
 Ni        -1.2159770279       -1.1894763688        9.5917580989
 Ni        -1.5113763183        8.7967243521        3.9547085607
 Ni         0.7162611646        6.7136243612        3.5695456810
 Ni         3.0306226387        7.4207475938        5.5793347500
  H         2.7116940835        3.4743173770        5.6908133068
  H        -1.6279894559       11.0893854171        6.9316902833
  H        -1.5269378731        0.0256017543       13.3227788589
  H        -1.9059577450        4.2761159242        7.3052169398
  H         2.6638995533       -3.2502402683        5.8922537432
  H         2.6899626682        6.6154345328       -0.0041631225
  C         1.0410727801        2.6175988487        6.7648542039
  C        -1.0162701419       -2.6803465883        7.1983040964
  C         3.6487628884       -0.5041365242       12.0022313300
  C         3.4137914545       10.2780921943        5.9817265535
  C        -1.0904713359        7.5008171951        1.3398176861
  C         1.0760090995        4.8696296673        5.7223140067
  C         1.7049234000        3.6652305227        6.0620561544
  C        -2.6770619210       11.2713766311        6.7011010943
  C        -2.5928247053       -0.1902951087       13.2690230359
  C        -0.2770696103        2.8916727483        7.2884910798
  C         4.3872647566       -2.4812126008        6.8953138493
  C         2.2123767430       -0.7477688399       11.9482151373
  C         2.0211491712       10.5063982065        5.6911558988
  C         4.3030693212        7.1854545308        1.2741916368
  C        -0.2841198022        5.0768596787        6.1744342664
  C        -1.0560332224        1.8871666680        8.0148228335
  C         3.5634580705       -1.3699298633        7.4031174494
  C         1.4062493611       -0.8063554428       10.7054522519
  C         1.1048301713        9.4886889339        5.1265933139
  C         3.3607810574        7.3472455038        2.3921777022
  C        -1.1878856375        6.0846030114        5.6156658678
  C        -0.8804407604        4.1099640152        6.9774836229
  C         3.7138175162       -3.4291408264        6.1217290220
  C         3.7580939102        6.8237032208        0.0408234336
  O         1.6852658214        1.4721505629        6.8857642881
  O        -0.2937979928       -1.8299784468        7.9857933024
  O        -2.4463471414       -0.4385286077       10.8917660796
  O        -2.7467944466        9.1305561932        5.6357640056
  O        -0.4710961397        7.9440412471        2.4772339701
  O         1.7528622908        5.7705175257        4.9577280694
  O        -0.5762276055        0.7064059497        8.1742567821
  O         4.0355658512       -0.7143554138        8.4351887439
  O         1.7701721138       -0.1961025126        9.6270893778
  O         1.4001164133        8.2417632682        5.2417381757
  O         3.6415339190        8.1413974653        3.3692609426
  O        -0.9300625994        6.5796509668        4.4567479280
  O        -2.2159699790        2.1745691357        8.5065198731
  O         2.4535813425       -1.1166873346        6.8463552477
  O         0.2867487200       -1.4395523787       10.7472581066
  O        -0.0136241781        9.8409791441        4.6008452563
  O         2.2280689965        6.7382870848        2.3548130498
  O        -2.2853335103        6.3818910814        6.2170726669
  O         2.4269343324        2.2763109718       10.2512890017
  C         2.0169386190        3.3911457352        9.9162298460
  O         1.2175924868        4.0646479661       10.7485889358
  H         2.2711643266        3.8729005579        8.9557809094
  H         0.9294685534        4.8926976385       10.3149857155
      59
 i =      168, E =     -1483.3232784231
 Ni         3.2914292705        0.8955257947        9.2118356787
 Ni         0.8814940148       -0.1211461456        7.4435160262
 Ni        -1.2090244185       -1.1938636176        9.6009599166
 Ni        -1.5131935246        8.7934055590        3.9604797126
 Ni         0.7159864942        6.7149855963        3.5703421347
 Ni         3.0300100646        7.4191249094        5.5821134647
  H         2.7107638363        3.4714530849        5.6904008088
  H        -1.6251361916       11.0870511618        6.9342449261
  H        -1.5267931699        0.0377909511       13.3318361689
  H        -1.9061529542        4.2741099656        7.3068801798
  H         2.6651330643       -3.2487236376        5.9016328942
  H         2.6917164119        6.6179540536        0.0004815327
  C         1.0401793328        2.6155069576        6.7636538382
  C        -1.0126896296       -2.6816539525        7.2041337182
  C         3.6501538459       -0.4940309533       12.0084911460
  C         3.4152346934       10.2768538875        5.9865828842
  C        -1.0907899289        7.5053515017        1.3456425249
  C         1.0750713228        4.8673293158        5.7215434974
  C         1.7042046292        3.6634954938        6.0619882306
  C        -2.6745963248       11.2698169317        6.7054159974
  C        -2.5920589460       -0.1812070142       13.2752067456
  C        -0.2781637760        2.8891630907        7.2870479856
  C         4.3901973372       -2.4830156766        6.9054002723
  C         2.2146419250       -0.7390395166       11.9545800153
  C         2.0221251010       10.5064519625        5.6971089928
  C         4.3036705318        7.1883851160        1.2806796011
  C        -0.2846096997        5.0754035378        6.1752104981
  C        -1.0566706768        1.8848230258        8.0143106606
  C         3.5688053196       -1.3717325856        7.4189622210
  C         1.4105894187       -0.7991493713       10.7103423002
  C         1.1057819308        9.4895216493        5.1298781999
  C         3.3600491194        7.3488098365        2.3980083263
  C        -1.1883633253        6.0835990513        5.6165294525
  C        -0.8811900345        4.1077987675        6.9774780257
  C         3.7151994619       -3.4290701812        6.1300556093
  C         3.7592100101        6.8289335586        0.0464745374
  O         1.6853526189        1.4713177396        6.8867514793
  O        -0.2903021221       -1.8305482224        7.9897465858
  O        -2.4443317529       -0.4305051796       10.8980679237
  O        -2.7463891239        9.1291179579        5.6382463567
  O        -0.4708361352        7.9462593448        2.4823475337
  O         1.7519657887        5.7687282738        4.9577714080
  O        -0.5773460800        0.7045827208        8.1719691832
  O         4.0327964655       -0.7258754457        8.4611783774
  O         1.7666552713       -0.1783519600        9.6361273121
  O         1.4013992054        8.2425843144        5.2422446232
  O         3.6380422947        8.1410785914        3.3774888784
  O        -0.9325731984        6.5791931854        4.4563866059
  O        -2.2171991349        2.1707187335        8.5053885398
  O         2.4638466403       -1.1068540338        6.8598789365
  O         0.2946697739       -1.4381474069       10.7500923736
  O        -0.0136754514        9.8405581618        4.6049725368
  O         2.2280830838        6.7385502435        2.3560760537
  O        -2.2851509943        6.3810886394        6.2193492849
  O         2.4231143127        2.3071575028       10.2321825126
  C         2.0114488132        3.4194741992        9.8909118760
  O         1.2196166264        4.1061624861       10.7223224215
  H         2.2581146078        3.8939576459        8.9242582123
  H         0.9265406282        4.9241608259       10.2729954627
      59
 i =      169, E =     -1483.3235028159
 Ni         3.2930638372        0.8926145217        9.2094107707
 Ni         0.8836638332       -0.1206529874        7.4499618730
 Ni        -1.2087154151       -1.1913275386        9.5962343512
 Ni        -1.5155819631        8.7933478794        3.9618602198
 Ni         0.7157121143        6.7162226984        3.5681240387
 Ni         3.0290054148        7.4176654809        5.5819767383
  H         2.7100590592        3.4736759842        5.6917301774
  H        -1.6251670668       11.0884326192        6.9340347636
  H        -1.5275462988        0.0351744483       13.3267846083
  H        -1.9089779075        4.2728321172        7.3058513482
  H         2.6647347596       -3.2498987788        5.9040796518
  H         2.6906634942        6.6172852905        0.0012413625
  C         1.0400888655        2.6177421426        6.7665530271
  C        -1.0140438994       -2.6822363688        7.2060848782
  C         3.6497606312       -0.4966307710       12.0079197428
  C         3.4148424151       10.2778447724        5.9866415079
  C        -1.0895988920        7.5030272932        1.3458686568
  C         1.0746442570        4.8688747517        5.7223026205
  C         1.7024537306        3.6632370303        6.0607780217
  C        -2.6742623157       11.2714741287        6.7037981559
  C        -2.5936519606       -0.1804508556       13.2745173965
  C        -0.2791068793        2.8902893877        7.2846147638
  C         4.3893308475       -2.4827920809        6.9042098983
  C         2.2132253686       -0.7381941371       11.9532615965
  C         2.0204265781       10.5045725475        5.7009483631
  C         4.3047140289        7.1872566327        1.2785910112
  C        -0.2860972832        5.0750598546        6.1736633408
  C        -1.0570466608        1.8865947062        8.0125782649
  C         3.5681251504       -1.3686779557        7.4131079018
  C         1.4103293668       -0.8042479514       10.7094147756
  C         1.1048641347        9.4902800879        5.1293357654
  C         3.3596066198        7.3516012385        2.3959065518
  C        -1.1897956938        6.0835596411        5.6155887941
  C        -0.8837915691        4.1083620407        6.9762823999
  C         3.7154080559       -3.4286821945        6.1291752534
  C         3.7573413612        6.8305948987        0.0452347331
  O         1.6840948065        1.4711626981        6.8842159861
  O        -0.2893702480       -1.8307370905        7.9882368648
  O        -2.4431066180       -0.4293800991       10.8995436105
  O        -2.7498560168        9.1282367981        5.6406943525
  O        -0.4731062096        7.9443390204        2.4842453823
  O         1.7506551838        5.7706859688        4.9584731657
  O        -0.5765212965        0.7069966906        8.1725037307
  O         4.0445289905       -0.7083381041        8.4380830448
  O         1.7663322091       -0.1811626555        9.6340559876
  O         1.4012772793        8.2431226087        5.2440444279
  O         3.6383851834        8.1386555056        3.3776397113
  O        -0.9329934675        6.5786322126        4.4554032477
  O        -2.2171329018        2.1714276994        8.5036949325
  O         2.4595126978       -1.1066267746        6.8617813336
  O         0.2925323477       -1.4403021858       10.7462903992
  O        -0.0147606694        9.8404419815        4.6043354984
  O         2.2295249138        6.7371221970        2.3573040175
  O        -2.2860163901        6.3817525668        6.2192276591
  O         2.4256551649        2.3025858647       10.2303930215
  C         2.0146516839        3.4141814633        9.8917592162
  O         1.2214146304        4.0985174434       10.7236638013
  H         2.2595709581        3.8903582445        8.9261815739
  H         0.9271318347        4.9173681480       10.2750439572
      59
 i =      170, E =     -1483.3236199195
 Ni         3.2955200055        0.8897841940        9.2106071168
 Ni         0.8833934247       -0.1210589575        7.4517060048
 Ni        -1.2066622788       -1.1843145925        9.5937522804
 Ni        -1.5144598068        8.7947127590        3.9563526222
 Ni         0.7155412914        6.7159209083        3.5683544653
 Ni         3.0271815379        7.4202659928        5.5838022991
  H         2.7060097124        3.4745896163        5.6874777379
  H        -1.6273128095       11.0922098666        6.9262557396
  H        -1.5266680632        0.0236715016       13.3218014189
  H        -1.9118953771        4.2755179868        7.3059903987
  H         2.6618961285       -3.2483380696        5.8988818646
  H         2.6903925490        6.6144642354       -0.0007461127
  C         1.0387057938        2.6193812153        6.7680354724
  C        -1.0142983929       -2.6781628577        7.1996435513
  C         3.6487160076       -0.5012307875       12.0077871551
  C         3.4107741909       10.2762022673        5.9878063824
  C        -1.0899303357        7.4985586711        1.3444036387
  C         1.0741412142        4.8725362851        5.7253263827
  C         1.6991950694        3.6634137602        6.0582742763
  C        -2.6765335768       11.2743591885        6.6970802222
  C        -2.5925078974       -0.1905241509       13.2739035575
  C        -0.2800412502        2.8937278544        7.2855238042
  C         4.3879850672       -2.4810713886        6.8982132929
  C         2.2130338044       -0.7451859035       11.9506915629
  C         2.0188214668       10.5077941956        5.6969164329
  C         4.3043607590        7.1833869073        1.2761826411
  C        -0.2876835472        5.0767587535        6.1737222402
  C        -1.0578948813        1.8895197834        8.0117896887
  C         3.5651027599       -1.3688302347        7.4100348446
  C         1.4111363847       -0.8103648516       10.7073969933
  C         1.1030413839        9.4910262851        5.1303111259
  C         3.3598793838        7.3480586429        2.3931825691
  C        -1.1924231135        6.0839231914        5.6146792424
  C        -0.8859019223        4.1121567433        6.9785547155
  C         3.7121540204       -3.4265498776        6.1250647284
  C         3.7579394751        6.8243275453        0.0427597338
  O         1.6839716194        1.4723639689        6.8836685501
  O        -0.2913247526       -1.8301910223        7.9875054530
  O        -2.4423981021       -0.4313949976       10.9007039859
  O        -2.7509942457        9.1287252045        5.6392626960
  O        -0.4728787127        7.9395727560        2.4828986898
  O         1.7505891089        5.7724509075        4.9606190647
  O        -0.5766524872        0.7099107186        8.1740050968
  O         4.0434420596       -0.7143796802        8.4389670151
  O         1.7665100885       -0.1865739762        9.6309736516
  O         1.3989140488        8.2434214196        5.2449679324
  O         3.6410327302        8.1368212185        3.3729708451
  O        -0.9317266133        6.5798688642        4.4569204083
  O        -2.2172530335        2.1750838907        8.5044008804
  O         2.4537643429       -1.1086236729        6.8607860097
  O         0.2919158819       -1.4424343482       10.7449514910
  O        -0.0151295757        9.8408766862        4.6026266112
  O         2.2287038661        6.7357933140        2.3572128895
  O        -2.2871506085        6.3852945586        6.2198319152
  O         2.4323867259        2.2818073377       10.2472709999
  C         2.0250784312        3.3947057818        9.9109139855
  O         1.2209007444        4.0681752985       10.7403306932
  H         2.2802433878        3.8703765156        8.9498888027
  H         0.9356353272        4.8980441056       10.3070980138
      59
 i =      171, E =     -1483.3237296770
 Ni         3.2944834132        0.8911026640        9.2109469568
 Ni         0.8829088743       -0.1181347297        7.4518656385
 Ni        -1.2018013422       -1.1866973197        9.5957711828
 Ni        -1.5136818163        8.7942458949        3.9588324991
 Ni         0.7156493463        6.7155433581        3.5696845173
 Ni         3.0271049297        7.4215350790        5.5850890465
  H         2.7057552322        3.4742492178        5.6877191159
  H        -1.6260109149       11.0923741554        6.9260356212
  H        -1.5273213008        0.0282950798       13.3252224886
  H        -1.9126066620        4.2743886778        7.3046457770
  H         2.6617765410       -3.2479759501        5.9037238298
  H         2.6904009359        6.6160408106        0.0004032778
  C         1.0371231609        2.6189908704        6.7656935259
  C        -1.0138540693       -2.6787700932        7.2021750266
  C         3.6491733115       -0.4972024152       12.0091350907
  C         3.4117666583       10.2778784377        5.9869913538
  C        -1.0905225765        7.5002639121        1.3462066671
  C         1.0730189753        4.8719325603        5.7252188111
  C         1.6992055365        3.6641432784        6.0591985706
  C        -2.6762861637       11.2733592400        6.7002703501
  C        -2.5927947527       -0.1876232079       13.2757836092
  C        -0.2814547993        2.8925606746        7.2853006866
  C         4.3883787091       -2.4809044043        6.9022996870
  C         2.2134859244       -0.7425467464       11.9519794604
  C         2.0183846821       10.5077456038        5.7001059881
  C         4.3035573167        7.1854494992        1.2784050201
  C        -0.2885610936        5.0767024342        6.1740821111
  C        -1.0588107009        1.8885648528        8.0123526631
  C         3.5669217915       -1.3688424993        7.4173933072
  C         1.4119593225       -0.8086806886       10.7082129859
  C         1.1025247570        9.4912433478        5.1325893980
  C         3.3593840550        7.3480005189        2.3955782044
  C        -1.1924910283        6.0842731928        5.6151659800
  C        -0.8865766887        4.1108559367        6.9773687716
  C         3.7120477960       -3.4267022488        6.1297791721
  C         3.7582169106        6.8258307134        0.0442389920
  O         1.6833702546        1.4734547899        6.8841492183
  O        -0.2893651641       -1.8296938408        7.9872913842
  O        -2.4404131940       -0.4274929082       10.9028960960
  O        -2.7509293571        9.1293363909        5.6404289665
  O        -0.4726444340        7.9425104745        2.4837370600
  O         1.7503039795        5.7724630888        4.9621868722
  O        -0.5777466784        0.7091014737        8.1738993969
  O         4.0439671335       -0.7154961995        8.4471338621
  O         1.7691857764       -0.1912026835        9.6297283428
  O         1.3988558672        8.2438908056        5.2449398670
  O         3.6402957837        8.1374578243        3.3756493946
  O        -0.9315340312        6.5799736000        4.4571936771
  O        -2.2189620359        2.1738186426        8.5032097790
  O         2.4565920913       -1.1041682770        6.8693265931
  O         0.2934177458       -1.4421524647       10.7469471943
  O        -0.0144506372        9.8426490350        4.6030794691
  O         2.2276972321        6.7369007672        2.3573557860
  O        -2.2878616874        6.3843721251        6.2190352380
  O         2.4298569184        2.2929441444       10.2392550807
  C         2.0216383782        3.4049172777        9.9004848619
  O         1.2211241579        4.0829002462       10.7293945951
  H         2.2748609869        3.8783931023        8.9373831528
  H         0.9348934158        4.9091914172       10.2904654734
      59
 i =      172, E =     -1483.3237699162
 Ni         3.2945051967        0.8909408832        9.2120568888
 Ni         0.8840009950       -0.1193565454        7.4533164448
 Ni        -1.1992594336       -1.1871357149        9.5954740036
 Ni        -1.5144444441        8.7946642902        3.9597252333
 Ni         0.7157975561        6.7159731797        3.5697976347
 Ni         3.0275383086        7.4212275540        5.5846278880
  H         2.7047603049        3.4746576677        5.6866610215
  H        -1.6261664470       11.0933650498        6.9247174673
  H        -1.5265182714        0.0263766284       13.3269007160
  H        -1.9125747909        4.2756471198        7.3052469413
  H         2.6613270240       -3.2471752855        5.9046484006
  H         2.6912198472        6.6147830614        0.0001318580
  C         1.0364760756        2.6193689981        6.7655600753
  C        -1.0139509650       -2.6785291207        7.2021051515
  C         3.6509332226       -0.4976617293       12.0097164140
  C         3.4111414029       10.2787603693        5.9865695825
  C        -1.0898215713        7.4998428597        1.3470203077
  C         1.0725351459        4.8724023127        5.7254331420
  C         1.6986499116        3.6647825626        6.0593811110
  C        -2.6764470933       11.2741806276        6.6993239447
  C        -2.5921043871       -0.1887696969       13.2769859117
  C        -0.2818956259        2.8929128283        7.2858522684
  C         4.3880829843       -2.4806695845        6.9035494239
  C         2.2151205625       -0.7438524461       11.9525593041
  C         2.0175206594       10.5084058420        5.7006671703
  C         4.3043079899        7.1846853956        1.2786361700
  C        -0.2886189360        5.0777482290        6.1751889552
  C        -1.0590132052        1.8889892175        8.0136079553
  C         3.5671746739       -1.3687520492        7.4190590665
  C         1.4136943041       -0.8090484640       10.7087930477
  C         1.1022322757        9.4917613108        5.1325103099
  C         3.3594087832        7.3477031264        2.3950189818
  C        -1.1923479664        6.0847839554        5.6152706352
  C        -0.8865741011        4.1116108850        6.9780414761
  C         3.7118025114       -3.4256534320        6.1301644944
  C         3.7585083607        6.8260878688        0.0446453972
  O         1.6822307361        1.4735876260        6.8843584106
  O        -0.2885365745       -1.8296216491        7.9863534113
  O        -2.4369182219       -0.4255214438       10.9047895903
  O        -2.7517683727        9.1299339634        5.6403298706
  O        -0.4733014159        7.9441798327        2.4848648869
  O         1.7498577301        5.7726827829        4.9623227930
  O        -0.5782412097        0.7088043143        8.1743178113
  O         4.0435504604       -0.7163873722        8.4494407456
  O         1.7684434677       -0.1877636727        9.6309627324
  O         1.3990250203        8.2442898574        5.2452846370
  O         3.6404335868        8.1371263033        3.3750010834
  O        -0.9316288154        6.5796536805        4.4567498923
  O        -2.2196910160        2.1743645724        8.5029005318
  O         2.4573809306       -1.1042304831        6.8699933971
  O         0.2949347505       -1.4420266545       10.7466095262
  O        -0.0148672630        9.8427128495        4.6033027745
  O         2.2274076853        6.7372324440        2.3567403231
  O        -2.2879743891        6.3840890162        6.2188651683
  O         2.4309228014        2.2916776762       10.2415025262
  C         2.0239080558        3.4033987674        9.9019826753
  O         1.2223205598        4.0810697041       10.7297739369
  H         2.2799374294        3.8750815441        8.9392267266
  H         0.9392441529        4.9098908583       10.2938604755
      59
 i =      173, E =     -1483.3238630140
 Ni         3.2953904220        0.8896669084        9.2143017580
 Ni         0.8852235523       -0.1200584598        7.4561450747
 Ni        -1.1930688464       -1.1873789179        9.5974760252
 Ni        -1.5152978671        8.7943071125        3.9603536566
 Ni         0.7157266794        6.7169629343        3.5703485950
 Ni         3.0276202551        7.4217107234        5.5836946618
  H         2.7026220358        3.4763242052        5.6854332432
  H        -1.6263347473       11.0962838294        6.9212578625
  H        -1.5245110253        0.0232018950       13.3323603248
  H        -1.9137931420        4.2784958328        7.3055798078
  H         2.6597575796       -3.2454541500        5.9089810845
  H         2.6937868207        6.6129282141       -0.0010534955
  C         1.0351302480        2.6208676236        6.7671677549
  C        -1.0144792616       -2.6777740919        7.2031609493
  C         3.6558271707       -0.4974469087       12.0119423300
  C         3.4098953820       10.2811034084        5.9856622342
  C        -1.0896257511        7.4998220051        1.3486446617
  C         1.0715399843        4.8733504166        5.7257155406
  C         1.6970452361        3.6658961677        6.0597936369
  C        -2.6767734667       11.2767737085        6.6970590815
  C        -2.5901322105       -0.1906148518       13.2808648428
  C        -0.2835002180        2.8943072456        7.2869391699
  C         4.3868812090       -2.4804146651        6.9076815764
  C         2.2193851400       -0.7451353444       11.9524633822
  C         2.0157068253       10.5101002021        5.7019120781
  C         4.3044982563        7.1845830218        1.2788476122
  C        -0.2884771688        5.0800449394        6.1779725194
  C        -1.0604011968        1.8897336484        8.0144320560
  C         3.5668437003       -1.3680714155        7.4221269955
  C         1.4165969118       -0.8086830313       10.7097882024
  C         1.1013008415        9.4932830308        5.1322822147
  C         3.3592454318        7.3474283909        2.3940301300
  C        -1.1918684221        6.0856108895        5.6158317213
  C        -0.8876834643        4.1134179662        6.9789379378
  C         3.7106985373       -3.4241091113        6.1330014801
  C         3.7612227797        6.8239544547        0.0441630312
  O         1.6811629608        1.4745118473        6.8840560356
  O        -0.2883263273       -1.8284893876        7.9862608775
  O        -2.4256096031       -0.4187859954       10.9118002646
  O        -2.7526906563        9.1322214193        5.6388947937
  O        -0.4741783226        7.9449121392        2.4867022890
  O         1.7480666520        5.7739355294        4.9626912329
  O        -0.5796908430        0.7085406039        8.1759842221
  O         4.0449205745       -0.7164860156        8.4513946352
  O         1.7692653050       -0.1855328060        9.6314142172
  O         1.3986431823        8.2455185858        5.2451971392
  O         3.6405274040        8.1360419983        3.3741194034
  O        -0.9309360607        6.5791440427        4.4567986896
  O        -2.2208513249        2.1752821951        8.5043041342
  O         2.4577044178       -1.1041342164        6.8715843409
  O         0.2987242794       -1.4442735925       10.7459242202
  O        -0.0159852126        9.8430375152        4.6033427659
  O         2.2269376010        6.7373862953        2.3567805679
  O        -2.2885945217        6.3844411908        6.2174884522
  O         2.4336064804        2.2884780864       10.2459276281
  C         2.0289268569        3.3996439866        9.9035686173
  O         1.2238727642        4.0774467450       10.7272268544
  H         2.2910996821        3.8669289776        8.9406360551
  H         0.9493382652        4.9123435285       10.2976588489
      59
 i =      174, E =     -1483.3211461543
 Ni         3.3022630463        0.8819893136        9.2317586413
 Ni         0.8922455928       -0.1223971192        7.4753108176
 Ni        -1.1482451823       -1.1902040970        9.6057829576
 Ni        -1.5205255681        8.7934937791        3.9658280973
 Ni         0.7142971273        6.7231840817        3.5749805917
 Ni         3.0283415705        7.4238612473        5.5781902820
  H         2.6856932728        3.4877797520        5.6756287638
  H        -1.6271836946       11.1205768991        6.8922486802
  H        -1.5093548925       -0.0004906724       13.3780785509
  H        -1.9244168977        4.2991643072        7.3068153326
  H         2.6455567133       -3.2320479965        5.9453654063
  H         2.7157830204        6.5980068480       -0.0128305810
  C         1.0233160718        2.6313532886        6.7747773033
  C        -1.0187267103       -2.6707138951        7.2105166437
  C         3.6983294789       -0.4910373121       12.0269041580
  C         3.3999695823       10.2993057669        5.9795519423
  C        -1.0873533290        7.4983717437        1.3626615577
  C         1.0619807132        4.8820542568        5.7296162776
  C         1.6845792058        3.6754686851        6.0621105359
  C        -2.6803558692       11.2963074198        6.6815262493
  C        -2.5752633186       -0.2045194472       13.3119444129
  C        -0.2966070749        2.9038385852        7.2938644396
  C         4.3771085881       -2.4781865275        6.9383391558
  C         2.2561574973       -0.7537254658       11.9501277855
  C         2.0012485201       10.5228128076        5.7125537844
  C         4.3070936504        7.1813876767        1.2803499127
  C        -0.2908817018        5.0961399927        6.1964906020
  C        -1.0698810177        1.8971392172        8.0253783655
  C         3.5636624969       -1.3615849413        7.4438915497
  C         1.4424911660       -0.8127440350       10.7151701581
  C         1.0950637534        9.5032592877        5.1325439398
  C         3.3578756132        7.3457321826        2.3869655289
  C        -1.1910285419        6.0922580390        5.6203345962
  C        -0.8968904358        4.1268633402        6.9868324664
  C         3.6996392953       -3.4142467584        6.1578211618
  C         3.7834183155        6.8108785991        0.0391375838
  O         1.6710071687        1.4828879857        6.8837950007
  O        -0.2826538315       -1.8227416733        7.9854321414
  O        -2.3166634851       -0.3577029332       10.9728747206
  O        -2.7603792788        9.1499626098        5.6292964857
  O        -0.4797830725        7.9508732950        2.5012552434
  O         1.7333227113        5.7834034738        4.9660577526
  O        -0.5898393714        0.7090270364        8.1867585195
  O         4.0490782856       -0.7154494282        8.4663868118
  O         1.7772569573       -0.1712224098        9.6342001382
  O         1.3956526050        8.2527161329        5.2449735361
  O         3.6420951568        8.1285503245        3.3679449807
  O        -0.9289256575        6.5758514384        4.4568867455
  O        -2.2307436429        2.1831472596        8.5148382667
  O         2.4588363456       -1.1017166016        6.8817973182
  O         0.3245808650       -1.4540439458       10.7406226512
  O        -0.0229740649        9.8467369449        4.6059401250
  O         2.2239026497        6.7373066186        2.3554645297
  O        -2.2947847024        6.3868076795        6.2112712678
  O         2.4543486169        2.2685980876       10.2785264626
  C         2.0685605694        3.3754434369        9.9125066491
  O         1.2355040612        4.0544036937       10.7032606430
  H         2.3781787218        3.8067782428        8.9475853860
  H         1.0279939805        4.9362893751       10.3220251286
      59
 i =      175, E =     -1483.3240145483
 Ni         3.2967146270        0.8890145022        9.2164248286
 Ni         0.8851268377       -0.1200622696        7.4584255321
 Ni        -1.1890893645       -1.1876915509        9.5987798211
 Ni        -1.5159047105        8.7947467201        3.9598231007
 Ni         0.7147441464        6.7185098078        3.5708088744
 Ni         3.0277695832        7.4216113068        5.5822037361
  H         2.7003175187        3.4782644736        5.6851075466
  H        -1.6266185601       11.1004889153        6.9165645142
  H        -1.5214884843        0.0204382985       13.3414494413
  H        -1.9156474382        4.2820190745        7.3054184746
  H         2.6568762208       -3.2440208846        5.9154208447
  H         2.6988057899        6.6107260766       -0.0049592968
  C         1.0337111147        2.6224452446        6.7686943090
  C        -1.0155721333       -2.6763627930        7.2039963070
  C         3.6637787784       -0.4960011331       12.0141553348
  C         3.4088610284       10.2839209284        5.9841650426
  C        -1.0890934332        7.4997826444        1.3504457984
  C         1.0698921307        4.8749392826        5.7263884386
  C         1.6951841327        3.6676250703        6.0604387245
  C        -2.6777013622       11.2798886400        6.6949306826
  C        -2.5871456000       -0.1919047496       13.2857660133
  C        -0.2853357447        2.8957257313        7.2880625044
  C         4.3850068590       -2.4801863043        6.9113876398
  C         2.2263955803       -0.7464864119       11.9511947835
  C         2.0138752213       10.5115871402        5.7029728556
  C         4.3052694624        7.1840788027        1.2784926297
  C        -0.2892244620        5.0821997472        6.1804123303
  C        -1.0615362774        1.8910500748        8.0166226768
  C         3.5653226452       -1.3672189026        7.4237959641
  C         1.4213614641       -0.8101836145       10.7097226807
  C         1.1001153588        9.4943725394        5.1326163637
  C         3.3592031336        7.3473977704        2.3925961004
  C        -1.1920937893        6.0865890454        5.6165428935
  C        -0.8891304133        4.1155126716        6.9806526280
  C         3.7082925214       -3.4239418075        6.1373517414
  C         3.7661146671        6.8223140674        0.0424381605
  O         1.6794559061        1.4757510466        6.8844681974
  O        -0.2885835113       -1.8276049831        7.9871451951
  O        -2.4083978905       -0.4095128133       10.9203929915
  O        -2.7529121736        9.1348041787        5.6380051205
  O        -0.4743599723        7.9457918794        2.4881384521
  O         1.7449097518        5.7756549694        4.9624721302
  O        -0.5815355670        0.7088707816        8.1774718766
  O         4.0443894506       -0.7148333507        8.4510047397
  O         1.7717516390       -0.1848968278        9.6311069024
  O         1.3984100244        8.2464255290        5.2446581047
  O         3.6407066011        8.1353099207        3.3730664941
  O        -0.9317267342        6.5792338490        4.4569847895
  O        -2.2221642341        2.1762346613        8.5066709230
  O         2.4566463364       -1.1041378523        6.8707495703
  O         0.3027540310       -1.4454334054       10.7451350636
  O        -0.0175004654        9.8437544761        4.6048562834
  O         2.2268850702        6.7371061358        2.3563785827
  O        -2.2897063880        6.3849249077        6.2172719757
  O         2.4370121988        2.2851180408       10.2513257053
  C         2.0351119695        3.3957095329        9.9045316591
  O         1.2251702487        4.0739919079       10.7223033142
  H         2.3049160468        3.8572488979        8.9413909035
  H         0.9635072184        4.9168115296       10.3012858223
      59
 i =      176, E =     -1483.3240704759
 Ni         3.2964011214        0.8890020291        9.2169287170
 Ni         0.8841993517       -0.1191312517        7.4580514035
 Ni        -1.1886552220       -1.1878370826        9.5981115711
 Ni        -1.5155398804        8.7946556600        3.9604613173
 Ni         0.7143883555        6.7187657352        3.5713935638
 Ni         3.0274000188        7.4223321849        5.5824868941
  H         2.6996429538        3.4785046464        5.6850807336
  H        -1.6263292937       11.1017962858        6.9153103581
  H        -1.5203782692        0.0204242782       13.3444418293
  H        -1.9163822095        4.2822200078        7.3055072251
  H         2.6560268239       -3.2444719537        5.9180641942
  H         2.7005294178        6.6103201492       -0.0067668360
  C         1.0331603513        2.6225644370        6.7692308935
  C        -1.0160424725       -2.6764325105        7.2046149352
  C         3.6663943360       -0.4961185790       12.0145477912
  C         3.4083915348       10.2842726652        5.9849537630
  C        -1.0890167789        7.5003109843        1.3508500471
  C         1.0692435600        4.8749468009        5.7264215702
  C         1.6944864190        3.6674997701        6.0604017493
  C        -2.6775740037       11.2807506478        6.6944186570
  C        -2.5859373029       -0.1920097100       13.2869433497
  C        -0.2859310703        2.8962170833        7.2884939845
  C         4.3844519151       -2.4803951759        6.9126482672
  C         2.2284568247       -0.7466850620       11.9507119579
  C         2.0133572887       10.5116031035        5.7040680598
  C         4.3056547142        7.1840911478        1.2782808373
  C        -0.2898324983        5.0821386926        6.1802086659
  C        -1.0623985280        1.8913668875        8.0163497645
  C         3.5654382148       -1.3667730300        7.4243556661
  C         1.4217941142       -0.8097966629       10.7098524693
  C         1.0999319950        9.4944534188        5.1332973323
  C         3.3593185563        7.3476045626        2.3924045565
  C        -1.1926234579        6.0866722351        5.6169294583
  C        -0.8898438315        4.1157349355        6.9807422530
  C         3.7078613255       -3.4238376974        6.1382380341
  C         3.7678643258        6.8215425519        0.0417549818
  O         1.6788951338        1.4758277704        6.8844241154
  O        -0.2882542410       -1.8275825395        7.9870918886
  O        -2.4018090877       -0.4086130047       10.9230507617
  O        -2.7527417121        9.1360270065        5.6370915120
  O        -0.4745761374        7.9455239445        2.4887056060
  O         1.7439687804        5.7760506780        4.9625474858
  O        -0.5814800843        0.7097838750        8.1776729632
  O         4.0437459571       -0.7150189676        8.4521675318
  O         1.7721483695       -0.1851520135        9.6311093475
  O         1.3982729026        8.2465893858        5.2442092684
  O         3.6406519216        8.1357031395        3.3729229857
  O        -0.9318139782        6.5790255849        4.4574596544
  O        -2.2229249494        2.1763735832        8.5071565679
  O         2.4565974975       -1.1034338009        6.8718596914
  O         0.3030238473       -1.4452406209       10.7455808504
  O        -0.0177195303        9.8442348141        4.6059520461
  O         2.2268600378        6.7376370777        2.3562653139
  O        -2.2906148190        6.3848563452        6.2170381369
  O         2.4370411943        2.2854737040       10.2521642088
  C         2.0360203451        3.3959898353        9.9034443858
  O         1.2258030358        4.0747431221       10.7197210179
  H         2.3070598149        3.8554497772        8.9398193195
  H         0.9674917181        4.9195337284       10.3000590092
      59
 i =      177, E =     -1483.3241498762
 Ni         3.2945938847        0.8899462783        9.2161784965
 Ni         0.8821942783       -0.1172734117        7.4544697035
 Ni        -1.1922554675       -1.1870847122        9.5970417576
 Ni        -1.5149503585        8.7959632595        3.9592766025
 Ni         0.7136546989        6.7197728324        3.5716111668
 Ni         3.0266683605        7.4220328983        5.5832648415
  H         2.6996232418        3.4783469993        5.6861967248
  H        -1.6257060482       11.1036501379        6.9139474457
  H        -1.5184394635        0.0221808839       13.3482446420
  H        -1.9173568368        4.2807255569        7.3055444474
  H         2.6547099827       -3.2470437047        5.9218341387
  H         2.7036043608        6.6104052651       -0.0112469071
  C         1.0323392826        2.6222399782        6.7686112230
  C        -1.0165379378       -2.6758754967        7.2043524457
  C         3.6696690885       -0.4975414566       12.0150464036
  C         3.4088213638       10.2845391897        5.9852688234
  C        -1.0884085461        7.5004188677        1.3507035910
  C         1.0676070284        4.8743941590        5.7260985277
  C         1.6941735955        3.6675972391        6.0607917326
  C        -2.6778292161       11.2808531641        6.6955008173
  C        -2.5837523675       -0.1910789382       13.2875935969
  C        -0.2867511174        2.8958192069        7.2888118637
  C         4.3841253326       -2.4800512665        6.9119419203
  C         2.2312041194       -0.7472496789       11.9491817810
  C         2.0133424437       10.5107831619        5.7059607256
  C         4.3065258117        7.1846223061        1.2773158815
  C        -0.2917026234        5.0810099844        6.1788267017
  C        -1.0629744380        1.8912981151        8.0171804551
  C         3.5647935218       -1.3667652147        7.4240831409
  C         1.4226116022       -0.8114446219       10.7082391595
  C         1.0998821932        9.4936875956        5.1357369376
  C         3.3595045492        7.3482891044        2.3919787086
  C        -1.1941204610        6.0864491951        5.6165129807
  C        -0.8908556009        4.1147900240        6.9805057750
  C         3.7067254902       -3.4255233017        6.1406130413
  C         3.7706301158        6.8216077334        0.0400762486
  O         1.6781177434        1.4762564572        6.8851034250
  O        -0.2895693458       -1.8271458067        7.9879691009
  O        -2.3950607708       -0.4126871394       10.9251814116
  O        -2.7525063794        9.1369335571        5.6361125425
  O        -0.4735768437        7.9446055492        2.4881196071
  O         1.7413833118        5.7761049474        4.9616533220
  O        -0.5803407019        0.7111491120        8.1768357636
  O         4.0425799802       -0.7137203383        8.4517255702
  O         1.7732099187       -0.1886263592        9.6294213646
  O         1.3983174662        8.2461198138        5.2439697220
  O         3.6407954467        8.1366794051        3.3726126245
  O        -0.9331094359        6.5796659578        4.4575501651
  O        -2.2241588693        2.1757865042        8.5075332513
  O         2.4562790405       -1.1031675781        6.8710116376
  O         0.3015678367       -1.4424725287       10.7472707649
  O        -0.0180851674        9.8452173332        4.6097720392
  O         2.2273976998        6.7379254126        2.3556229831
  O        -2.2918197665        6.3844359659        6.2175974666
  O         2.4351031150        2.2872309740       10.2526442422
  C         2.0350888752        3.3979858191        9.9004517336
  O         1.2260812700        4.0778048743       10.7151085126
  H         2.3065961600        3.8550960927        8.9358885489
  H         0.9724119962        4.9247485188       10.2956375867
      59
 i =      178, E =     -1483.3241819911
 Ni         3.2951184126        0.8915306534        9.2141095478
 Ni         0.8813418749       -0.1171074525        7.4538465183
 Ni        -1.1935053109       -1.1870337250        9.5969565676
 Ni        -1.5147168605        8.7964310852        3.9596899137
 Ni         0.7128802770        6.7209940028        3.5714969568
 Ni         3.0267281111        7.4212439612        5.5829646757
  H         2.6999357337        3.4781936163        5.6879575376
  H        -1.6254069817       11.1039691271        6.9148768937
  H        -1.5176742603        0.0244175297       13.3503040373
  H        -1.9177258025        4.2796577987        7.3067130551
  H         2.6541629408       -3.2495177474        5.9242803130
  H         2.7055549401        6.6104945290       -0.0127269369
  C         1.0327642327        2.6221053335        6.7688720804
  C        -1.0161678664       -2.6754986748        7.2042032987
  C         3.6721256931       -0.4980023234       12.0160241338
  C         3.4094068373       10.2837408946        5.9863582939
  C        -1.0876413671        7.5008069418        1.3519269220
  C         1.0666824291        4.8743928249        5.7261927316
  C         1.6939484992        3.6676067133        6.0609047267
  C        -2.6776248217       11.2806537941        6.6961959529
  C        -2.5828515793       -0.1896929147       13.2887464135
  C        -0.2861329203        2.8959398815        7.2890321038
  C         4.3841958918       -2.4803644822        6.9123408066
  C         2.2339675865       -0.7474993162       11.9492203082
  C         2.0140541490       10.5102658074        5.7069268941
  C         4.3074972629        7.1850080315        1.2772306280
  C        -0.2931188500        5.0795641301        6.1776514744
  C        -1.0627521875        1.8909498826        8.0157186328
  C         3.5646833043       -1.3665878030        7.4241775732
  C         1.4238754610       -0.8099329169       10.7082332257
  C         1.0995536775        9.4934065060        5.1378215799
  C         3.3597370435        7.3484406238        2.3921239131
  C        -1.1953730556        6.0856293747        5.6160583621
  C        -0.8913288530        4.1143524850        6.9813496507
  C         3.7062754139       -3.4270800170        6.1427761496
  C         3.7722039766        6.8228758900        0.0396567798
  O         1.6781636633        1.4758739271        6.8852653569
  O        -0.2891758327       -1.8273490053        7.9882083529
  O        -2.3934881934       -0.4110801074       10.9269661440
  O        -2.7517466054        9.1368391084        5.6362807582
  O        -0.4729036415        7.9463433116        2.4887395483
  O         1.7397921940        5.7751047870        4.9600580811
  O        -0.5797484453        0.7116011132        8.1760057276
  O         4.0424728732       -0.7131716560        8.4522454229
  O         1.7746652212       -0.1872039943        9.6301293623
  O         1.3987025644        8.2460177111        5.2443735189
  O         3.6408474692        8.1372876759        3.3730013182
  O        -0.9337463478        6.5801455050        4.4581381289
  O        -2.2230716547        2.1751649972        8.5083851410
  O         2.4562977344       -1.1022774235        6.8713543738
  O         0.3035251963       -1.4426155130       10.7464164060
  O        -0.0190872018        9.8463971074        4.6137711287
  O         2.2279401074        6.7375211158        2.3555758820
  O        -2.2923232076        6.3845390163        6.2186402733
  O         2.4352994724        2.2910630823       10.2502868447
  C         2.0357646091        3.4012092324        9.8960853208
  O         1.2268159461        4.0833499711       10.7095255960
  H         2.3060311410        3.8569109238        8.9307040511
  H         0.9754655972        4.9306080805       10.2890376765
      59
 i =      179, E =     -1483.3242447330
 Ni         3.2961078914        0.8926633662        9.2114303828
 Ni         0.8808720657       -0.1177536125        7.4529491269
 Ni        -1.1940030158       -1.1872353787        9.5967274686
 Ni        -1.5148722296        8.7974678208        3.9597721896
 Ni         0.7117846133        6.7231786219        3.5720590679
 Ni         3.0259950269        7.4210509622        5.5830177699
  H         2.7004465328        3.4782579352        5.6907445475
  H        -1.6250841752       11.1041850065        6.9166679015
  H        -1.5173003108        0.0288037167       13.3522036312
  H        -1.9186003598        4.2773481135        7.3075063626
  H         2.6531645007       -3.2542029769        5.9285449737
  H         2.7074948251        6.6117566835       -0.0145276890
  C         1.0327484364        2.6214570804        6.7683591483
  C        -1.0163946620       -2.6754316171        7.2050949533
  C         3.6739967948       -0.4961680684       12.0170421281
  C         3.4104738928       10.2830304279        5.9880865344
  C        -1.0871927672        7.5023500206        1.3529931969
  C         1.0645790520        4.8733491371        5.7255202204
  C         1.6937390969        3.6678192797        6.0619776972
  C        -2.6770654796       11.2810911339        6.6969263760
  C        -2.5818876564       -0.1880983415       13.2896800253
  C        -0.2860106603        2.8952348478        7.2887043484
  C         4.3839680838       -2.4809539808        6.9129631408
  C         2.2367220358       -0.7464086915       11.9498717637
  C         2.0149993048       10.5089437479        5.7097319052
  C         4.3085307767        7.1857737055        1.2771751198
  C        -0.2956379490        5.0775223132        6.1757585098
  C        -1.0616974906        1.8905119978        8.0160047779
  C         3.5644067452       -1.3661471372        7.4235196299
  C         1.4266824309       -0.8106981171       10.7077921107
  C         1.0988614297        9.4936559092        5.1411412692
  C         3.3599695337        7.3489225060        2.3924225543
  C        -1.1968512367        6.0854974845        5.6160540721
  C        -0.8923928727        4.1129031864        6.9813105368
  C         3.7058019433       -3.4294632398        6.1458784756
  C         3.7743163379        6.8236109308        0.0392696285
  O         1.6781593090        1.4753414937        6.8859957151
  O        -0.2888873087       -1.8269998121        7.9882049255
  O        -2.3925567198       -0.4107872921       10.9281348067
  O        -2.7516051881        9.1365134160        5.6368598733
  O        -0.4726508237        7.9473585324        2.4897983337
  O         1.7361824485        5.7735616223        4.9578978490
  O        -0.5791754491        0.7116009964        8.1741289643
  O         4.0434997574       -0.7119904310        8.4517360441
  O         1.7762516893       -0.1867546591        9.6307011058
  O         1.3987743739        8.2463997179        5.2446682699
  O         3.6408636517        8.1377560379        3.3739212107
  O        -0.9351476159        6.5809738103        4.4583772245
  O        -2.2228343227        2.1733253166        8.5075735379
  O         2.4556409371       -1.1026798439        6.8715394839
  O         0.3056509373       -1.4419375178       10.7471378341
  O        -0.0218172654        9.8484323428        4.6225825592
  O         2.2284345900        6.7378127955        2.3557259737
  O        -2.2936980841        6.3843112536        6.2187621163
  O         2.4354747544        2.2969746134       10.2458043695
  C         2.0364000040        3.4065211856        9.8877055050
  O         1.2270623763        4.0930157578       10.6984801726
  H         2.3039316170        3.8602567863        8.9201799897
  H         0.9787882999        4.9397226068       10.2745262595
      59
 i =      180, E =     -1482.9728599752
 Ni         3.2041714521        0.7229675224        9.4614303828
 Ni         0.9416157946       -0.0608524757        7.4813263472
 Ni        -1.0632783625       -1.1683809635        9.6785610310
 Ni        -1.5123238476        8.7951396104        4.0230992567
 Ni         0.7170755560        6.6773914665        3.5723422817
 Ni         3.0893937251        7.4464340839        5.5630947493
  H         2.6879790195        3.5120681758        5.6854020905
  H        -1.6199911083       11.1202043437        6.9139143562
  H        -1.5013273815        0.0233051455       13.3502028338
  H        -1.9279847229        4.2785279792        7.3147781365
  H         2.6542187004       -3.2478572887        5.9484433186
  H         2.7259300825        6.6039107820       -0.0015537975
  C         1.0214842079        2.6478276141        6.8366307393
  C        -0.9820856478       -2.6935006416        7.1429119661
  C         3.6539330337       -0.5566802197       12.0218293409
  C         3.3589277168       10.3239574972        5.9743138966
  C        -1.0609196027        7.4597382692        1.2794144718
  C         1.0589070440        4.8608066311        5.6801831932
  C         1.6918493585        3.6324455413        6.0311371875
  C        -2.6753236656       11.2314278389        6.7335914827
  C        -2.5494576965       -0.0902971405       13.3733935787
  C        -0.3078952590        2.9167425714        7.3072464724
  C         4.3590338700       -2.4345003928        6.9737878235
  C         2.1671732231       -0.8012037846       11.8726034245
  C         1.9520831021       10.5408292788        5.7294397721
  C         4.2622343262        7.2200292802        1.3778113328
  C        -0.2759349295        5.1045802529        6.2305591829
  C        -1.1288624723        1.8887558998        7.9013361101
  C         3.6134552665       -1.4038103218        7.5265966039
  C         1.3681396050       -0.7152528008       10.8183180563
  C         1.0983345048        9.4979846030        5.1980405968
  C         3.3831343220        7.3581992845        2.3748471310
  C        -1.2126506521        6.0358940573        5.5573739139
  C        -0.9042280125        4.1280377330        6.9377576970
  C         3.7565625879       -3.3686121321        6.1734576321
  C         3.7071460480        6.8512246912        0.0786715365
  O         1.7052985431        1.5059253370        6.8410605451
  O        -0.3377369092       -1.8272693612        8.0073731585
  O        -2.3436300289       -0.3648886252       10.7920813329
  O        -2.7308296391        9.1202547360        5.6301693098
  O        -0.4773285710        7.9804567734        2.4719567228
  O         1.6671780947        5.7988475684        4.9674972616
  O        -0.5887119528        0.5802642159        8.3001608709
  O         3.9353694757       -0.7726811507        8.4045991950
  O         1.8014133350       -0.1639533246        9.5479181652
  O         1.3493846219        8.1811331114        5.2080289799
  O         3.6276940195        8.1158641440        3.3331443000
  O        -0.8699193212        6.5617886774        4.4856034164
  O        -2.2048680991        2.2456263773        8.5334667160
  O         2.5216493122       -1.0792349003        6.8583377749
  O         0.2451264836       -1.5168070591       10.6657871229
  O        -0.0362859474        9.9637599796        4.8216208117
  O         2.2045880001        6.7442225924        2.3579998916
  O        -2.3112530850        6.3693255395        6.2289451594
  O         2.4178666458        2.3563803505       10.0951811035
  C         2.0031856075        3.4110155693        9.8049320341
  O         1.3001701182        4.2088376156       10.4560003082
  H         2.3536187597        3.8184489287        8.8618187544
  H         1.0170397886        4.9817108913       10.1681927030
      59
 i =      181, E =     -1483.0242355019
 Ni         3.2222810117        0.7421631194        9.4146105205
 Ni         0.9327568173       -0.0724192417        7.4644183599
 Ni        -1.0720543870       -1.1716687666        9.6737560402
 Ni        -1.5152708941        8.8131282890        4.0249731078
 Ni         0.6978716626        6.7164782657        3.5834798010
 Ni         3.0762712878        7.4436133693        5.5641371734
  H         2.6977413909        3.5130357157        5.7360420239
  H        -1.6152061606       11.1239952453        6.9467351115
  H        -1.4953539652        0.1006328508       13.3823350598
  H        -1.9433094579        4.2375022833        7.3286430525
  H         2.6360048678       -3.3337179292        6.0218315494
  H         2.7602124023        6.6268330065       -0.0349453251
  C         1.0215843322        2.6360191285        6.8268059835
  C        -0.9875099650       -2.6928393221        7.1585507400
  C         3.6859349784       -0.5239775575       12.0395044353
  C         3.3782996446       10.3115137967        6.0042657987
  C        -1.0528493686        7.4871844928        1.2969630514
  C         1.0216706416        4.8420923640        5.6674098344
  C         1.6891888005        3.6369510203        6.0514261253
  C        -2.6653746623       11.2402566505        6.7450138715
  C        -2.5314328363       -0.0656761636       13.3897565544
  C        -0.3048464204        2.9047391474        7.3010630875
  C         4.3535833681       -2.4451314711        6.9826885300
  C         2.2155006070       -0.7830144187       11.8828600650
  C         1.9693270504       10.5165937882        5.7780232357
  C         4.2802115059        7.2335334832        1.3765356385
  C        -0.3207687281        5.0679529570        6.1961798912
  C        -1.1080145070        1.8828699570        7.9084409504
  C         3.6090707524       -1.3947965223        7.5115983919
  C         1.4195663861       -0.7318630396       10.8097105621
  C         1.0868091356        9.5027263635        5.2549021155
  C         3.3877366095        7.3672218950        2.3791076675
  C        -1.2383933236        6.0343094050        5.5575322459
  C        -0.9228684016        4.1025367294        6.9366989685
  C         3.7484332429       -3.4116667538        6.2259876467
  C         3.7449160083        6.8612553395        0.0709473573
  O         1.7049687339        1.4960687406        6.8537436408
  O        -0.3325353630       -1.8204502220        8.0057463303
  O        -2.3293388246       -0.3615758024       10.8094929332
  O        -2.7273250690        9.1139978118        5.6401079321
  O        -0.4728462461        7.9983241097        2.4903394493
  O         1.6034048762        5.7709838351        4.9288578849
  O        -0.5788170943        0.5795127165        8.2653455074
  O         3.9539457444       -0.7509418070        8.3910253794
  O         1.8304676991       -0.1571778238        9.5560520323
  O         1.3508315067        8.1876768793        5.2134476724
  O         3.6280871651        8.1241701197        3.3482641265
  O        -0.8946546649        6.5762920657        4.4898491856
  O        -2.1995074738        2.2139997452        8.5185965910
  O         2.5082094413       -1.0885390965        6.8606356233
  O         0.2816379599       -1.5036052101       10.6785021202
  O        -0.0841190356        9.9993707796        4.9757038771
  O         2.2135005292        6.7494363016        2.3614071891
  O        -2.3357164747        6.3659740863        6.2306843544
  O         2.4221326499        2.4572921478       10.0176331511
  C         2.0150328169        3.5011777636        9.6605963096
  O         1.3035462965        4.3745699436       10.2632459117
  H         2.3154575504        3.8751868873        8.6807041905
  H         1.0742811701        5.1379913413        9.9181927030
      59
 i =      182, E =     -1483.1523892781
 Ni         3.2328030416        0.7740276102        9.3833924878
 Ni         0.9238314493       -0.0787649065        7.4714465742
 Ni        -1.1010197647       -1.1738426372        9.6546274542
 Ni        -1.5143545946        8.7978717649        4.0051694916
 Ni         0.7132348454        6.6952456812        3.5731453862
 Ni         3.0691987368        7.4393970897        5.5698882665
  H         2.6918681385        3.5025625118        5.6920552091
  H        -1.6207818677       11.1165302107        6.9174790388
  H        -1.5054722687        0.0332911908       13.3542101166
  H        -1.9278659235        4.2730577481        7.3134779284
  H         2.6516554665       -3.2588726185        5.9518215552
  H         2.7235277472        6.6090453804       -0.0088923883
  C         1.0239949785        2.6387172589        6.8153466414
  C        -0.9924057423       -2.6877874653        7.1629098554
  C         3.6628009661       -0.5351664089       12.0217693108
  C         3.3760755699       10.3109450894        5.9814673423
  C        -1.0678286207        7.4750474450        1.3024276107
  C         1.0557615106        4.8622662162        5.6916020056
  C         1.6911249355        3.6428723567        6.0416160261
  C        -2.6748807028       11.2470324878        6.7242401497
  C        -2.5572259454       -0.1167332711       13.3502490431
  C        -0.3021096297        2.9085478911        7.3006626436
  C         4.3657917351       -2.4492380107        6.9578796654
  C         2.1922314756       -0.7830016240       11.8964754607
  C         1.9721756240       10.5292546437        5.7299402113
  C         4.2776627144        7.2110330567        1.3481773049
  C        -0.2872840916        5.0925142448        6.2108025342
  C        -1.1074801030        1.8880346127        7.9354379466
  C         3.5985489719       -1.3922395124        7.4960881921
  C         1.3908257746       -0.7452476641       10.7853223041
  C         1.0968559194        9.4973971463        5.1895202343
  C         3.3770858778        7.3565919179        2.3802461475
  C        -1.2115549093        6.0499694525        5.5743599589
  C        -0.9036954094        4.1203575848        6.9498555950
  C         3.7405007366       -3.3908545718        6.1723156596
  C         3.7303688884        6.8439226835        0.0664518017
  O         1.6971549213        1.4962859550        6.8559565318
  O        -0.3223821626       -1.8264879541        8.0019677437
  O        -2.3564350010       -0.3765068474       10.8334432543
  O        -2.7368341793        9.1241025170        5.6341380453
  O        -0.4760734416        7.9744767893        2.4786882147
  O         1.6801749632        5.7883691943        4.9608545713
  O        -0.5846984117        0.6181369711        8.2594584111
  O         3.9699544880       -0.7523610008        8.4169128606
  O         1.7977930262       -0.1708787235        9.5729441039
  O         1.3635100967        8.2010571762        5.2200668409
  O         3.6314479209        8.1231277170        3.3464917434
  O        -0.8922256957        6.5690733737        4.4780681061
  O        -2.2098887681        2.2203513568        8.5244970713
  O         2.5011539155       -1.0872934341        6.8628311631
  O         0.2664751753       -1.4932105743       10.6909353600
  O        -0.0373068015        9.9325701546        4.7812458460
  O         2.2127259640        6.7431800405        2.3572560909
  O        -2.3095646633        6.3729509575        6.2258278112
  O         2.4230275043        2.3508433759       10.1296405844
  C         2.0138176069        3.4202170591        9.8114671032
  O         1.2794264870        4.1941303536       10.5029699277
  H         2.3357245969        3.8367500867        8.8570682400
  H         1.0124044294        4.9876674331       10.1681927030
      59
 i =      183, E =     -1483.2976181089
 Ni         3.2807900513        0.8953694983        9.1713212819
 Ni         0.9161796734       -0.1427474787        7.5014159745
 Ni        -1.2142471507       -1.1871170935        9.6334667766
 Ni        -1.5188466471        8.7951746605        3.9583505509
 Ni         0.7095217420        6.7555383013        3.5759952256
 Ni         2.9894364443        7.4085641182        5.6169425920
  H         2.6885183754        3.4716499515        5.7127965983
  H        -1.6133838433       11.1142302482        6.9041665761
  H        -1.5709861426        0.0827412032       13.3835165433
  H        -1.9419824601        4.2375806225        7.3049325256
  H         2.6515652248       -3.2899558555        6.0065914450
  H         2.7255589604        6.6469629157       -0.0240685164
  C         1.0234847566        2.6049581471        6.7581150760
  C        -1.0132661822       -2.6579884216        7.2462632867
  C         3.6603431341       -0.4455464016       12.0208082137
  C         3.4218211173       10.2805210765        6.0214509506
  C        -1.0848132339        7.5248290252        1.3665024827
  C         1.0311274083        4.8612477459        5.7198184550
  C         1.6775345872        3.6730538745        6.0798407286
  C        -2.6702908227       11.3053469376        6.7046260918
  C        -2.6251379465       -0.2138267328       13.2864656607
  C        -0.3015599084        2.8564116694        7.2781239502
  C         4.3825472054       -2.4791689202        6.9704070353
  C         2.2317951530       -0.6873912008       11.9562871165
  C         2.0243924701       10.5007278740        5.7606140179
  C         4.3139647223        7.2004125875        1.2672834724
  C        -0.3350422489        5.0464008805        6.1646699615
  C        -1.0477176621        1.8390294247        8.0221376389
  C         3.5770819898       -1.3427616642        7.4715538569
  C         1.4865238946       -0.8433408457       10.6877089033
  C         1.0852291995        9.5052960377        5.1930302865
  C         3.3834439876        7.3571002794        2.3866525099
  C        -1.2110972207        6.0866474846        5.6207350454
  C        -0.9137489377        4.0782851558        6.9867781103
  C         3.6969765338       -3.4555676285        6.2334576006
  C         3.7928481098        6.8393607268        0.0301779208
  O         1.6668949354        1.4648610443        6.9192253367
  O        -0.2659909530       -1.8183647480        8.0248679547
  O        -2.3920376845       -0.3780444157       10.9878007929
  O        -2.7815217843        9.1308154262        5.6392103437
  O        -0.4620718175        7.9572159809        2.4930902158
  O         1.6990179887        5.7458451706        4.9360662521
  O        -0.5803545062        0.6905809064        8.1083683930
  O         4.1039904595       -0.7343343151        8.4561345605
  O         1.8599581656       -0.1823652046        9.6801392161
  O         1.3803680540        8.2578227960        5.2604621237
  O         3.6539844012        8.1275212951        3.3821873103
  O        -0.9561695971        6.5877836927        4.4517827097
  O        -2.2273973272        2.0825341440        8.5122743096
  O         2.4709104832       -1.0994218405        6.9341362823
  O         0.3116819493       -1.3511475244       10.6982868833
  O        -0.0497005848        9.8732123448        4.7045835349
  O         2.2536421123        6.7510655159        2.3624248748
  O        -2.3106710947        6.3783945129        6.2146477136
  O         2.4115475847        2.3696175794       10.1966932667
  C         2.0247967085        3.4782800299        9.7687331131
  O         1.1913611029        4.2172869410       10.5300993531
  H         2.2565993375        3.8907580956        8.7629480291
  H         1.0484007918        5.0607187164       10.0471337008
      59
 i =      184, E =     -1483.3186939817
 Ni         3.2922419438        0.8769607994        9.2322832106
 Ni         0.9039270948       -0.1255835150        7.4784589825
 Ni        -1.2012695570       -1.1994079572        9.6258582073
 Ni        -1.5002668851        8.7747134337        3.9745608802
 Ni         0.7199069879        6.7070642024        3.5600055762
 Ni         3.0164908463        7.4186709806        5.5811615512
  H         2.6924773186        3.4724550510        5.6739825382
  H        -1.6222263628       11.1043611367        6.9084247366
  H        -1.5339418052        0.0060357992       13.3289901657
  H        -1.9170245096        4.2766933005        7.3073248330
  H         2.6542711554       -3.2292770509        5.9209621110
  H         2.6842273394        6.6151782781        0.0153445901
  C         1.0307962598        2.6156274548        6.7773875637
  C        -1.0098911419       -2.6814691595        7.2182531418
  C         3.6468416035       -0.4984880536       12.0219736229
  C         3.4049704753       10.2840826232        5.9850358787
  C        -1.0984366668        7.5036625033        1.3513223636
  C         1.0719631711        4.8727300863        5.7293218443
  C         1.6881835877        3.6563497359        6.0533261787
  C        -2.6755751272       11.2777831708        6.6944239513
  C        -2.6050400518       -0.1934801729       13.2904690600
  C        -0.2896675373        2.8877578432        7.2936757147
  C         4.3919409793       -2.4827456863        6.9206211733
  C         2.2032768408       -0.7367607182       11.9500261465
  C         2.0049347147       10.5080822838        5.7209144042
  C         4.2931725459        7.1840309101        1.2789444001
  C        -0.2894719409        5.0770577023        6.1792516551
  C        -1.0632598125        1.8653620762        8.0092586243
  C         3.5759975726       -1.3738649583        7.4532057814
  C         1.4133515397       -0.7725817866       10.7116491536
  C         1.0935576062        9.4940970005        5.1373598783
  C         3.3593739151        7.3396103556        2.3895429140
  C        -1.1927254231        6.0831458221        5.6199120025
  C        -0.8914951169        4.1080294234        6.9779435239
  C         3.7074030830       -3.4131129353        6.1329910066
  C         3.7483132612        6.8296283751        0.0458483153
  O         1.6870853103        1.4769056092        6.9098227995
  O        -0.2728191308       -1.8468143530        8.0085693399
  O        -2.4184378256       -0.4209616844       10.9352199500
  O        -2.7577654689        9.1355981119        5.6359399512
  O        -0.4701511780        7.9246407123        2.4860193463
  O         1.7535705224        5.7767427265        4.9708868390
  O        -0.5908327669        0.6828610310        8.1490390499
  O         4.0590105004       -0.7423124025        8.4568321259
  O         1.7979423331       -0.1618091461        9.6459625087
  O         1.3827862516        8.2437755588        5.2357517579
  O         3.6517449515        8.1327775219        3.3630333046
  O        -0.9180424744        6.5708168288        4.4627200814
  O        -2.2189240154        2.1579847957        8.5084742391
  O         2.4687227263       -1.1087266851        6.8948992804
  O         0.2925068168       -1.3947780657       10.7333955451
  O        -0.0179544830        9.8574957263        4.5950051111
  O         2.2249155928        6.7315273706        2.3520468482
  O        -2.2938212079        6.3885618202        6.2092027303
  O         2.4360681000        2.2838425846       10.2557016156
  C         2.0359126392        3.3937975467        9.9108632218
  O         1.2062863417        4.0688635829       10.7189711866
  H         2.3190910812        3.8527133312        8.9491737684
  H         0.9596582057        4.9059907895       10.2971337008
      59
 i =      185, E =     -1483.3232273988
 Ni         3.3008079484        0.8882674443        9.2120210049
 Ni         0.8959393634       -0.1275728030        7.4605039589
 Ni        -1.1877529560       -1.2039172068        9.6240918781
 Ni        -1.5213659930        8.7936571728        3.9734007441
 Ni         0.7088089250        6.7343526316        3.5667055352
 Ni         3.0231476816        7.4222921397        5.5796838821
  H         2.6963459950        3.4746768862        5.6996927211
  H        -1.6195082205       11.1090839611        6.9226130243
  H        -1.5135766150        0.0404038338       13.3595806242
  H        -1.9293182831        4.2627646178        7.3124612543
  H         2.6480671270       -3.2716296740        5.9649641291
  H         2.7048954267        6.6227560612       -0.0148465134
  C         1.0279284851        2.6143345086        6.7762608925
  C        -1.0124962537       -2.6837115505        7.2090426181
  C         3.6796559016       -0.4858774911       12.0259265997
  C         3.4106625318       10.2791634288        5.9957964763
  C        -1.0866368729        7.5082031640        1.3509916311
  C         1.0511078795        4.8614824001        5.7193600690
  C         1.6863703792        3.6572668348        6.0605906383
  C        -2.6720524182       11.2750665434        6.7021263781
  C        -2.5757329498       -0.1796718488       13.3002299119
  C        -0.2922268344        2.8876547902        7.2891925048
  C         4.3833930263       -2.4863048773        6.9318976712
  C         2.2423542493       -0.7365903174       11.9601727410
  C         2.0131880032       10.5042240908        5.7335482109
  C         4.3055788762        7.1943518645        1.2831520413
  C        -0.3108137634        5.0668923912        6.1687496257
  C        -1.0596644756        1.8667529356        8.0026685106
  C         3.5674425678       -1.3696247442        7.4448596353
  C         1.4456321980       -0.7824568111       10.7214300365
  C         1.0902768618        9.4954936802        5.1708362784
  C         3.3614959102        7.3474719546        2.3886288803
  C        -1.2119510942        6.0776113276        5.6087435393
  C        -0.9048654443        4.1017341733        6.9773853378
  C         3.7053384567       -3.4374273830        6.1731523662
  C         3.7697647460        6.8324555654        0.0455008657
  O         1.6818115523        1.4762129774        6.9151492367
  O        -0.2827756464       -1.8485764640        8.0047877864
  O        -2.3877170995       -0.4091780324       10.9313013485
  O        -2.7473981569        9.1351683530        5.6475766008
  O        -0.4796097879        7.9601078597        2.4915605146
  O         1.7182616969        5.7664075760        4.9533794871
  O        -0.5929491539        0.6779931742        8.1297231340
  O         4.0567683076       -0.7191300424        8.4510076837
  O         1.8180607893       -0.1709588248        9.6439988292
  O         1.3873084210        8.2446451137        5.2500060456
  O         3.6438860403        8.1333062749        3.3697946204
  O        -0.9392168584        6.5851307709        4.4610321434
  O        -2.2150431095        2.1498717286        8.5120418589
  O         2.4563438550       -1.1128704227        6.8813674007
  O         0.3149862693       -1.4013250040       10.7534747348
  O        -0.0400088422        9.8573552718        4.6783759300
  O         2.2288075538        6.7368576496        2.3505817816
  O        -2.3073153379        6.3775021181        6.2176181276
  O         2.4391178960        2.3365515778       10.2149076848
  C         2.0441317084        3.4359897827        9.8371897893
  O         1.2376371849        4.1508675188       10.6201755716
  H         2.3191856237        3.8720394060        8.8644841743
  H         1.0177086938        4.9932518547       10.1824930403
      59
 i =      186, E =     -1483.3241307962
 Ni         3.3009151606        0.8960691849        9.1993774269
 Ni         0.8836788055       -0.1246111873        7.4431151666
 Ni        -1.1883270251       -1.1974646159        9.6174532984
 Ni        -1.5204058545        8.7980409902        3.9653238396
 Ni         0.7058446461        6.7444187495        3.5788914364
 Ni         3.0227180497        7.4192287009        5.5849615606
  H         2.6937983898        3.4758023728        5.7021122496
  H        -1.6204118897       11.1078683554        6.9197948594
  H        -1.5089799322        0.0485457449       13.3657168943
  H        -1.9345908872        4.2541917146        7.3118308645
  H         2.6466902374       -3.2810468166        5.9776182750
  H         2.7136730499        6.6272817685       -0.0242953085
  C         1.0285306370        2.6149726235        6.7771065950
  C        -1.0127962431       -2.6876056989        7.2162433106
  C         3.6838529067       -0.4898488882       12.0271848859
  C         3.4102043675       10.2731467792        6.0009165163
  C        -1.0832462243        7.5108986641        1.3550981639
  C         1.0425827084        4.8569076363        5.7140938420
  C         1.6829018167        3.6589343470        6.0626871454
  C        -2.6738338681       11.2739508502        6.7012593841
  C        -2.5711338700       -0.1760454310       13.2999634350
  C        -0.2934400608        2.8825964314        7.2846541985
  C         4.3856699909       -2.4920062596        6.9335695935
  C         2.2468121687       -0.7318645552       11.9592512909
  C         2.0107263559       10.4969126953        5.7426254792
  C         4.3127189161        7.1879355515        1.2848308877
  C        -0.3175552279        5.0586212038        6.1681114231
  C        -1.0646631220        1.8676855099        7.9957480374
  C         3.5698232759       -1.3722031702        7.4391318223
  C         1.4484041256       -0.7926547835       10.7172143412
  C         1.0893238962        9.4926506321        5.1767197804
  C         3.3606463347        7.3522269778        2.3923004966
  C        -1.2141642779        6.0737835846        5.6099070479
  C        -0.9104364857        4.0945119354        6.9775892237
  C         3.7049116877       -3.4431608918        6.1797108777
  C         3.7795345123        6.8360468439        0.0443541507
  O         1.6813589348        1.4759610143        6.9188438219
  O        -0.2822149271       -1.8472421092        8.0041667583
  O        -2.3907309959       -0.4117441379       10.9333384214
  O        -2.7539959269        9.1296051234        5.6416465690
  O        -0.4744929207        7.9658569643        2.4931632266
  O         1.7092273106        5.7638681344        4.9512108692
  O        -0.6042993280        0.6790510785        8.1082238606
  O         4.0478475700       -0.7161073710        8.4594435765
  O         1.8156025441       -0.1820384692        9.6374294755
  O         1.3953490049        8.2445730554        5.2536093846
  O         3.6410649586        8.1392871548        3.3733418675
  O        -0.9469879623        6.5865741958        4.4607513135
  O        -2.2206308322        2.1479246051        8.5048683942
  O         2.4601405939       -1.1028804309        6.8788030488
  O         0.3183530926       -1.4154169866       10.7578137968
  O        -0.0423268628        9.8543968177        4.6890384226
  O         2.2274783728        6.7425911469        2.3599654356
  O        -2.3122217028        6.3706456065        6.2136910360
  O         2.4374842440        2.3524384820       10.2056390746
  C         2.0460184108        3.4517267294        9.8146779976
  O         1.2409616369        4.1747988068       10.5911316231
  H         2.3205923144        3.8810685768        8.8376533221
  H         1.0308631670        5.0189440756       10.1434467252
      59
 i =      187, E =     -1483.3242852355
 Ni         3.2969249581        0.8969870853        9.2043341961
 Ni         0.8763195042       -0.1281691245        7.4438650255
 Ni        -1.1952423195       -1.1980178228        9.6071223006
 Ni        -1.5139956249        8.7947346002        3.9558757335
 Ni         0.7103047530        6.7285080116        3.5764266513
 Ni         3.0245692938        7.4180543520        5.5846444136
  H         2.6919916320        3.4766101283        5.6870870686
  H        -1.6226992663       11.1011502612        6.9065526674
  H        -1.5120763778        0.0242869593       13.3568467753
  H        -1.9282399052        4.2637403655        7.3084425363
  H         2.6522062995       -3.2583943340        5.9544307408
  H         2.7097255474        6.6221105044       -0.0160242118
  C         1.0304300313        2.6194327277        6.7762549017
  C        -1.0150049329       -2.6888623253        7.2149265394
  C         3.6773174567       -0.4989704727       12.0214385206
  C         3.4065945274       10.2744170893        5.9922239891
  C        -1.0830945403        7.5051760972        1.3576916720
  C         1.0514638645        4.8648796791        5.7204962513
  C         1.6850740698        3.6642330703        6.0619142397
  C        -2.6788846640       11.2712869131        6.6985270186
  C        -2.5779267111       -0.1894193327       13.2923261137
  C        -0.2919755761        2.8845367785        7.2870349900
  C         4.3871275608       -2.4900452241        6.9257264822
  C         2.2384086141       -0.7350262279       11.9556928958
  C         2.0069320261       10.4991088867        5.7257188650
  C         4.3133683721        7.1800042438        1.2808802318
  C        -0.3073432663        5.0665920310        6.1758196186
  C        -1.0725279540        1.8695215619        7.9920766244
  C         3.5681632691       -1.3705523007        7.4269693695
  C         1.4364644603       -0.8032779191       10.7125579901
  C         1.0922987820        9.4856448970        5.1571301507
  C         3.3593603656        7.3516973028        2.3933192556
  C        -1.2061872741        6.0760847625        5.6140353270
  C        -0.9024433624        4.1009377031        6.9819844694
  C         3.7043146868       -3.4375494751        6.1657826092
  C         3.7784709132        6.8296219878        0.0424881349
  O         1.6783708196        1.4765690015        6.9177608800
  O        -0.2843777441       -1.8499884081        8.0009020097
  O        -2.3946076126       -0.4231543296       10.9326396196
  O        -2.7581080880        9.1300513749        5.6344284245
  O        -0.4679791977        7.9553282593        2.4922596566
  O         1.7247828037        5.7710850014        4.9600941781
  O        -0.6225882178        0.6785527272        8.1023652580
  O         4.0345721011       -0.7200216067        8.4658711926
  O         1.8002470420       -0.1920462175        9.6342149585
  O         1.3999234619        8.2396252982        5.2449843504
  O         3.6397111034        8.1427671972        3.3715512191
  O        -0.9393692387        6.5792631552        4.4578714641
  O        -2.2274147080        2.1539898832        8.4994039953
  O         2.4620983546       -1.0976226864        6.8663519927
  O         0.3144800947       -1.4365473562       10.7539701476
  O        -0.0322796905        9.8410527649        4.6478062389
  O         2.2273940052        6.7411944777        2.3602369580
  O        -2.3093055461        6.3670612751        6.2084443485
  O         2.4393082824        2.3155701782       10.2427103990
  C         2.0512672498        3.4225113147        9.8619518086
  O         1.2349157657        4.1229929513       10.6505192056
  H         2.3429775123        3.8606982564        8.8922390325
  H         1.0216605664        4.9764096433       10.2183270968
      59
 i =      188, E =     -1483.3248349372
 Ni         3.2985963186        0.8912735023        9.2082223656
 Ni         0.8817701166       -0.1301520648        7.4466156821
 Ni        -1.1886242276       -1.1964924941        9.6055527845
 Ni        -1.5150292749        8.7979415791        3.9624079878
 Ni         0.7088864727        6.7289227218        3.5730014340
 Ni         3.0221813686        7.4217052300        5.5825918970
  H         2.6929226734        3.4778302284        5.6900574270
  H        -1.6227477258       11.0997777074        6.9102848966
  H        -1.5130264378        0.0275602795       13.3565608150
  H        -1.9297323641        4.2618572896        7.3062628362
  H         2.6489153337       -3.2627678208        5.9566099099
  H         2.7092517853        6.6222889895       -0.0119805252
  C         1.0269856218        2.6184200852        6.7742908129
  C        -1.0168755605       -2.6878387445        7.2148539776
  C         3.6773559599       -0.4943472889       12.0213877313
  C         3.4089713585       10.2757088375        5.9935680282
  C        -1.0845912484        7.5061582983        1.3572371215
  C         1.0503514714        4.8652930974        5.7229450495
  C         1.6847800102        3.6621851931        6.0612749521
  C        -2.6777078207       11.2727139485        6.7005716367
  C        -2.5786725043       -0.1866729083       13.2944146598
  C        -0.2940354254        2.8853882327        7.2876365824
  C         4.3838836002       -2.4885445856        6.9260784943
  C         2.2400159417       -0.7384982454       11.9548665398
  C         2.0100960635       10.5005162543        5.7280475407
  C         4.3105918520        7.1856937596        1.2821191630
  C        -0.3101431588        5.0671553689        6.1731846528
  C        -1.0727988880        1.8686511410        7.9912665446
  C         3.5659966712       -1.3713198044        7.4305956613
  C         1.4372376858       -0.8042034955       10.7135134837
  C         1.0909484347        9.4894842749        5.1619677264
  C         3.3605988716        7.3503438202        2.3943917455
  C        -1.2100238379        6.0761630922        5.6121003480
  C        -0.9036542651        4.1009745352        6.9788725337
  C         3.7021938819       -3.4391089827        6.1679683340
  C         3.7768688794        6.8297630385        0.0430533029
  O         1.6774604695        1.4777525657        6.9188612352
  O        -0.2835920878       -1.8496224092        7.9996903489
  O        -2.3922952244       -0.4157966740       10.9304562224
  O        -2.7535136891        9.1296888139        5.6406739068
  O        -0.4713057413        7.9529594278        2.4944091327
  O         1.7181220705        5.7673040181        4.9566624652
  O        -0.6164527155        0.6760250787        8.1049836946
  O         4.0431459978       -0.7161152907        8.4569769928
  O         1.7968667450       -0.1882597452        9.6339496214
  O         1.3958915665        8.2418589959        5.2441567792
  O         3.6400008060        8.1438596496        3.3722354022
  O        -0.9378686609        6.5809072699        4.4600260773
  O        -2.2267537503        2.1533241715        8.4977199095
  O         2.4609542232       -1.1052111864        6.8687969953
  O         0.3155569613       -1.4380236046       10.7500611855
  O        -0.0352458721        9.8478168131        4.6589952671
  O         2.2282957957        6.7399254103        2.3561117728
  O        -2.3139084359        6.3681715187        6.2062663314
  O         2.4407916496        2.3197012831       10.2347776875
  C         2.0523265929        3.4250446382        9.8532632257
  O         1.2341548606        4.1306779159       10.6366674339
  H         2.3406234887        3.8619995506        8.8815069296
  H         1.0168586566        4.9805703563       10.2011095238
      59
 i =      189, E =     -1483.3250842505
 Ni         3.2984090542        0.8858081472        9.2099645273
 Ni         0.8827690643       -0.1296671659        7.4476388949
 Ni        -1.1844891085       -1.1930566570        9.5997487429
 Ni        -1.5181581260        8.8005777428        3.9659059109
 Ni         0.7060788046        6.7313650118        3.5743097821
 Ni         3.0216321579        7.4220421530        5.5822649688
  H         2.6915916649        3.4782522912        5.6954895660
  H        -1.6225536695       11.0980045972        6.9165012349
  H        -1.5134474156        0.0376116172       13.3557791291
  H        -1.9356566707        4.2570067427        7.3038106579
  H         2.6466055605       -3.2720892211        5.9624532193
  H         2.7083620552        6.6243185675       -0.0117109328
  C         1.0246342111        2.6157026526        6.7741895806
  C        -1.0160699729       -2.6888068633        7.2136659552
  C         3.6758580538       -0.4892656300       12.0203636894
  C         3.4076118842       10.2725704630        6.0003613395
  C        -1.0850263410        7.5090565680        1.3548505911
  C         1.0453988091        4.8621154182        5.7204564298
  C         1.6821581440        3.6597419775        6.0626387535
  C        -2.6757336919       11.2709610230        6.7020437341
  C        -2.5775396614       -0.1809262463       13.2943029508
  C        -0.2969167687        2.8850601586        7.2838049230
  C         4.3821689718       -2.4899793076        6.9290830032
  C         2.2398848421       -0.7397086024       11.9550383372
  C         2.0096976093       10.4972232478        5.7358676802
  C         4.3099923391        7.1909231340        1.2827141502
  C        -0.3160620790        5.0639996525        6.1686240696
  C        -1.0726504797        1.8681857321        7.9888415229
  C         3.5652320722       -1.3714490975        7.4300022139
  C         1.4362396070       -0.8080588428       10.7148390299
  C         1.0877087058        9.4927157076        5.1675761050
  C         3.3613029600        7.3530677202        2.3944190276
  C        -1.2163617968        6.0741533312        5.6101743694
  C        -0.9089451191        4.0995372296        6.9760561607
  C         3.7023425425       -3.4413542519        6.1711251570
  C         3.7748553392        6.8304087124        0.0437826961
  O         1.6785718613        1.4780148707        6.9211790481
  O        -0.2819929051       -1.8475620845        7.9958199726
  O        -2.3947930136       -0.4105244458       10.9251884264
  O        -2.7532627198        9.1271948129        5.6431526537
  O        -0.4735731620        7.9553033756        2.4940822971
  O         1.7101200187        5.7627524387        4.9535284418
  O        -0.6158948316        0.6734424897        8.1058407723
  O         4.0454259469       -0.7161644516        8.4513713722
  O         1.7927249011       -0.1886951162        9.6339567615
  O         1.3934175673        8.2434332971        5.2453578765
  O         3.6390244966        8.1436371774        3.3739545701
  O        -0.9408520661        6.5835194366        4.4619810023
  O        -2.2253366293        2.1506705526        8.4975718551
  O         2.4582278030       -1.1061093722        6.8735739215
  O         0.3137028701       -1.4416402672       10.7479582097
  O        -0.0405500482        9.8562878971        4.6719914150
  O         2.2297544986        6.7398179370        2.3555891564
  O        -2.3216892604        6.3629085718        6.2056071099
  O         2.4404382422        2.3341018676       10.2156968429
  C         2.0517736869        3.4364895930        9.8306807634
  O         1.2403055923        4.1531247197       10.6082259596
  H         2.3320389869        3.8701978951        8.8564403367
  H         1.0181922053        4.9956811267       10.1631974351
      59
 i =      190, E =     -1483.3252422265
 Ni         3.2957391688        0.8873723285        9.2094258865
 Ni         0.8820191324       -0.1303170715        7.4468892808
 Ni        -1.1879192666       -1.1901142533        9.5981845876
 Ni        -1.5177330819        8.8005552102        3.9632414880
 Ni         0.7064851740        6.7332302039        3.5758902104
 Ni         3.0208367955        7.4213154820        5.5823357079
  H         2.6899581834        3.4776920691        5.6935758152
  H        -1.6235052531       11.0970080549        6.9145057515
  H        -1.5141636076        0.0350545312       13.3536686411
  H        -1.9363463050        4.2576421033        7.3029837446
  H         2.6471439808       -3.2693783112        5.9594366185
  H         2.7078876137        6.6232354184       -0.0107241859
  C         1.0242922066        2.6161082381        6.7748650245
  C        -1.0155287586       -2.6887980411        7.2139341481
  C         3.6745165671       -0.4914327396       12.0191224950
  C         3.4070115171       10.2718116317        5.9987983795
  C        -1.0853962834        7.5069236172        1.3535892197
  C         1.0450558370        4.8621966015        5.7202188042
  C         1.6810518651        3.6597912185        6.0621997238
  C        -2.6772007770       11.2697568097        6.7017518915
  C        -2.5787955294       -0.1819133515       13.2920038007
  C        -0.2979420552        2.8837848368        7.2832042580
  C         4.3835524981       -2.4896723022        6.9276274700
  C         2.2381595254       -0.7425315142       11.9541877375
  C         2.0086894684       10.4973943068        5.7353727858
  C         4.3095663931        7.1909470415        1.2817602817
  C        -0.3156119682        5.0644599270        6.1708137866
  C        -1.0741133963        1.8674261987        7.9894385724
  C         3.5653196690       -1.3727299724        7.4310458709
  C         1.4330691162       -0.8095489552       10.7129116063
  C         1.0881862045        9.4933487211        5.1639581300
  C         3.3604185266        7.3529857559        2.3943757441
  C        -1.2162538364        6.0725538441        5.6093937887
  C        -0.9096481190        4.0983939797        6.9758241969
  C         3.7020456133       -3.4404340322        6.1697691383
  C         3.7747303958        6.8295548456        0.0433691036
  O         1.6771047476        1.4782114116        6.9227582034
  O        -0.2826360480       -1.8455383312        7.9951091708
  O        -2.3951608906       -0.4094610929       10.9267600759
  O        -2.7538436099        9.1262138666        5.6432489299
  O        -0.4736501690        7.9516407694        2.4925568240
  O         1.7111268810        5.7641082883        4.9550112005
  O        -0.6170784089        0.6737342374        8.1060561499
  O         4.0434281157       -0.7173752698        8.4547225761
  O         1.7870029809       -0.1865066693        9.6345194823
  O         1.3942327815        8.2449413999        5.2452401176
  O         3.6386908333        8.1441358541        3.3733987422
  O        -0.9414110257        6.5828610954        4.4613975834
  O        -2.2267677044        2.1512480571        8.4968832439
  O         2.4599011771       -1.1050116813        6.8729439722
  O         0.3115444096       -1.4426728710       10.7473605966
  O        -0.0379191176        9.8555601285        4.6611872056
  O         2.2288906883        6.7402179382        2.3575698539
  O        -2.3233200599        6.3596460784        6.2021411049
  O         2.4389148886        2.3320646624       10.2196805734
  C         2.0519487126        3.4356009903        9.8349105306
  O         1.2384512856        4.1491073143       10.6143826293
  H         2.3334702643        3.8693495926        8.8617735002
  H         1.0169103499        4.9926882223       10.1702520089
      59
 i =      191, E =     -1483.3253237254
 Ni         3.2907401457        0.8899807179        9.2067230810
 Ni         0.8794296269       -0.1331646197        7.4424193298
 Ni        -1.1934786807       -1.1832264098        9.5943159484
 Ni        -1.5163787006        8.8013291967        3.9588375679
 Ni         0.7047813803        6.7374937262        3.5762009137
 Ni         3.0185450990        7.4203644469        5.5815428328
  H         2.6862435328        3.4771520019        5.6953163143
  H        -1.6254487679       11.0931235198        6.9149123104
  H        -1.5180913140        0.0394270885       13.3502885876
  H        -1.9415481071        4.2526867344        7.2999365380
  H         2.6469317986       -3.2712876552        5.9598224494
  H         2.7078284767        6.6220976996       -0.0100859821
  C         1.0219058987        2.6161533862        6.7767297918
  C        -1.0153108755       -2.6885892628        7.2147403076
  C         3.6729591279       -0.4916168759       12.0164219783
  C         3.4063307038       10.2688405925        5.9998719986
  C        -1.0869359227        7.5069058394        1.3525115723
  C         1.0396005877        4.8610047540        5.7182290331
  C         1.6765380753        3.6592178038        6.0618414744
  C        -2.6800687253       11.2664564312        6.7050345682
  C        -2.5823563752       -0.1801240866       13.2886132425
  C        -0.3022595350        2.8790656786        7.2808222197
  C         4.3843486102       -2.4899722137        6.9280935076
  C         2.2361656377       -0.7458958261       11.9511213828
  C         2.0080011261       10.4969689359        5.7364095004
  C         4.3091635977        7.1915679504        1.2786626587
  C        -0.3206943571        5.0605304939        6.1707337878
  C        -1.0779375668        1.8636894165        7.9887631381
  C         3.5651889672       -1.3733951465        7.4326250339
  C         1.4258488984       -0.8114349425       10.7081484087
  C         1.0892975379        9.4938411350        5.1606377800
  C         3.3596073785        7.3544104685        2.3942486239
  C        -1.2205167985        6.0663254599        5.6055598343
  C        -0.9147917058        4.0923589154        6.9731807895
  C         3.7008800593       -3.4424508573        6.1736544340
  C         3.7754472521        6.8281344441        0.0408668402
  O         1.6743314269        1.4792802119        6.9312979923
  O        -0.2847511593       -1.8385414719        7.9908055494
  O        -2.3944475775       -0.4062915677       10.9276854293
  O        -2.7550104161        9.1227600765        5.6445709750
  O        -0.4723151334        7.9501881392        2.4893625320
  O         1.7067352672        5.7652888894        4.9561795453
  O        -0.6192953215        0.6716949338        8.1055571052
  O         4.0409732889       -0.7175868021        8.4601583760
  O         1.7693777987       -0.1782184713        9.6343982529
  O         1.3930106352        8.2455146555        5.2435446009
  O         3.6371630530        8.1466665743        3.3736107942
  O        -0.9421395591        6.5825148513        4.4613935915
  O        -2.2294186271        2.1497059065        8.4944995753
  O         2.4624569259       -1.1052333106        6.8706602589
  O         0.3062917182       -1.4428497908       10.7492487313
  O        -0.0327201906        9.8578198023        4.6468366640
  O         2.2286639119        6.7416740179        2.3589218598
  O        -2.3351822347        6.3434004182        6.1884922332
  O         2.4356370040        2.3435708788       10.2126127853
  C         2.0528449132        3.4473462093        9.8216949727
  O         1.2361129836        4.1657519629       10.5975244855
  H         2.3332912450        3.8773033543        8.8472710126
  H         1.0162787374        5.0063689905       10.1458670833
      59
 i =      192, E =     -1483.3254670849
 Ni         3.2919060908        0.8886518927        9.2086458655
 Ni         0.8788057019       -0.1310244593        7.4441888583
 Ni        -1.1933535941       -1.1850866432        9.5946733151
 Ni        -1.5153737600        8.8012095343        3.9599572923
 Ni         0.7070525084        6.7348597609        3.5754078746
 Ni         3.0209797741        7.4186393315        5.5787020653
  H         2.6872035420        3.4776300432        5.6944059294
  H        -1.6254722821       11.0925340065        6.9155389700
  H        -1.5181650429        0.0355315385       13.3491628258
  H        -1.9406957791        4.2548801781        7.3003004457
  H         2.6479931330       -3.2682836770        5.9560550677
  H         2.7065649285        6.6192188528       -0.0100891468
  C         1.0226011471        2.6168864396        6.7773914057
  C        -1.0159334279       -2.6875159223        7.2122990722
  C         3.6726654399       -0.4926675469       12.0158933295
  C         3.4056889730       10.2697778564        6.0001243452
  C        -1.0870324088        7.5066970651        1.3528583634
  C         1.0424379909        4.8623137078        5.7204591296
  C         1.6780572964        3.6601395767        6.0626135113
  C        -2.6792717514       11.2679490530        6.7036926782
  C        -2.5824791937       -0.1831041612       13.2884423679
  C        -0.3013095933        2.8811531261        7.2822780747
  C         4.3831344554       -2.4914469941        6.9271141679
  C         2.2351148390       -0.7444432991       11.9508653283
  C         2.0088767445       10.4976476424        5.7305240999
  C         4.3090782859        7.1889256346        1.2780807670
  C        -0.3183833308        5.0609699541        6.1702801591
  C        -1.0768494149        1.8653126812        7.9901153789
  C         3.5653182745       -1.3727601395        7.4300810821
  C         1.4243788112       -0.8096271086       10.7089356024
  C         1.0893312338        9.4931552703        5.1569964134
  C         3.3592854217        7.3529288920        2.3930792023
  C        -1.2171871850        6.0665278191        5.6042523595
  C        -0.9134456097        4.0952652625        6.9752479091
  C         3.7022295195       -3.4412378421        6.1677149826
  C         3.7740477981        6.8273529275        0.0406088136
  O         1.6776217178        1.4807714418        6.9310218626
  O        -0.2852168339       -1.8392467980        7.9899175377
  O        -2.3956122665       -0.4092633293       10.9250356186
  O        -2.7558719516        9.1237291818        5.6429925754
  O        -0.4718442762        7.9518466860        2.4895474286
  O         1.7107744146        5.7653746633        4.9579116356
  O        -0.6195748511        0.6726071867        8.1074939682
  O         4.0394027150       -0.7183436340        8.4590345408
  O         1.7707461812       -0.1814878408        9.6333230002
  O         1.3933959327        8.2449337761        5.2431918662
  O         3.6393073749        8.1448670062        3.3720174898
  O        -0.9395538318        6.5825876792        4.4599662502
  O        -2.2282566255        2.1499464307        8.4972479058
  O         2.4608480211       -1.1035603849        6.8710848245
  O         0.3048704726       -1.4416018802       10.7482338512
  O        -0.0332400558        9.8591045083        4.6477133244
  O         2.2280312600        6.7407106896        2.3569063845
  O        -2.3311945091        6.3432228810        6.1874688422
  O         2.4376230123        2.3350022363       10.2186682583
  C         2.0543223972        3.4390082877        9.8304992997
  O         1.2385434396        4.1551761610       10.6076371699
  H         2.3419276843        3.8715457608        8.8585758539
  H         1.0180098867        4.9980742508       10.1607905844
      59
 i =      193, E =     -1483.3255113126
 Ni         3.2919833665        0.8879118678        9.2097972453
 Ni         0.8800936400       -0.1305073376        7.4462574286
 Ni        -1.1922352396       -1.1863780070        9.5972133141
 Ni        -1.5164484525        8.8007623461        3.9610181667
 Ni         0.7072687907        6.7355893511        3.5745683129
 Ni         3.0202078251        7.4190028131        5.5777854258
  H         2.6868147648        3.4778853565        5.6945508871
  H        -1.6251800923       11.0943440716        6.9161948774
  H        -1.5170469276        0.0346824820       13.3493344481
  H        -1.9424075347        4.2537015094        7.2990468746
  H         2.6469921984       -3.2691153378        5.9574546223
  H         2.7070178562        6.6176086357       -0.0119921797
  C         1.0216345356        2.6175658630        6.7770438024
  C        -1.0155982710       -2.6862999570        7.2116589208
  C         3.6730536191       -0.4935099166       12.0161044507
  C         3.4068002696       10.2714140607        5.9984003087
  C        -1.0861184167        7.5055040608        1.3518785286
  C         1.0415340521        4.8619080852        5.7205205084
  C         1.6778333171        3.6607499270        6.0629287312
  C        -2.6788293384       11.2689463629        6.7037464045
  C        -2.5812643117       -0.1840780722       13.2884508601
  C        -0.3019786079        2.8817694700        7.2828398289
  C         4.3831988689       -2.4907575203        6.9267968117
  C         2.2355551859       -0.7446112123       11.9507947697
  C         2.0093713451       10.4985260076        5.7312784238
  C         4.3095061364        7.1881879869        1.2783767374
  C        -0.3200109683        5.0597543447        6.1675394135
  C        -1.0761484802        1.8658323200        7.9917393498
  C         3.5644076766       -1.3731093788        7.4301035541
  C         1.4251510532       -0.8087404479       10.7097510663
  C         1.0884637679        9.4939320092        5.1601008972
  C         3.3592820363        7.3524304741        2.3917871990
  C        -1.2175475706        6.0656445310        5.6013134151
  C        -0.9150937729        4.0948884911        6.9736921798
  C         3.7020037059       -3.4402847594        6.1674951770
  C         3.7740620948        6.8268269371        0.0408049753
  O         1.6770840547        1.4820582485        6.9330042534
  O        -0.2849808698       -1.8383230672        7.9899284328
  O        -2.3943301391       -0.4078214795       10.9251676366
  O        -2.7548384438        9.1240582862        5.6444974850
  O        -0.4730991631        7.9534964165        2.4897366384
  O         1.7085973003        5.7647892773        4.9573681317
  O        -0.6188794261        0.6723912385        8.1089573960
  O         4.0395003760       -0.7174945332        8.4568262560
  O         1.7734457020       -0.1837380029        9.6323028678
  O         1.3930808972        8.2461078063        5.2436146290
  O         3.6401833865        8.1429958889        3.3710493074
  O        -0.9391593878        6.5821193643        4.4576740901
  O        -2.2279797974        2.1484678810        8.4991855717
  O         2.4595354035       -1.1032706145        6.8705548226
  O         0.3059274764       -1.4426510044       10.7478404906
  O        -0.0371049727        9.8586525330        4.6588657800
  O         2.2279640091        6.7401935146        2.3564896211
  O        -2.3313410751        6.3428564929        6.1835641239
  O         2.4378142516        2.3352779378       10.2188110804
  C         2.0554178464        3.4388648788        9.8290471882
  O         1.2389967104        4.1558036681       10.6037720149
  H         2.3485852703        3.8700956777        8.8577180724
  H         1.0197652592        4.9999817390       10.1584249778
      59
 i =      194, E =     -1483.3255671496
 Ni         3.2913830024        0.8876377481        9.2106613385
 Ni         0.8805164375       -0.1298006482        7.4470456674
 Ni        -1.1922150609       -1.1869496465        9.5969110653
 Ni        -1.5163985116        8.7995694548        3.9617484107
 Ni         0.7084026563        6.7354565961        3.5735487915
 Ni         3.0196754376        7.4187008418        5.5748346347
  H         2.6868226298        3.4775004040        5.6951185813
  H        -1.6255562880       11.0931721151        6.9190508318
  H        -1.5181330271        0.0337302523       13.3460162245
  H        -1.9441039959        4.2532082297        7.2956692997
  H         2.6482617363       -3.2674625085        5.9538746912
  H         2.7054509091        6.6146083601       -0.0116716045
  C         1.0211407971        2.6189779494        6.7793112427
  C        -1.0156874849       -2.6862030399        7.2108844923
  C         3.6704002718       -0.4934727886       12.0150576767
  C         3.4066702791       10.2710138709        5.9983331165
  C        -1.0873095492        7.5056455689        1.3505071299
  C         1.0421724353        4.8612622819        5.7206582183
  C         1.6777965109        3.6602821616        6.0632369295
  C        -2.6784319610       11.2685956052        6.7039265412
  C        -2.5827060456       -0.1842537526       13.2866743810
  C        -0.3032524748        2.8821049282        7.2833345144
  C         4.3835685623       -2.4893685238        6.9255805285
  C         2.2330409346       -0.7451030005       11.9499044317
  C         2.0100220091       10.4998259204        5.7286945521
  C         4.3084721922        7.1877877750        1.2773789546
  C        -0.3201212832        5.0585251898        6.1648398875
  C        -1.0766464058        1.8655754888        7.9927481205
  C         3.5643543438       -1.3719272533        7.4291651112
  C         1.4216910568       -0.8082291560       10.7091377896
  C         1.0889363343        9.4944844172        5.1579392365
  C         3.3594136381        7.3514916756        2.3910422672
  C        -1.2171131229        6.0626409522        5.5961060682
  C        -0.9165595740        4.0940220268        6.9710840418
  C         3.7028393788       -3.4386526488        6.1652735554
  C         3.7722266316        6.8259538016        0.0402722887
  O         1.6769910789        1.4843303221        6.9376214870
  O        -0.2849771866       -1.8359645710        7.9873692045
  O        -2.3973843445       -0.4081501850       10.9234357693
  O        -2.7541747723        9.1238968439        5.6441033387
  O        -0.4740841402        7.9527658852        2.4887742099
  O         1.7093549340        5.7647898560        4.9580585520
  O        -0.6178495197        0.6731758840        8.1110195069
  O         4.0397543525       -0.7175806625        8.4564081314
  O         1.7683457428       -0.1827194470        9.6317268223
  O         1.3918620838        8.2464676183        5.2440004532
  O         3.6407449561        8.1419032550        3.3702894776
  O        -0.9364886411        6.5817984139        4.4545407490
  O        -2.2275693166        2.1474914931        8.5024638368
  O         2.4585265571       -1.1043510085        6.8713723507
  O         0.3030684930       -1.4427256784       10.7487279738
  O        -0.0362254769        9.8590304663        4.6550720811
  O         2.2279053697        6.7401426854        2.3563214413
  O        -2.3326441899        6.3382214521        6.1744601011
  O         2.4376162028        2.3356188409       10.2182294694
  C         2.0560911928        3.4391886742        9.8287430370
  O         1.2404867720        4.1564053894       10.6042966567
  H         2.3512646517        3.8710946797        8.8587705999
  H         1.0181126050        4.9991767765       10.1578529563
      59
 i =      195, E =     -1483.3255977110
 Ni         3.2915463164        0.8883224445        9.2103015506
 Ni         0.8804289391       -0.1290605777        7.4474427098
 Ni        -1.1916636885       -1.1876251503        9.5969050544
 Ni        -1.5160935847        8.7995233500        3.9615357109
 Ni         0.7082332917        6.7356077161        3.5728532378
 Ni         3.0192597440        7.4182450029        5.5716812777
  H         2.6864484555        3.4775433214        5.6970437713
  H        -1.6256625257       11.0938459451        6.9200353452
  H        -1.5186991916        0.0327597891       13.3452785975
  H        -1.9464956801        4.2530740106        7.2921542369
  H         2.6489753617       -3.2663678303        5.9529842536
  H         2.7054777924        6.6123424987       -0.0125536377
  C         1.0202651936        2.6202375236        6.7813530751
  C        -1.0156959565       -2.6848468231        7.2102136152
  C         3.6707280194       -0.4929267362       12.0147691514
  C         3.4072343528       10.2719666621        5.9970654832
  C        -1.0882113338        7.5055636999        1.3508039280
  C         1.0414740429        4.8609245735        5.7198104353
  C         1.6771936929        3.6608529908        6.0645333936
  C        -2.6785077664       11.2694061556        6.7040580672
  C        -2.5836373260       -0.1845426663       13.2868623320
  C        -0.3047465453        2.8827317242        7.2846836692
  C         4.3837928831       -2.4879883753        6.9244846373
  C         2.2337178378       -0.7456038080       11.9490987629
  C         2.0106331556       10.5007200187        5.7271735403
  C         4.3077562766        7.1870147571        1.2761620284
  C        -0.3213826777        5.0573423192        6.1625732132
  C        -1.0771463660        1.8656367148        7.9948729499
  C         3.5642784167       -1.3715084199        7.4299954711
  C         1.4221168174       -0.8091937221       10.7081064219
  C         1.0889480275        9.4946640031        5.1575958478
  C         3.3595876531        7.3507079616        2.3902232112
  C        -1.2171710619        6.0612643826        5.5926727940
  C        -0.9184667427        4.0934682157        6.9694842266
  C         3.7033224001       -3.4379684354        6.1646537180
  C         3.7725388595        6.8238893845        0.0388692638
  O         1.6776852146        1.4865967232        6.9398340140
  O        -0.2849713725       -1.8352723179        7.9877463256
  O        -2.3958840848       -0.4077388365       10.9240273446
  O        -2.7545076932        9.1242843909        5.6430257873
  O        -0.4733655151        7.9536332248        2.4877775604
  O         1.7089131065        5.7648700123        4.9575803563
  O        -0.6181708257        0.6738726010        8.1109762319
  O         4.0403920792       -0.7168131569        8.4568177907
  O         1.7673190452       -0.1819988117        9.6315112404
  O         1.3911028012        8.2464241055        5.2446276424
  O         3.6417328728        8.1412248808        3.3692775332
  O        -0.9352176730        6.5820616528        4.4520457975
  O        -2.2281785458        2.1465530616        8.5048475571
  O         2.4588833409       -1.1040066113        6.8716296637
  O         0.3031407044       -1.4429041608       10.7482103340
  O        -0.0355380901        9.8600802236        4.6530357487
  O         2.2280894705        6.7397009432        2.3559255823
  O        -2.3329174588        6.3392991292        6.1687530636
  O         2.4381209566        2.3352924134       10.2198361097
  C         2.0582504008        3.4389458872        9.8279360204
  O         1.2410304285        4.1569500943       10.6018415823
  H         2.3561188083        3.8694369074        8.8584709029
  H         1.0222284307        5.0011597145       10.1565257465
      59
 i =      196, E =     -1483.3256216798
 Ni         3.2914126921        0.8889920075        9.2099743464
 Ni         0.8803604714       -0.1279499834        7.4477636433
 Ni        -1.1912832861       -1.1884443211        9.5968499647
 Ni        -1.5161142335        8.7992730496        3.9615048950
 Ni         0.7079329071        6.7358214834        3.5725374986
 Ni         3.0197723301        7.4192722578        5.5690404481
  H         2.6861618577        3.4770827038        5.6995673542
  H        -1.6252850371       11.0947654790        6.9212256265
  H        -1.5191415506        0.0326003904       13.3441555453
  H        -1.9493127278        4.2525348251        7.2870969790
  H         2.6499919124       -3.2648899068        5.9517208787
  H         2.7052128947        6.6108140047       -0.0128808025
  C         1.0196454516        2.6216783376        6.7825758304
  C        -1.0156994654       -2.6845976400        7.2105060119
  C         3.6698872235       -0.4933898009       12.0139869978
  C         3.4076231243       10.2729465056        5.9966521298
  C        -1.0883486610        7.5055456823        1.3499854767
  C         1.0403208430        4.8610266635        5.7178272311
  C         1.6765291991        3.6618798333        6.0652742090
  C        -2.6778066534       11.2705617353        6.7034921791
  C        -2.5842087589       -0.1843139320       13.2858515068
  C        -0.3060248153        2.8833186111        7.2853043721
  C         4.3843467443       -2.4866285844        6.9232776414
  C         2.2332674964       -0.7463946642       11.9489749934
  C         2.0111524778       10.5014301523        5.7264090304
  C         4.3076962720        7.1865404105        1.2757144077
  C        -0.3234420658        5.0564125789        6.1595524188
  C        -1.0781224887        1.8656529400        7.9955630667
  C         3.5649323176       -1.3703666845        7.4292805797
  C         1.4224080675       -0.8095373613       10.7078956753
  C         1.0892954661        9.4950643650        5.1575029149
  C         3.3599169553        7.3498537164        2.3895031827
  C        -1.2182268992        6.0614600029        5.5907485454
  C        -0.9204678099        4.0928817845        6.9670746463
  C         3.7043779607       -3.4366458698        6.1629931241
  C         3.7722134016        6.8226657924        0.0386189008
  O         1.6771976499        1.4883379739        6.9403985474
  O        -0.2847445853       -1.8356496810        7.9888834913
  O        -2.3965505759       -0.4088215847       10.9234389437
  O        -2.7539381398        9.1259244273        5.6413699451
  O        -0.4734670597        7.9534033383        2.4868772363
  O         1.7094360697        5.7646937927        4.9563167337
  O        -0.6179389124        0.6748494308        8.1112802436
  O         4.0403024988       -0.7172164115        8.4572482435
  O         1.7684717446       -0.1821691735        9.6318048247
  O         1.3909227204        8.2466393655        5.2454612991
  O         3.6421189988        8.1407700871        3.3682323370
  O        -0.9348192358        6.5827165719        4.4505894281
  O        -2.2289146185        2.1459320186        8.5071291864
  O         2.4591979715       -1.1033694287        6.8716892714
  O         0.3032419082       -1.4434554847       10.7477343724
  O        -0.0351438294        9.8598715271        4.6521925069
  O         2.2282017701        6.7393983982        2.3554786159
  O        -2.3321814216        6.3448190792        6.1675184302
  O         2.4375549947        2.3361314523       10.2200058407
  C         2.0587886024        3.4397839332        9.8265751888
  O         1.2416886100        4.1578607787       10.6003569599
  H         2.3575147783        3.8694738106        8.8577640962
  H         1.0242796794        5.0021437386       10.1548410902
      59
 i =      197, E =     -1483.3256418414
 Ni         3.2907490615        0.8889861715        9.2107122538
 Ni         0.8798137687       -0.1270363064        7.4481194108
 Ni        -1.1915050958       -1.1878996517        9.5966251490
 Ni        -1.5160191326        8.8001375533        3.9606280130
 Ni         0.7075231875        6.7361258267        3.5727405153
 Ni         3.0211928886        7.4187786948        5.5665449349
  H         2.6852694392        3.4776572770        5.7015778695
  H        -1.6253490355       11.0958259952        6.9208922005
  H        -1.5191129766        0.0320009174       13.3433116235
  H        -1.9529105474        4.2519098165        7.2822243639
  H         2.6504005759       -3.2627135388        5.9498917342
  H         2.7056983593        6.6090709612       -0.0130153431
  C         1.0182025657        2.6227397546        6.7829293631
  C        -1.0151721278       -2.6837439922        7.2098740152
  C         3.6699504124       -0.4948399054       12.0135522699
  C         3.4076304057       10.2740840415        5.9953515126
  C        -1.0877214623        7.5048333436        1.3493805641
  C         1.0389444405        4.8615732755        5.7166675657
  C         1.6753778285        3.6630443893        6.0661438093
  C        -2.6780389175       11.2710810510        6.7031601837
  C        -2.5838911227       -0.1850275457       13.2852174732
  C        -0.3079581185        2.8841619198        7.2849191063
  C         4.3849316861       -2.4858237140        6.9221536176
  C         2.2332254929       -0.7475705649       11.9481266632
  C         2.0109729772       10.5024386752        5.7257525832
  C         4.3083429320        7.1853453769        1.2751988969
  C        -0.3254049226        5.0564582875        6.1578233099
  C        -1.0790469205        1.8660254786        7.9962020139
  C         3.5650749503       -1.3700847619        7.4281282009
  C         1.4222770712       -0.8105659440       10.7075168787
  C         1.0897407928        9.4957196418        5.1567879794
  C         3.3599790668        7.3495033113        2.3884485403
  C        -1.2191401942        6.0624302488        5.5898811149
  C        -0.9232055074        4.0928270278        6.9643910496
  C         3.7046215969       -3.4352032367        6.1614214307
  C         3.7726294070        6.8211734546        0.0382236568
  O         1.6759450442        1.4899029538        6.9411058035
  O        -0.2850753566       -1.8352300501        7.9893754277
  O        -2.3958524163       -0.4089201548       10.9238210221
  O        -2.7540731181        9.1272796923        5.6393997902
  O        -0.4733491054        7.9531411548        2.4863835646
  O         1.7084816181        5.7646248542        4.9549149347
  O        -0.6193550540        0.6748344585        8.1109442562
  O         4.0394795041       -0.7175161061        8.4568567370
  O         1.7679116456       -0.1819636717        9.6317940078
  O         1.3917236003        8.2471932332        5.2454805651
  O         3.6426603821        8.1403757392        3.3667705298
  O        -0.9352069541        6.5841455505        4.4503076298
  O        -2.2300178780        2.1456392569        8.5080350544
  O         2.4593622782       -1.1021571998        6.8706222832
  O         0.3032588577       -1.4448394568       10.7467503303
  O        -0.0348058060        9.8601060090        4.6517123983
  O         2.2281194109        6.7390537710        2.3554186395
  O        -2.3325000988        6.3460081136        6.1668457355
  O         2.4374592434        2.3357560869       10.2213899235
  C         2.0607871693        3.4394934951        9.8262089322
  O         1.2422171945        4.1573544673       10.5987286551
  H         2.3620878635        3.8678064074        8.8579754132
  H         1.0269963625        5.0026339959       10.1539709977
      59
 i =      198, E =     -1483.3256536947
 Ni         3.2908621881        0.8891833326        9.2105892271
 Ni         0.8795590320       -0.1261961031        7.4485673672
 Ni        -1.1918828808       -1.1878993724        9.5966891191
 Ni        -1.5158991385        8.8007529218        3.9601246744
 Ni         0.7077999760        6.7359390158        3.5723574155
 Ni         3.0224893303        7.4189863286        5.5647252832
  H         2.6850591985        3.4790085531        5.7040999439
  H        -1.6254226924       11.0965294433        6.9209165965
  H        -1.5191487244        0.0322745753       13.3420621072
  H        -1.9562828617        4.2507677928        7.2772898922
  H         2.6509431007       -3.2609601523        5.9472672037
  H         2.7059836576        6.6076415932       -0.0125566992
  C         1.0170085166        2.6237056344        6.7831334991
  C        -1.0150249681       -2.6830481002        7.2095974242
  C         3.6701024653       -0.4957299790       12.0133576473
  C         3.4079739445       10.2754356399        5.9941020796
  C        -1.0869398251        7.5040566023        1.3491749781
  C         1.0382786423        4.8623154353        5.7161794391
  C         1.6745945448        3.6640596574        6.0670319177
  C        -2.6780785456       11.2718710237        6.7028424715
  C        -2.5836636413       -0.1853177106       13.2848412889
  C        -0.3097133340        2.8844986855        7.2835020136
  C         4.3853021799       -2.4850856619        6.9207585318
  C         2.2334837380       -0.7483072789       11.9476652561
  C         2.0113025172       10.5036412420        5.7244651983
  C         4.3090741692        7.1839857057        1.2746781692
  C        -0.3267894232        5.0563547067        6.1563069435
  C        -1.0799064798        1.8661241467        7.9952073815
  C         3.5654720554       -1.3694177771        7.4269360245
  C         1.4226518119       -0.8103200386       10.7074594267
  C         1.0904279178        9.4962096992        5.1561624854
  C         3.3604739399        7.3488814631        2.3876464558
  C        -1.2197046292        6.0633846391        5.5894293997
  C        -0.9256264666        4.0927156985        6.9617969923
  C         3.7049142525       -3.4338691887        6.1594534022
  C         3.7728530437        6.8200987648        0.0379987446
  O         1.6749091175        1.4910754820        6.9411225248
  O        -0.2850945518       -1.8349186268        7.9893647755
  O        -2.3963575662       -0.4107054665       10.9233027121
  O        -2.7536180397        9.1293799683        5.6374041666
  O        -0.4732003429        7.9532637960        2.4862909368
  O         1.7075980036        5.7648268739        4.9536666311
  O        -0.6194515098        0.6750823241        8.1107920580
  O         4.0394871843       -0.7174355501        8.4561355623
  O         1.7692565674       -0.1825097067        9.6317882935
  O         1.3929307710        8.2478137271        5.2443660805
  O         3.6430196062        8.1400771373        3.3656690824
  O        -0.9356189931        6.5851676170        4.4503053053
  O        -2.2304104729        2.1457066625        8.5083635797
  O         2.4591304588       -1.1021607663        6.8704448154
  O         0.3033898844       -1.4437259056       10.7465869506
  O        -0.0349219291        9.8597101989        4.6528399605
  O         2.2284422719        6.7387384351        2.3549437089
  O        -2.3321955804        6.3467589350        6.1676558376
  O         2.4375827277        2.3358062958       10.2216757437
  C         2.0625828147        3.4394141322        9.8252462536
  O         1.2425601538        4.1572238187       10.5968838314
  H         2.3655185288        3.8671950918        8.8573883161
  H         1.0283195912        5.0027431868       10.1517740529
      59
 i =      199, E =     -1483.3256671075
 Ni         3.2906534979        0.8890293996        9.2114251653
 Ni         0.8796628358       -0.1252068076        7.4492965007
 Ni        -1.1918872798       -1.1872723703        9.5968285549
 Ni        -1.5158306717        8.8012515603        3.9598938302
 Ni         0.7086708493        6.7358535685        3.5722549665
 Ni         3.0231642603        7.4193181403        5.5622275154
  H         2.6853499098        3.4808515727        5.7066888828
  H        -1.6253829633       11.0964236480        6.9209792715
  H        -1.5187444744        0.0326692614       13.3407723314
  H        -1.9592602962        4.2497986294        7.2719907618
  H         2.6520719040       -3.2584503725        5.9433889677
  H         2.7064340326        6.6058426716       -0.0119444569
  C         1.0160375899        2.6245967878        6.7826895531
  C        -1.0149039204       -2.6821332561        7.2088628757
  C         3.6700343406       -0.4964698039       12.0131521458
  C         3.4084067971       10.2770742285        5.9927201913
  C        -1.0864022717        7.5036879355        1.3485218198
  C         1.0383058899        4.8634388002        5.7164615083
  C         1.6744109969        3.6655200541        6.0682705220
  C        -2.6777354224       11.2727835458        6.7024308967
  C        -2.5829727905       -0.1860455032       13.2842932168
  C        -0.3113922730        2.8841794914        7.2813678129
  C         4.3855011826       -2.4840722887        6.9193411226
  C         2.2334185978       -0.7492237337       11.9473239014
  C         2.0118965081       10.5050110079        5.7221561933
  C         4.3096524678        7.1826931886        1.2745895729
  C        -0.3273693522        5.0563365829        6.1553930331
  C        -1.0807004694        1.8664651966        7.9942864426
  C         3.5654401462       -1.3690575825        7.4266060838
  C         1.4224168694       -0.8103974657       10.7075650081
  C         1.0909797818        9.4972384538        5.1542588688
  C         3.3609074094        7.3481020224        2.3871316940
  C        -1.2198556430        6.0635619774        5.5886308877
  C        -0.9275332974        4.0924001984        6.9593608800
  C         3.7056143711       -3.4323659643        6.1570094229
  C         3.7733139958        6.8184360577        0.0381517708
  O         1.6746037763        1.4926228954        6.9415767484
  O        -0.2851998046       -1.8341722210        7.9888201111
  O        -2.3966975587       -0.4113029038       10.9231438336
  O        -2.7534333598        9.1312924089        5.6358528126
  O        -0.4733253852        7.9532859030        2.4859965875
  O         1.7076141586        5.7650946380        4.9530351608
  O        -0.6194437356        0.6753588602        8.1109988419
  O         4.0397083345       -0.7174922925        8.4558493957
  O         1.7691616510       -0.1822306673        9.6318797978
  O         1.3938364201        8.2487992660        5.2431263629
  O         3.6433651213        8.1398503730        3.3646205897
  O        -0.9357573507        6.5854946153        4.4500510955
  O        -2.2308733378        2.1462207554        8.5076992625
  O         2.4589271403       -1.1018206017        6.8703648789
  O         0.3033287489       -1.4440099265       10.7465642991
  O        -0.0350294397        9.8601570236        4.6520856234
  O         2.2286635073        6.7382932039        2.3548563115
  O        -2.3325035978        6.3461380718        6.1670969574
  O         2.4376366622        2.3358336107       10.2219910983
  C         2.0646468381        3.4391822733        9.8242486209
  O         1.2438038231        4.1576111729       10.5948073378
  H         2.3695751336        3.8663788997        8.8567568992
  H         1.0304345059        5.0031808556       10.1493333505
      59
 i =      200, E =     -1483.3256820974
 Ni         3.2912503648        0.8892108133        9.2117351390
 Ni         0.8794240476       -0.1234364158        7.4494668974
 Ni        -1.1919771368       -1.1875180671        9.5964745017
 Ni        -1.5155658564        8.8015308719        3.9599394295
 Ni         0.7089870189        6.7357797194        3.5717403236
 Ni         3.0234355126        7.4192602010        5.5590306579
  H         2.6867441441        3.4835113606        5.7100429860
  H        -1.6256528006       11.0964317890        6.9210965013
  H        -1.5180255150        0.0334507444       13.3400919021
  H        -1.9612298990        4.2486695651        7.2664547803
  H         2.6530573905       -3.2562687672        5.9386225649
  H         2.7073611393        6.6036506075       -0.0115874886
  C         1.0157827661        2.6259839089        6.7826809730
  C        -1.0146885144       -2.6811500303        7.2080767536
  C         3.6706234157       -0.4965980218       12.0131171490
  C         3.4090594354       10.2784926904        5.9905964069
  C        -1.0859197017        7.5034485997        1.3484592849
  C         1.0386269998        4.8643709664        5.7169142151
  C         1.6749656177        3.6671535358        6.0695627284
  C        -2.6774781771       11.2738599398        6.7012428367
  C        -2.5823036243       -0.1862708391       13.2843021519
  C        -0.3127682774        2.8837295444        7.2786404946
  C         4.3857910711       -2.4829311415        6.9178539208
  C         2.2342109174       -0.7503732975       11.9474985644
  C         2.0129252994       10.5070791013        5.7188501325
  C         4.3103145767        7.1812423798        1.2747193513
  C        -0.3272972557        5.0569584611        6.1546619422
  C        -1.0814321458        1.8669961947        7.9924744155
  C         3.5651723852       -1.3686603740        7.4262842782
  C         1.4230134292       -0.8110128051       10.7077595865
  C         1.0917949842        9.4981470292        5.1525145405
  C         3.3614784494        7.3470679002        2.3869114475
  C        -1.2197980048        6.0641171530        5.5884375206
  C        -0.9286424177        4.0918051472        6.9561154462
  C         3.7063231099       -3.4303604542        6.1538511058
  C         3.7741199716        6.8168305274        0.0384696019
  O         1.6747788894        1.4941686073        6.9416723682
  O        -0.2848574665       -1.8331333241        7.9878767225
  O        -2.3967893757       -0.4116578487       10.9227942507
  O        -2.7531384104        9.1325431209        5.6351257546
  O        -0.4729016879        7.9535023888        2.4857924974
  O         1.7073770190        5.7661229311        4.9529423610
  O        -0.6196203631        0.6759819466        8.1115246467
  O         4.0399655648       -0.7175077704        8.4556443718
  O         1.7693922963       -0.1823292442        9.6318896564
  O         1.3944418462        8.2494805235        5.2419459228
  O         3.6439945064        8.1396499401        3.3637003600
  O        -0.9358515323        6.5854027375        4.4498128667
  O        -2.2308386443        2.1476634603        8.5065244048
  O         2.4582228295       -1.1016691359        6.8708516752
  O         0.3034298611       -1.4436895422       10.7468026107
  O        -0.0350271261        9.8605410160        4.6515648193
  O         2.2289022408        6.7379127237        2.3548696868
  O        -2.3328980527        6.3457865766        6.1670112819
  O         2.4381065333        2.3357971406       10.2222014789
  C         2.0672391022        3.4386834266        9.8227034816
  O         1.2456745810        4.1583514747       10.5918487651
  H         2.3740823489        3.8653867748        8.8554816608
  H         1.0338026983        5.0040719122       10.1459006104
      59
 i =      201, E =     -1483.3256921267
 Ni         3.2912997732        0.8893314302        9.2117038535
 Ni         0.8792680020       -0.1205102398        7.4502476363
 Ni        -1.1920714704       -1.1871838403        9.5965740833
 Ni        -1.5154040317        8.8017304313        3.9598800626
 Ni         0.7090767404        6.7363692513        3.5713144635
 Ni         3.0235985787        7.4201473289        5.5557634204
  H         2.6888327361        3.4870229205        5.7140492510
  H        -1.6254275272       11.0968083037        6.9206703467
  H        -1.5174953059        0.0344874002       13.3395376760
  H        -1.9632739383        4.2466229055        7.2600824794
  H         2.6547017106       -3.2533972915        5.9330582009
  H         2.7084607187        6.6008306888       -0.0112637613
  C         1.0159606969        2.6270707480        6.7815792433
  C        -1.0143523955       -2.6796267651        7.2065587961
  C         3.6712035516       -0.4968272002       12.0128853190
  C         3.4096874973       10.2799232806        5.9888856359
  C        -1.0854902339        7.5029121002        1.3484370549
  C         1.0395175592        4.8661546118        5.7175886415
  C         1.6759252977        3.6694432836        6.0709773319
  C        -2.6767895753       11.2753647745        6.6997111722
  C        -2.5818949326       -0.1863752989       13.2842952775
  C        -0.3138809437        2.8831291511        7.2748231684
  C         4.3860609775       -2.4812840501        6.9160003956
  C         2.2350087182       -0.7518446141       11.9477043296
  C         2.0142435470       10.5092052548        5.7148237037
  C         4.3109687321        7.1793664977        1.2748124046
  C        -0.3268524683        5.0573179701        6.1538925930
  C        -1.0822513842        1.8681589446        7.9904996792
  C         3.5650129496       -1.3680245051        7.4265093678
  C         1.4232627080       -0.8116992855       10.7081026827
  C         1.0924492715        9.4994083724        5.1504397475
  C         3.3621885436        7.3462217628        2.3867859829
  C        -1.2193431104        6.0641321670        5.5877420220
  C        -0.9296823570        4.0908930484        6.9525435740
  C         3.7077727252       -3.4278768337        6.1495957622
  C         3.7750764174        6.8143865451        0.0386755467
  O         1.6754933721        1.4958396650        6.9420550750
  O        -0.2851781298       -1.8321067408        7.9876174837
  O        -2.3965884665       -0.4111994252       10.9225739262
  O        -2.7526287040        9.1339524294        5.6343335535
  O        -0.4726713247        7.9537110308        2.4855297607
  O         1.7085178581        5.7674651268        4.9528136812
  O        -0.6198916157        0.6774304882        8.1124971050
  O         4.0403606207       -0.7171034632        8.4559198750
  O         1.7693797235       -0.1820704833        9.6323227208
  O         1.3945239228        8.2504779077        5.2415709152
  O         3.6445178823        8.1396812492        3.3628283987
  O        -0.9357619035        6.5852179141        4.4492361499
  O        -2.2312260495        2.1501376446        8.5041021624
  O         2.4578448931       -1.1007063118        6.8716408350
  O         0.3034025745       -1.4440819912       10.7472275659
  O        -0.0352370614        9.8613884012        4.6508073135
  O         2.2291223628        6.7379095814        2.3550843063
  O        -2.3331561060        6.3456207298        6.1659227702
  O         2.4378270088        2.3358801440       10.2220850785
  C         2.0698798790        3.4382407521        9.8197890505
  O         1.2477353951        4.1598808394       10.5867972565
  H         2.3791076638        3.8640869230        8.8526304679
  H         1.0382051486        5.0057005086       10.1398526375
      59
 i =      202, E =     -1483.3257153984
 Ni         3.2918136607        0.8891701313        9.2116228036
 Ni         0.8790032441       -0.1198446504        7.4511887986
 Ni        -1.1921140621       -1.1872119992        9.5960273548
 Ni        -1.5155237692        8.8020427412        3.9594987778
 Ni         0.7091202452        6.7380059402        3.5711516815
 Ni         3.0240763125        7.4204461502        5.5519389653
  H         2.6922015458        3.4909944470        5.7182773753
  H        -1.6252073779       11.0977026914        6.9199719503
  H        -1.5168202827        0.0366119926       13.3403050488
  H        -1.9638407185        4.2447672161        7.2549357147
  H         2.6560321017       -3.2510671197        5.9277365475
  H         2.7101090858        6.5979912857       -0.0117286670
  C         1.0173247330        2.6280280882        6.7811519221
  C        -1.0144510170       -2.6786178620        7.2054494978
  C         3.6722564339       -0.4965168215       12.0129024193
  C         3.4103600696       10.2811137155        5.9870307167
  C        -1.0851994398        7.5029602806        1.3485821018
  C         1.0406766006        4.8674605416        5.7179939524
  C         1.6779087946        3.6714981823        6.0724974198
  C        -2.6762647752       11.2767983449        6.6980999410
  C        -2.5811594524       -0.1855757471       13.2846433391
  C        -0.3139556791        2.8831209706        7.2715828188
  C         4.3864483444       -2.4795858093        6.9135395982
  C         2.2363104943       -0.7530784189       11.9479549419
  C         2.0153827745       10.5109309175        5.7114066221
  C         4.3116098475        7.1780402434        1.2750716346
  C        -0.3258558742        5.0582450574        6.1533161970
  C        -1.0828806874        1.8693983025        7.9881538393
  C         3.5652450545       -1.3671330312        7.4257864341
  C         1.4239757043       -0.8123054340       10.7082332282
  C         1.0929303303        9.5004899593        5.1492660223
  C         3.3626644240        7.3455479494        2.3866835122
  C        -1.2186546966        6.0643771047        5.5869585425
  C        -0.9295999093        4.0902772508        6.9493295471
  C         3.7087776021       -3.4258649102        6.1458179135
  C         3.7765217713        6.8120736724        0.0387532204
  O         1.6757509596        1.4959969074        6.9421347424
  O        -0.2853953294       -1.8316978456        7.9875795634
  O        -2.3955236912       -0.4096838196       10.9227915377
  O        -2.7526436091        9.1342951836        5.6339490462
  O        -0.4725076629        7.9541736033        2.4854056968
  O         1.7096730954        5.7686303897        4.9523513942
  O        -0.6198736118        0.6791293708        8.1133293256
  O         4.0401260484       -0.7170008269        8.4562116092
  O         1.7698833795       -0.1824669021        9.6326331195
  O         1.3946279873        8.2515040923        5.2416113918
  O         3.6449353120        8.1397487964        3.3620562949
  O        -0.9354287075        6.5855300853        4.4483652491
  O        -2.2315132527        2.1532106808        8.5016859312
  O         2.4576254591       -1.1007287496        6.8716402638
  O         0.3036158249       -1.4442406786       10.7472451404
  O        -0.0355266747        9.8620083590        4.6506530974
  O         2.2292405391        6.7377903078        2.3547814984
  O        -2.3330708275        6.3459752170        6.1649284694
  O         2.4377045343        2.3359106218       10.2215089820
  C         2.0725004425        3.4376776686        9.8152489144
  O         1.2503232839        4.1630168017       10.5788776527
  H         2.3839466299        3.8622744034        8.8476442375
  H         1.0447702897        5.0088811859       10.1306832642
      59
 i =      203, E =     -1483.3187747696
 Ni         3.3052230386        0.8851530543        9.2084135519
 Ni         0.8712798806       -0.1011923548        7.4752746401
 Ni        -1.1935344425       -1.1879750866        9.5826706253
 Ni        -1.5184743330        8.8103268660        3.9495609114
 Ni         0.7095033006        6.7816793140        3.5655341757
 Ni         3.0379220737        7.4307440125        5.4503234114
  H         2.7800216166        3.5955580678        5.8314294437
  H        -1.6189229356       11.1219987069        6.9019542835
  H        -1.4996274104        0.0931842185       13.3592483349
  H        -1.9818016334        4.1948756344        7.1156018788
  H         2.6916391157       -3.1890026877        5.7872360821
  H         2.7534628544        6.5216012906       -0.0233758873
  C         1.0511649498        2.6531966171        6.7691017597
  C        -1.0155857831       -2.6507661749        7.1749616577
  C         3.6996404459       -0.4891560277       12.0130409267
  C         3.4279488679       10.3131663431        5.9382162015
  C        -1.0769937865        7.5036098974        1.3518532127
  C         1.0704717354        4.9023488769        5.7276852428
  C         1.7290131085        3.7260278435        6.1133575250
  C        -2.6622509342       11.3144452166        6.6563097741
  C        -2.5620417714       -0.1644257024       13.2929980549
  C        -0.3176522484        2.8828782936        7.1859743632
  C         4.3975263105       -2.4347417461        6.8486895280
  C         2.2703888119       -0.7863096036       11.9538965020
  C         2.0452206626       10.5567177042        5.6217301535
  C         4.3293113409        7.1416974912        1.2810889153
  C        -0.3017992103        5.0810938812        6.1346619870
  C        -1.0993635055        1.9016176237        7.9275860250
  C         3.5710848747       -1.3445881294        7.4068622218
  C         1.4427761709       -0.8282159332       10.7110997887
  C         1.1058981644        9.5291106962        5.1182301857
  C         3.3759584585        7.3275894021        2.3830068384
  C        -1.2015741482        6.0710053477        5.5649873646
  C        -0.9295717547        4.0738477104        6.8629169558
  C         3.7360746216       -3.3716518633        6.0451549992
  C         3.8142741142        6.7508084314        0.0404559204
  O         1.6825472064        1.5020593951        6.9450681024
  O        -0.2911555279       -1.8203650567        7.9873260980
  O        -2.3688684396       -0.3715768696       10.9273812952
  O        -2.7513726155        9.1458168412        5.6220408772
  O        -0.4684270368        7.9672782245        2.4816605617
  O         1.7386376932        5.7999644160        4.9388046527
  O        -0.6210744449        0.7226775398        8.1339103536
  O         4.0347420754       -0.7145978082        8.4630775455
  O         1.7827872500       -0.1913723310        9.6407856113
  O         1.3978836292        8.2787195130        5.2419091370
  O         3.6558793388        8.1418000157        3.3409048270
  O        -0.9269032925        6.5948083761        4.4252047850
  O        -2.2393401204        2.2335994471        8.4381633872
  O         2.4518954525       -1.0995321797        6.8719038847
  O         0.3094033690       -1.4479811301       10.7480542160
  O        -0.0433609850        9.8779284268        4.6479506376
  O         2.2328046248        6.7353059108        2.3468814533
  O        -2.3314058186        6.3554272675        6.1369104789
  O         2.4344190293        2.3384921418       10.2050448930
  C         2.1436602043        3.4245582406        9.6914210343
  O         1.3189238346        4.2488965259       10.3634047504
  H         2.5151364467        3.8142886218        8.7118349447
  H         1.2196489326        5.0959973257        9.8806832642
      59
 i =      204, E =     -1483.3257545403
 Ni         3.2925146233        0.8886759414        9.2109484073
 Ni         0.8785190932       -0.1215186374        7.4527177589
 Ni        -1.1918812244       -1.1871721076        9.5955200936
 Ni        -1.5159794118        8.8019549791        3.9590435480
 Ni         0.7085616855        6.7405422967        3.5708887974
 Ni         3.0237967359        7.4211588710        5.5502516339
  H         2.6974326446        3.4956932700        5.7219043691
  H        -1.6245226890       11.0996525076        6.9178400156
  H        -1.5163855574        0.0402993113       13.3429623553
  H        -1.9614057907        4.2427333311        7.2520513714
  H         2.6572658584       -3.2491317999        5.9227793000
  H         2.7122550465        6.5950409003       -0.0127350183
  C         1.0204584367        2.6277595152        6.7800085423
  C        -1.0146016541       -2.6779078891        7.2039769671
  C         3.6737805468       -0.4949363832       12.0131730596
  C         3.4107919149       10.2814431693        5.9856288874
  C        -1.0851039366        7.5032794087        1.3492368105
  C         1.0430906947        4.8685151436        5.7186647783
  C         1.6816151459        3.6729958585        6.0738386557
  C        -2.6757469330       11.2779361958        6.6961457298
  C        -2.5805353227       -0.1833012430       13.2855501804
  C        -0.3120268571        2.8836911237        7.2681606795
  C         4.3870841853       -2.4776349825        6.9107573113
  C         2.2381404905       -0.7537082368       11.9486853670
  C         2.0160534974       10.5119156142        5.7093122864
  C         4.3122880465        7.1770910266        1.2758253892
  C        -0.3235249628        5.0597386826        6.1525727557
  C        -1.0823780726        1.8710992280        7.9854914237
  C         3.5657838817       -1.3662109704        7.4249186589
  C         1.4251945380       -0.8127492435       10.7083865002
  C         1.0929363683        9.5014277893        5.1494127164
  C         3.3629198268        7.3457905910        2.3871429927
  C        -1.2173500386        6.0649816900        5.5864433546
  C        -0.9271562758        4.0901370243        6.9467092110
  C         3.7097354160       -3.4238534125        6.1421569151
  C         3.7782928403        6.8100845090        0.0389418517
  O         1.6763096184        1.4937546919        6.9411290914
  O        -0.2858255799       -1.8322764359        7.9883668457
  O        -2.3934175829       -0.4055025545       10.9235004310
  O        -2.7529680965        9.1328467291        5.6351389270
  O        -0.4724907535        7.9554680860        2.4854138182
  O         1.7121353536        5.7702541258        4.9525450418
  O        -0.6197484332        0.6814925561        8.1139019526
  O         4.0398080501       -0.7172620715        8.4569725964
  O         1.7706986914       -0.1827664354        9.6333554109
  O         1.3940330001        8.2525830996        5.2425580480
  O         3.6445938847        8.1401026057        3.3625389092
  O        -0.9348743304        6.5862276778        4.4471550219
  O        -2.2313649898        2.1570866272        8.4979876835
  O         2.4576834209       -1.1009093445        6.8717052447
  O         0.3041785741       -1.4441680179       10.7474855666
  O        -0.0360378054        9.8624785467        4.6510288813
  O         2.2293956589        6.7380904680        2.3540692176
  O        -2.3324668953        6.3465947492        6.1641921228
  O         2.4371962233        2.3365715617       10.2192499335
  C         2.0749709221        3.4375429374        9.8073631134
  O         1.2538191196        4.1689602743       10.5660212840
  H         2.3877789718        3.8601890536        8.8384247078
  H         1.0536584554        5.0141885888       10.1151979475
      59
 i =      205, E =     -1483.3258070580
 Ni         3.2927877867        0.8884993144        9.2110484614
 Ni         0.8784317421       -0.1200566165        7.4542268459
 Ni        -1.1919829243       -1.1873349629        9.5946880591
 Ni        -1.5160155714        8.8023211585        3.9589771778
 Ni         0.7087266817        6.7418486112        3.5705476807
 Ni         3.0242477388        7.4199481734        5.5463924867
  H         2.7018858867        3.5008177047        5.7274146612
  H        -1.6241098370       11.1011668070        6.9167382816
  H        -1.5158402802        0.0437764899       13.3435808691
  H        -1.9620549140        4.2401382759        7.2453316227
  H         2.6591358452       -3.2457974968        5.9159279859
  H         2.7143762603        6.5911346050       -0.0130241931
  C         1.0225253035        2.6295272137        6.7800619064
  C        -1.0144879209       -2.6765661432        7.2025714849
  C         3.6747797338       -0.4938124476       12.0128814382
  C         3.4115731712       10.2826657790        5.9836244018
  C        -1.0848452910        7.5039070593        1.3491912427
  C         1.0444101511        4.8698116161        5.7185671531
  C         1.6843341801        3.6756267104        6.0757524979
  C        -2.6750287215       11.2798087323        6.6938813868
  C        -2.5795809617       -0.1821429528       13.2855389792
  C        -0.3118434688        2.8835537946        7.2642613992
  C         4.3879789162       -2.4751292153        6.9071047446
  C         2.2395828563       -0.7548831826       11.9488440772
  C         2.0175698495       10.5141717650        5.7052039719
  C         4.3131629461        7.1756389091        1.2763588732
  C        -0.3224751489        5.0605146295        6.1512711670
  C        -1.0831093957        1.8723552495        7.9825655905
  C         3.5662803737       -1.3648683396        7.4234900836
  C         1.4259584208       -0.8136111943       10.7084136973
  C         1.0935123620        9.5027710800        5.1485405986
  C         3.3633435773        7.3446114610        2.3870034810
  C        -1.2165016469        6.0650225654        5.5846407038
  C        -0.9271490323        4.0888927159        6.9420627645
  C         3.7110703503       -3.4212647355        6.1375097606
  C         3.7801609620        6.8070818102        0.0391467092
  O         1.6767484895        1.4944790508        6.9416257460
  O        -0.2854220274       -1.8315339124        7.9879735955
  O        -2.3922886136       -0.4024990178       10.9231228785
  O        -2.7534958688        9.1324610854        5.6349308003
  O        -0.4722291690        7.9558457838        2.4852171939
  O         1.7136520224        5.7715766853        4.9520727027
  O        -0.6199893190        0.6833043406        8.1146564892
  O         4.0391451052       -0.7174376733        8.4572490174
  O         1.7710816940       -0.1830867471        9.6337024445
  O         1.3943292765        8.2538683683        5.2429300399
  O         3.6451491802        8.1398795568        3.3617250650
  O        -0.9346137826        6.5867651579        4.4453801166
  O        -2.2315136258        2.1601524094        8.4954697073
  O         2.4572286113       -1.1010105593        6.8718202536
  O         0.3044027907       -1.4443743419       10.7470664893
  O        -0.0363775092        9.8633342802        4.6515641849
  O         2.2293459025        6.7377063970        2.3534042011
  O        -2.3318130533        6.3466919096        6.1626766785
  O         2.4365407585        2.3377778018       10.2175888935
  C         2.0783930914        3.4378695756        9.7994565808
  O         1.2571409811        4.1754051813       10.5525207868
  H         2.3951083377        3.8582653800        8.8298814415
  H         1.0626512131        5.0200313861       10.0989868398
      59
 i =      206, E =     -1483.3258220660
 Ni         3.2929276156        0.8890130615        9.2116041194
 Ni         0.8783183329       -0.1202552466        7.4552395147
 Ni        -1.1927183091       -1.1875671804        9.5934665818
 Ni        -1.5159308356        8.8023082794        3.9588381447
 Ni         0.7081284315        6.7418211325        3.5705405498
 Ni         3.0240880514        7.4200433383        5.5475516715
  H         2.7073526687        3.5057507054        5.7320554650
  H        -1.6232607444       11.1023052175        6.9147576873
  H        -1.5153143201        0.0487526800       13.3447950624
  H        -1.9608986222        4.2374957127        7.2408364179
  H         2.6610464721       -3.2432053801        5.9098246460
  H         2.7164329784        6.5884712711       -0.0133138079
  C         1.0254962883        2.6299830870        6.7794847165
  C        -1.0144539389       -2.6757920893        7.2011264237
  C         3.6759289576       -0.4923246542       12.0125782646
  C         3.4122957058       10.2835118666        5.9820615411
  C        -1.0846505896        7.5045201216        1.3494706235
  C         1.0465904359        4.8707475277        5.7187092899
  C         1.6878949293        3.6775425611        6.0772765883
  C        -2.6741276263       11.2812324095        6.6917897774
  C        -2.5788019473       -0.1795374102       13.2855319848
  C        -0.3104599797        2.8830684015        7.2610034908
  C         4.3888377583       -2.4731224939        6.9038537967
  C         2.2411789641       -0.7556893813       11.9491657337
  C         2.0186194156       10.5151228888        5.7021285319
  C         4.3138003077        7.1750256438        1.2769970050
  C        -0.3203553739        5.0608780852        6.1507017746
  C        -1.0838033959        1.8728227867        7.9788956175
  C         3.5669443800       -1.3638534578        7.4224205981
  C         1.4265822864       -0.8140221370       10.7084781830
  C         1.0937235551        9.5028437516        5.1483083810
  C         3.3637348712        7.3444169799        2.3878716520
  C        -1.2153936098        6.0648745017        5.5846772362
  C        -0.9256567627        4.0874943456        6.9387612179
  C         3.7124821976       -3.4194734539        6.1334392528
  C         3.7819469751        6.8052126179        0.0393239941
  O         1.6774734349        1.4933327531        6.9411709663
  O        -0.2855443486       -1.8316051268        7.9880822266
  O        -2.3916627775       -0.3999966598       10.9221595140
  O        -2.7529968024        9.1322525139        5.6353730748
  O        -0.4717952819        7.9558778318        2.4852289089
  O         1.7151231033        5.7731583495        4.9516044139
  O        -0.6201467019        0.6841018234        8.1140512814
  O         4.0380980135       -0.7173640231        8.4582692596
  O         1.7713970295       -0.1831543112        9.6342544462
  O         1.3941419137        8.2539080894        5.2429827456
  O         3.6448709359        8.1399450955        3.3626861866
  O        -0.9345995605        6.5868727428        4.4449724053
  O        -2.2319636576        2.1634303837        8.4912603705
  O         2.4576809801       -1.1011828162        6.8707604705
  O         0.3044950152       -1.4443672880       10.7467759091
  O        -0.0362739159        9.8636907565        4.6511931710
  O         2.2295849128        6.7375970029        2.3537023017
  O        -2.3308158357        6.3467715901        6.1634389826
  O         2.4349015763        2.3405217928       10.2159389683
  C         2.0801753396        3.4401230864        9.7904469156
  O         1.2584735401        4.1853703278       10.5368954636
  H         2.3994507775        3.8579420623        8.8190965365
  H         1.0699567863        5.0281843114       10.0783799490
      59
 i =      207, E =     -1483.3258676904
 Ni         3.2926606660        0.8898871244        9.2120748769
 Ni         0.8783504084       -0.1192850805        7.4539770127
 Ni        -1.1927099429       -1.1879550441        9.5943540723
 Ni        -1.5154783834        8.8015316623        3.9593581132
 Ni         0.7084566170        6.7403353656        3.5705814436
 Ni         3.0244378411        7.4191086320        5.5486473671
  H         2.7046060103        3.5023241013        5.7290173578
  H        -1.6235339043       11.1016367037        6.9155586683
  H        -1.5158721230        0.0462527667       13.3430764189
  H        -1.9613714659        4.2393175479        7.2434924680
  H         2.6604320511       -3.2438587809        5.9125577729
  H         2.7149678205        6.5897821197       -0.0126525865
  C         1.0240432353        2.6300932062        6.7803121912
  C        -1.0140966003       -2.6760619053        7.2015251903
  C         3.6746667046       -0.4930992411       12.0121472669
  C         3.4118669642       10.2831512043        5.9828647382
  C        -1.0846382395        7.5042423852        1.3490664817
  C         1.0453036308        4.8696626385        5.7178368057
  C         1.6861949847        3.6763455628        6.0761331736
  C        -2.6746218923       11.2802763332        6.6930618420
  C        -2.5795154302       -0.1804983398       13.2845835159
  C        -0.3109344808        2.8830663048        7.2639887276
  C         4.3888696338       -2.4740422999        6.9048559776
  C         2.2397520784       -0.7549775692       11.9486267371
  C         2.0178123614       10.5141580603        5.7040511254
  C         4.3134765589        7.1757741790        1.2763047464
  C        -0.3216481607        5.0599363553        6.1505430147
  C        -1.0836780975        1.8715860879        7.9813791248
  C         3.5667431461       -1.3643507541        7.4223411626
  C         1.4257423751       -0.8132949190       10.7080802063
  C         1.0934828749        9.5019435009        5.1487791610
  C         3.3634515782        7.3440873492        2.3872276739
  C        -1.2162571212        6.0645346478        5.5848371420
  C        -0.9262693745        4.0880231450        6.9410515808
  C         3.7119485503       -3.4204335742        6.1352679485
  C         3.7805585420        6.8067933892        0.0391200977
  O         1.6771419439        1.4946419615        6.9421443196
  O        -0.2852044116       -1.8314103914        7.9877117890
  O        -2.3935841019       -0.4018369164       10.9210538245
  O        -2.7529181755        9.1327082539        5.6348261251
  O        -0.4715959165        7.9546861191        2.4852222248
  O         1.7133653654        5.7719790029        4.9508751591
  O        -0.6206177715        0.6823154659        8.1140218206
  O         4.0386074434       -0.7171525343        8.4571673713
  O         1.7707339726       -0.1826326121        9.6335279213
  O         1.3942470913        8.2530722802        5.2430898416
  O         3.6453055768        8.1394631611        3.3619872444
  O        -0.9344824301        6.5864311892        4.4456432923
  O        -2.2320175482        2.1612050313        8.4936971954
  O         2.4575507822       -1.1009238237        6.8704704606
  O         0.3042896457       -1.4440377722       10.7471013441
  O        -0.0361701852        9.8628898386        4.6514185921
  O         2.2293354985        6.7373437877        2.3539312584
  O        -2.3309554509        6.3469941466        6.1632650478
  O         2.4351156096        2.3402622010       10.2176856373
  C         2.0788687504        3.4403110695        9.7952223636
  O         1.2567048442        4.1823667912       10.5444452924
  H         2.3984426976        3.8590295125        8.8251313071
  H         1.0648740334        5.0252809872       10.0869062689
      59
 i =      208, E =     -1483.3259081428
 Ni         3.2922872253        0.8910681343        9.2127266020
 Ni         0.8781914397       -0.1196693170        7.4534256810
 Ni        -1.1922925271       -1.1872983755        9.5952831308
 Ni        -1.5155965557        8.8005430170        3.9596518458
 Ni         0.7091161316        6.7401010472        3.5710780170
 Ni         3.0240701636        7.4189138937        5.5512688492
  H         2.7028875159        3.4998135188        5.7263721944
  H        -1.6235088806       11.1015168636        6.9148413868
  H        -1.5162603213        0.0451314977       13.3419493732
  H        -1.9608704616        4.2409171985        7.2467195195
  H         2.6601469332       -3.2437246095        5.9142852859
  H         2.7141571337        6.5903758663       -0.0121427585
  C         1.0235135442        2.6293703101        6.7805863703
  C        -1.0135643765       -2.6761908549        7.2012460596
  C         3.6738551875       -0.4921580443       12.0118104508
  C         3.4112973067       10.2824752206        5.9838133651
  C        -1.0845707576        7.5035155858        1.3488185945
  C         1.0447636946        4.8689066545        5.7170819578
  C         1.6852484888        3.6752308398        6.0751870707
  C        -2.6749217189       11.2795148179        6.6934005209
  C        -2.5801350881       -0.1799172014       13.2839314881
  C        -0.3105924140        2.8832977025        7.2658262149
  C         4.3890805400       -2.4745678495        6.9056457405
  C         2.2390734500       -0.7538967323       11.9482745783
  C         2.0168387763       10.5132650780        5.7065673795
  C         4.3133526657        7.1759585391        1.2756333185
  C        -0.3221655831        5.0595722130        6.1506011476
  C        -1.0828343362        1.8711234035        7.9835502411
  C         3.5669408545       -1.3644110134        7.4225358443
  C         1.4252631828       -0.8125960922       10.7079535948
  C         1.0931706725        9.5015853050        5.1495076635
  C         3.3634469020        7.3440430696        2.3868991452
  C        -1.2170317182        6.0644570135        5.5854348981
  C        -0.9260639497        4.0887977175        6.9432363368
  C         3.7117430568       -3.4204884741        6.1361632181
  C         3.7796770581        6.8081325713        0.0387751207
  O         1.6773467989        1.4946910231        6.9420157375
  O        -0.2851150029       -1.8314259349        7.9874388878
  O        -2.3947596849       -0.4009844180       10.9201412486
  O        -2.7528312751        9.1325435395        5.6354182542
  O        -0.4716299726        7.9537990278        2.4852370280
  O         1.7125634529        5.7710298819        4.9499556173
  O        -0.6204568396        0.6815511332        8.1147142777
  O         4.0393692072       -0.7167547896        8.4563990928
  O         1.7702062492       -0.1816688011        9.6334271924
  O         1.3941101323        8.2528163082        5.2438058587
  O         3.6453605117        8.1391757789        3.3617756921
  O        -0.9345612236        6.5864427947        4.4465674319
  O        -2.2318144844        2.1600605466        8.4948378842
  O         2.4576419453       -1.1004674713        6.8710178370
  O         0.3044617308       -1.4437117105       10.7477112158
  O        -0.0363750988        9.8622207636        4.6516492239
  O         2.2293298780        6.7374620588        2.3539132985
  O        -2.3315389661        6.3463803864        6.1635593355
  O         2.4349698196        2.3415802996       10.2184021931
  C         2.0788884743        3.4416658798        9.7964258121
  O         1.2563440997        4.1837804028       10.5458033426
  H         2.3993686143        3.8595358863        8.8270606902
  H         1.0632870880        5.0260471282       10.0869551347
      59
 i =      209, E =     -1483.3259662611
 Ni         3.2912312188        0.8930910866        9.2138450651
 Ni         0.8786815364       -0.1198328101        7.4523664574
 Ni        -1.1918227551       -1.1857309833        9.5955444278
 Ni        -1.5157155623        8.8001966843        3.9601676742
 Ni         0.7088929751        6.7381724318        3.5703949405
 Ni         3.0237543240        7.4189918878        5.5564756891
  H         2.6997661385        3.4955616396        5.7223925348
  H        -1.6232198646       11.1020740255        6.9127733504
  H        -1.5170948141        0.0438466385       13.3392514218
  H        -1.9602963587        4.2440465280        7.2513513080
  H         2.6600609319       -3.2426348990        5.9161872558
  H         2.7130911402        6.5905750130       -0.0116138366
  C         1.0220264746        2.6289121098        6.7811244104
  C        -1.0128071607       -2.6759895005        7.2011617122
  C         3.6725631720       -0.4908318059       12.0102824940
  C         3.4106096304       10.2823766442        5.9847586303
  C        -1.0845754271        7.5033617876        1.3475274646
  C         1.0438596135        4.8682594865        5.7153066218
  C         1.6833724026        3.6737002429        6.0733383579
  C        -2.6753001091       11.2791707484        6.6935741396
  C        -2.5807845474       -0.1796366714       13.2816762456
  C        -0.3101293189        2.8839175378        7.2698713399
  C         4.3895894443       -2.4746920571        6.9061433500
  C         2.2376263429       -0.7517712322       11.9469440243
  C         2.0156538264       10.5125631059        5.7094574686
  C         4.3133915158        7.1760391433        1.2742844590
  C        -0.3233285668        5.0583218562        6.1500860557
  C        -1.0819417630        1.8707678152        7.9873861776
  C         3.5667888287       -1.3642778650        7.4219858536
  C         1.4239004074       -0.8112755839       10.7074750803
  C         1.0928301011        9.5007344461        5.1503549990
  C         3.3634938556        7.3438670520        2.3859413353
  C        -1.2179747765        6.0643006361        5.5857929142
  C        -0.9258942180        4.0900664292        6.9467368843
  C         3.7112732875       -3.4207390330        6.1380985165
  C         3.7786339294        6.8097228165        0.0379753215
  O         1.6770308937        1.4957968129        6.9420057972
  O        -0.2843973432       -1.8312957103        7.9872646305
  O        -2.3964209528       -0.3993121907       10.9175157060
  O        -2.7530200469        9.1332839131        5.6344196287
  O        -0.4723648724        7.9531658022        2.4849311240
  O         1.7105099932        5.7704314244        4.9478009664
  O        -0.6205018679        0.6803894245        8.1143739783
  O         4.0392012355       -0.7162034080        8.4547957506
  O         1.7695423281       -0.1807433845        9.6325661537
  O         1.3936235208        8.2518297911        5.2444503449
  O         3.6459491086        8.1387460428        3.3608140588
  O        -0.9350502806        6.5870741175        4.4476559026
  O        -2.2317699651        2.1582327469        8.4975437792
  O         2.4572763426       -1.1005033020        6.8705882486
  O         0.3044757521       -1.4442963655       10.7470117255
  O        -0.0360721742        9.8618829752        4.6518622473
  O         2.2294977820        6.7374702909        2.3538078534
  O        -2.3314263990        6.3459240758        6.1643471810
  O         2.4339724428        2.3432318139       10.2204942661
  C         2.0801129298        3.4434884424        9.7964712841
  O         1.2557592879        4.1881053090       10.5429456607
  H         2.4048871033        3.8581299966        8.8282840276
  H         1.0632510008        5.0290907771       10.0800929135
      59
 i =      210, E =     -1483.3260026423
 Ni         3.2914618251        0.8935750207        9.2141659445
 Ni         0.8783517909       -0.1206384047        7.4516157935
 Ni        -1.1916293966       -1.1848268536        9.5960293208
 Ni        -1.5162082244        8.7999514058        3.9599528888
 Ni         0.7095032512        6.7390714976        3.5708944640
 Ni         3.0223946505        7.4201132875        5.5623852821
  H         2.6967576199        3.4917864104        5.7177318987
  H        -1.6229544282       11.1031420340        6.9098409407
  H        -1.5179198895        0.0434378274       13.3382330766
  H        -1.9586031027        4.2470618436        7.2569772191
  H         2.6591676161       -3.2428788972        5.9188253660
  H         2.7124189456        6.5906927716       -0.0119267179
  C         1.0205131867        2.6280661450        6.7805183403
  C        -1.0129919629       -2.6759310361        7.2007282654
  C         3.6722044290       -0.4888348896       12.0090099943
  C         3.4099116075       10.2819146388        5.9858207790
  C        -1.0845098907        7.5029928498        1.3469602315
  C         1.0430522422        4.8679597458        5.7144392233
  C         1.6817187498        3.6720900053        6.0709699131
  C        -2.6756186320       11.2792638347        6.6930651272
  C        -2.5815878153       -0.1787389024       13.2805897871
  C        -0.3095295136        2.8853409079        7.2733910574
  C         4.3888814714       -2.4754445441        6.9073538165
  C         2.2370824905       -0.7500257933       11.9457193276
  C         2.0146146811       10.5117860235        5.7121078271
  C         4.3132111972        7.1766616677        1.2732917593
  C        -0.3240012542        5.0583535740        6.1499192081
  C        -1.0809972859        1.8712333103        7.9899102665
  C         3.5661069872       -1.3648598445        7.4227330084
  C         1.4231158430       -0.8099742622       10.7069373190
  C         1.0918745702        9.5008247715        5.1512986843
  C         3.3632835287        7.3446398856        2.3852522371
  C        -1.2190961281        6.0648163340        5.5865098256
  C        -0.9250233624        4.0920765142        6.9499061339
  C         3.7104607967       -3.4213886952        6.1398789246
  C         3.7779170381        6.8109551037        0.0371509085
  O         1.6767185741        1.4957772231        6.9411614957
  O        -0.2848882203       -1.8308619745        7.9867948004
  O        -2.3963716364       -0.3968207662       10.9156849215
  O        -2.7532249609        9.1329921506        5.6354038307
  O        -0.4722416689        7.9537598075        2.4844332360
  O         1.7101394085        5.7696470265        4.9471791340
  O        -0.6216339520        0.6797503349        8.1138352281
  O         4.0392985480       -0.7166406987        8.4545081780
  O         1.7692410351       -0.1802597570        9.6315931007
  O         1.3938389550        8.2524212215        5.2449289652
  O         3.6458108949        8.1386221932        3.3603877367
  O        -0.9356647298        6.5875966334        4.4483054877
  O        -2.2310503229        2.1582077081        8.5002898651
  O         2.4569409089       -1.0996712772        6.8708666918
  O         0.3039144996       -1.4430493104       10.7471763182
  O        -0.0362908982        9.8616316640        4.6514768871
  O         2.2296194125        6.7377897195        2.3537387858
  O        -2.3318737773        6.3457611454        6.1664198961
  O         2.4340648772        2.3435025831       10.2207867446
  C         2.0825312147        3.4436169540        9.7943021448
  O         1.2571214725        4.1912207982       10.5367943610
  H         2.4107829956        3.8545875914        8.8266978685
  H         1.0659415108        5.0311349688       10.0700142948
      59
 i =      211, E =     -1483.3260323933
 Ni         3.2913075874        0.8932087818        9.2134610464
 Ni         0.8782890522       -0.1215424598        7.4511228447
 Ni        -1.1916690728       -1.1841007393        9.5954982728
 Ni        -1.5160961627        8.8005340289        3.9600392402
 Ni         0.7085026861        6.7401073715        3.5693972179
 Ni         3.0212273166        7.4207838947        5.5664979373
  H         2.6936749118        3.4889432531        5.7131993072
  H        -1.6226344702       11.1041014501        6.9083307983
  H        -1.5180533424        0.0430467807       13.3372827803
  H        -1.9567697526        4.2496412931        7.2622157403
  H         2.6580390246       -3.2443518252        5.9217730214
  H         2.7122077675        6.5913357921       -0.0123822471
  C         1.0196453682        2.6275249278        6.7800269180
  C        -1.0130091018       -2.6759150719        7.2009873272
  C         3.6719186328       -0.4882059119       12.0080609220
  C         3.4093819054       10.2816237235        5.9867132831
  C        -1.0849356015        7.5039370071        1.3459161854
  C         1.0421996031        4.8674146875        5.7129144786
  C         1.6798767051        3.6708311758        6.0686026623
  C        -2.6757349608       11.2792641269        6.6931216841
  C        -2.5816167987       -0.1790894915       13.2796598722
  C        -0.3088613717        2.8860623962        7.2753379673
  C         4.3882985656       -2.4763336572        6.9089557623
  C         2.2364631280       -0.7488209806       11.9447593550
  C         2.0141197102       10.5116148622        5.7130526794
  C         4.3129123577        7.1773119347        1.2729534767
  C        -0.3240426880        5.0583647051        6.1504886496
  C        -1.0807037108        1.8725653168        7.9916870912
  C         3.5658919321       -1.3652739294        7.4232020836
  C         1.4225016363       -0.8095540913       10.7064043299
  C         1.0917530149        9.5004693798        5.1519322823
  C         3.3631794807        7.3454778901        2.3851326371
  C        -1.2188002237        6.0650777642        5.5867866071
  C        -0.9240975323        4.0936328394        6.9528934714
  C         3.7096155668       -3.4223670200        6.1421096568
  C         3.7776907083        6.8116336940        0.0366957205
  O         1.6761310897        1.4952241953        6.9407889938
  O        -0.2846311881       -1.8314838686        7.9873541469
  O        -2.3965603462       -0.3961011294       10.9142923202
  O        -2.7537471602        9.1325015080        5.6361132305
  O        -0.4728126253        7.9547489339        2.4836395881
  O         1.7096668882        5.7700587777        4.9470751453
  O        -0.6216017423        0.6805707776        8.1132970434
  O         4.0391895058       -0.7164442642        8.4541143716
  O         1.7690504011       -0.1801934782        9.6307816132
  O         1.3931687873        8.2518500254        5.2454712088
  O         3.6456031011        8.1395318701        3.3601576590
  O        -0.9357015042        6.5878822570        4.4485192239
  O        -2.2305927289        2.1596469424        8.5027197139
  O         2.4569634387       -1.0997814755        6.8708802951
  O         0.3033265978       -1.4428828724       10.7463152343
  O        -0.0358544718        9.8615298422        4.6519069207
  O         2.2295000364        6.7387249274        2.3535534507
  O        -2.3317879329        6.3452013795        6.1663393936
  O         2.4337860314        2.3426823354       10.2204265693
  C         2.0841967406        3.4427118156        9.7923235249
  O         1.2589628916        4.1921925521       10.5319431922
  H         2.4148956279        3.8508955972        8.8248864290
  H         1.0682034489        5.0313434351       10.0623806161
      59
 i =      212, E =     -1483.3260610429
 Ni         3.2919161694        0.8922420863        9.2127082584
 Ni         0.8777884281       -0.1207771419        7.4506381831
 Ni        -1.1917362684       -1.1848690282        9.5955122257
 Ni        -1.5158879164        8.8012524478        3.9593997432
 Ni         0.7086947695        6.7424116391        3.5681380679
 Ni         3.0206216225        7.4209042881        5.5687275967
  H         2.6912063086        3.4871061122        5.7088275558
  H        -1.6223394652       11.1053874652        6.9071396640
  H        -1.5178937035        0.0435211551       13.3361669860
  H        -1.9549919156        4.2528943389        7.2661310127
  H         2.6572062068       -3.2456979735        5.9234795861
  H         2.7123709358        6.5912167260       -0.0132411882
  C         1.0185780363        2.6278729953        6.7791663305
  C        -1.0135129129       -2.6762443577        7.2014144435
  C         3.6720910834       -0.4878388093       12.0069297785
  C         3.4093278903       10.2819585939        5.9862379578
  C        -1.0847891107        7.5050881814        1.3450192494
  C         1.0416974042        4.8674766864        5.7120734635
  C         1.6782732181        3.6697445388        6.0656392679
  C        -2.6755826938       11.2798006509        6.6923436668
  C        -2.5815446969       -0.1789096752       13.2788576027
  C        -0.3087217170        2.8875983566        7.2767310867
  C         4.3875172377       -2.4767663877        6.9100167412
  C         2.2366450873       -0.7486493556       11.9440792278
  C         2.0138663949       10.5116035233        5.7127996793
  C         4.3130760905        7.1778959244        1.2724436064
  C        -0.3236205372        5.0599966197        6.1510799793
  C        -1.0807875390        1.8746188261        7.9929688852
  C         3.5651241710       -1.3658636043        7.4236804784
  C         1.4228748226       -0.8096091295       10.7059720648
  C         1.0913628001        9.5005608500        5.1521075305
  C         3.3632472781        7.3463370957        2.3844625497
  C        -1.2186384605        6.0661271488        5.5866944250
  C        -0.9233879331        4.0955962785        6.9540230926
  C         3.7092915512       -3.4226829633        6.1427016829
  C         3.7777379503        6.8115556703        0.0362535397
  O         1.6757880970        1.4956948209        6.9409282228
  O        -0.2846025366       -1.8313627259        7.9868662160
  O        -2.3962530049       -0.3950322835       10.9133244142
  O        -2.7539452182        9.1324258090        5.6361440232
  O        -0.4725330319        7.9560243680        2.4827434659
  O         1.7100791688        5.7700945463        4.9470115024
  O        -0.6229764041        0.6816989486        8.1127693382
  O         4.0398770784       -0.7169697818        8.4540292825
  O         1.7691443440       -0.1803702603        9.6302208566
  O         1.3931023144        8.2519488769        5.2458930817
  O         3.6454346575        8.1403614313        3.3593019889
  O        -0.9359852684        6.5879237917        4.4475323645
  O        -2.2300000646        2.1632893893        8.5056278525
  O         2.4564385076       -1.1001467159        6.8705889726
  O         0.3032643252       -1.4423960057       10.7462766645
  O        -0.0355047120        9.8614980667        4.6507783216
  O         2.2296863865        6.7389683775        2.3528971012
  O        -2.3313726216        6.3461636062        6.1672135577
  O         2.4341074740        2.3407328408       10.2196603464
  C         2.0879075423        3.4403700220        9.7885007495
  O         1.2631768662        4.1927257466       10.5236460416
  H         2.4225357645        3.8447719339        8.8213181120
  H         1.0750254902        5.0309947047       10.0514316233
      59
 i =      213, E =     -1483.3261295770
 Ni         3.2927419847        0.8911348146        9.2120832853
 Ni         0.8763747709       -0.1192470759        7.4509351849
 Ni        -1.1919020980       -1.1858404703        9.5947967930
 Ni        -1.5153591576        8.8018108133        3.9590455380
 Ni         0.7088940609        6.7450530129        3.5663613424
 Ni         3.0197436129        7.4204073517        5.5702088589
  H         2.6879607238        3.4855017190        5.7018095478
  H        -1.6219245237       11.1075059568        6.9050900352
  H        -1.5169166252        0.0454212722       13.3332179906
  H        -1.9529095932        4.2579944463        7.2698763966
  H         2.6564906829       -3.2466363887        5.9236058263
  H         2.7137378506        6.5899558016       -0.0144733699
  C         1.0174331979        2.6294673376        6.7777827409
  C        -1.0138555072       -2.6755700809        7.2004323419
  C         3.6723798766       -0.4872619522       12.0052680307
  C         3.4097150100       10.2828199380        5.9847705860
  C        -1.0840172686        7.5064787902        1.3434927447
  C         1.0411597425        4.8679316811        5.7099431862
  C         1.6762458727        3.6692925231        6.0613150992
  C        -2.6753388807       11.2811382141        6.6905365179
  C        -2.5807928479       -0.1780218767       13.2773900608
  C        -0.3089493759        2.8902975980        7.2765131079
  C         4.3867057741       -2.4770896954        6.9098544091
  C         2.2375654339       -0.7494951123       11.9429558887
  C         2.0142261821       10.5120068518        5.7106388369
  C         4.3138862818        7.1779533709        1.2715896627
  C        -0.3227523026        5.0628911315        6.1510174412
  C        -1.0814317356        1.8789507402        7.9939789068
  C         3.5652625895       -1.3662138754        7.4241432988
  C         1.4236203025       -0.8106910854       10.7053215074
  C         1.0912381946        9.5006901856        5.1518587549
  C         3.3639419377        7.3469469629        2.3834955013
  C        -1.2181216694        6.0682609378        5.5865044699
  C        -0.9224522775        4.0993762273        6.9550922694
  C         3.7089312853       -3.4229653992        6.1419288015
  C         3.7788467426        6.8104620616        0.0354472300
  O         1.6748856952        1.4967232629        6.9412682897
  O        -0.2848826368       -1.8313075626        7.9860304431
  O        -2.3963158925       -0.3936217796       10.9116250686
  O        -2.7539668498        9.1325842306        5.6359486477
  O        -0.4718638354        7.9574673041        2.4814077971
  O         1.7111131940        5.7708483062        4.9464763412
  O        -0.6246091129        0.6849594898        8.1127172547
  O         4.0404702879       -0.7168163689        8.4543431229
  O         1.7691876919       -0.1811351725        9.6298760843
  O         1.3927342604        8.2518707759        5.2461982312
  O         3.6456335124        8.1417252739        3.3575294896
  O        -0.9357068360        6.5881982578        4.4464665087
  O        -2.2293161995        2.1712983033        8.5094715812
  O         2.4566111925       -1.0996964395        6.8712937918
  O         0.3032893124       -1.4423363001       10.7459238529
  O        -0.0354374670        9.8610628886        4.6503309712
  O         2.2300297368        6.7395695394        2.3521713235
  O        -2.3315380027        6.3470341680        6.1663295004
  O         2.4346504882        2.3377719750       10.2191582269
  C         2.0971273407        3.4366226039        9.7799688225
  O         1.2719016970        4.1957465475       10.5046936391
  H         2.4411355585        3.8328147729        8.8130034777
  H         1.0905389677        5.0321127462       10.0268672637
      59
 i =      214, E =     -1483.2487128077
 Ni         3.2919800888        0.9423913935        9.2335909439
 Ni         0.9396032469       -0.1546361904        7.4754038315
 Ni        -1.1599932360       -1.0828025752        9.6665324385
 Ni        -1.5813122473        8.8070233143        3.9463238462
 Ni         0.7260095796        6.6642052029        3.6300532629
 Ni         3.0456094282        7.4517732605        5.5964266058
  H         2.7324382282        3.4936252809        5.7611983294
  H        -1.6175475183       11.1098390826        6.8798660844
  H        -1.5503898951        0.0636284161       13.3632094833
  H        -1.9628517046        4.2667512632        7.2347309323
  H         2.6797594257       -3.2202581286        5.9078329025
  H         2.7012323773        6.5635762262       -0.0033344527
  C         1.0359726693        2.5734540477        6.7635511702
  C        -1.0047978976       -2.7017843878        7.2344862474
  C         3.7053417561       -0.4750910936       12.0093753089
  C         3.3906538458       10.2843324138        5.9709563445
  C        -1.0952068364        7.4704569919        1.3634040051
  C         1.0767000822        4.9363964148        5.7521440227
  C         1.7066746975        3.6770268005        6.0871517635
  C        -2.6667475835       11.2825073380        6.6527338083
  C        -2.6003349446       -0.1241038915       13.2713415827
  C        -0.2640792955        2.8962616720        7.3371750296
  C         4.4268887083       -2.4299840000        6.9053030065
  C         2.2378660036       -0.7343144078       11.9503921513
  C         1.9838288073       10.5278124586        5.7796455736
  C         4.3078233380        7.1631622977        1.2521419162
  C        -0.3247751537        5.0400015365        6.1956002889
  C        -1.0323654005        1.8415610813        8.0301390729
  C         3.5029498067       -1.3478171084        7.3673908077
  C         1.3871914387       -0.7666344024       10.7086079895
  C         1.0863965781        9.4954370146        5.1479734661
  C         3.3548397092        7.3230069785        2.3756042287
  C        -1.2276169066        6.0276404963        5.5433468081
  C        -0.9230859537        4.0432538883        6.9482318558
  C         3.7274555528       -3.3662084306        6.1484501655
  C         3.7729512686        6.8357223247        0.0319332981
  O         1.6983777392        1.5099195282        6.9200081977
  O        -0.3000214877       -1.7742264228        8.0186090035
  O        -2.3260466609       -0.3050015239       10.9143219582
  O        -2.7541062119        9.1499941858        5.6149691578
  O        -0.4828944625        7.9502782455        2.4956105130
  O         1.6502948576        5.7911857808        4.8618860180
  O        -0.6027069421        0.6512394861        8.1058347226
  O         4.0442580189       -0.7687557775        8.3815691085
  O         1.7871931810       -0.1854364607        9.6050591681
  O         1.4122512089        8.2693229883        5.2591283496
  O         3.6869469161        8.0813708467        3.3673473406
  O        -0.9723024265        6.6323898893        4.4349619096
  O        -2.2338423334        2.0246003484        8.4170575191
  O         2.3820522864       -1.1646770984        6.8059173885
  O         0.3056372113       -1.4662126920       10.7909069036
  O        -0.0461047876        9.9136491447        4.6491812509
  O         2.2326036213        6.7292748260        2.3409234037
  O        -2.2777557085        6.3526363361        6.2415928829
  O         2.4131745830        2.3836944587       10.2663838281
  C         2.1104267472        3.4849974522        9.6970637165
  O         1.1134870271        4.3488754638       10.2706931590
  H         2.5089312990        3.8336081847        8.7322257194
  H         1.1185275028        5.1907119384        9.7768672637
      59
 i =      215, E =     -1483.3259358123
 Ni         3.2977821073        0.8873947845        9.2095403225
 Ni         0.8728524438       -0.1148878420        7.4547706821
 Ni        -1.1895931588       -1.1841519317        9.5958012073
 Ni        -1.5182742934        8.8052328750        3.9566442918
 Ni         0.7109117415        6.7520826875        3.5629668946
 Ni         3.0167893763        7.4231332251        5.5768102578
  H         2.6720993866        3.4765116831        5.6638460557
  H        -1.6204841878       11.1169188807        6.8948787496
  H        -1.5126822764        0.0530433842       13.3210437434
  H        -1.9422086569        4.2863194705        7.2894717196
  H         2.6521047489       -3.2533235833        5.9264804940
  H         2.7197824978        6.5845667193       -0.0202383275
  C         1.0117779591        2.6334347599        6.7692044959
  C        -1.0155653992       -2.6739823524        7.1970538174
  C         3.6764904292       -0.4866542656       11.9994884865
  C         3.4110597100       10.2863845581        5.9769145687
  C        -1.0801750517        7.5100866438        1.3377991367
  C         1.0404169244        4.8748761575        5.7020599564
  C         1.6671444390        3.6663967303        6.0393437447
  C        -2.6745501721       11.2866996155        6.6810127080
  C        -2.5768052746       -0.1724764555       13.2709826514
  C        -0.3085035576        2.9053326881        7.2770083754
  C         4.3838906172       -2.4788229989        6.9098953003
  C         2.2425846453       -0.7558112609       11.9389570505
  C         2.0151049667       10.5141932994        5.7038623884
  C         4.3178606711        7.1777400137        1.2664588057
  C        -0.3182788647        5.0780764187        6.1547472963
  C        -1.0829335413        1.9002834411        8.0000968804
  C         3.5626241128       -1.3686634913        7.4249786864
  C         1.4250676777       -0.8153246851       10.7030249981
  C         1.0906237945        9.5007862079        5.1495987909
  C         3.3668923757        7.3503867135        2.3785812719
  C        -1.2162094842        6.0785084421        5.5844582451
  C        -0.9171212445        4.1175274564        6.9619929102
  C         3.7062279975       -3.4243237518        6.1408175239
  C         3.7849176467        6.8057210608        0.0318162036
  O         1.6703096392        1.5023978963        6.9403424022
  O        -0.2871296712       -1.8285552584        7.9846342445
  O        -2.3909643585       -0.3852385421       10.9057913153
  O        -2.7532246048        9.1341454323        5.6338272483
  O        -0.4695194007        7.9658209313        2.4760432108
  O         1.7128054818        5.7764572028        4.9397185614
  O        -0.6328909009        0.7008669342        8.1117715241
  O         4.0434746241       -0.7200065321        8.4523467457
  O         1.7702364452       -0.1870200886        9.6269994430
  O         1.3912759945        8.2524903917        5.2472748810
  O         3.6482818961        8.1463378784        3.3503232838
  O        -0.9365414216        6.5932499858        4.4415251027
  O        -2.2261330877        2.2057136969        8.5230886470
  O         2.4544718780       -1.1002263440        6.8723995238
  O         0.3036832031       -1.4461139181       10.7469406220
  O        -0.0362445215        9.8630224424        4.6493123981
  O         2.2325605521        6.7428566756        2.3485039577
  O        -2.3305632802        6.3514604199        6.1669720139
  O         2.4379014586        2.3208166147       10.2215126503
  C         2.1463339200        3.4163817851        9.7344764911
  O         1.3043464719        4.2124252495       10.3962330521
  H         2.5379571407        3.7678761836        8.7683094672
  H         1.1713135515        5.0417382852        9.8959854033
      59
 i =      216, E =     -1483.3241871425
 Ni         3.2791570839        0.8997701273        9.2185640670
 Ni         0.8870257651       -0.1299995258        7.4497960141
 Ni        -1.1975012737       -1.1841253657        9.5957776902
 Ni        -1.5147929848        8.7942096748        3.9641160901
 Ni         0.7050849494        6.7282901378        3.5757999025
 Ni         3.0254383906        7.4150443827        5.5528937381
  H         2.7156535781        3.4995518652        5.7517097279
  H        -1.6227948146       11.0911536468        6.9207834783
  H        -1.5235461161        0.0452452151       13.3478389320
  H        -1.9645174004        4.2181438673        7.2408460146
  H         2.6664362506       -3.2362448474        5.9159123352
  H         2.7065716782        6.5969051634       -0.0028011494
  C         1.0296740434        2.6234182271        6.7883066251
  C        -1.0106760017       -2.6752053377        7.2044108274
  C         3.6674798381       -0.4844785464       12.0134013856
  C         3.4107786948       10.2784110038        5.9970023174
  C        -1.0885195873        7.5027106732        1.3519464926
  C         1.0448769363        4.8586934212        5.7174413241
  C         1.6945138409        3.6752602467        6.0913097440
  C        -2.6751312660       11.2745270107        6.7056651826
  C        -2.5857182240       -0.1791842933       13.2840193929
  C        -0.3059188599        2.8714890217        7.2759742620
  C         4.3936105112       -2.4724998601        6.9035823193
  C         2.2320138458       -0.7399632250       11.9506481985
  C         2.0159899866       10.5068864743        5.7227195286
  C         4.3098706899        7.1791493329        1.2786589695
  C        -0.3266816206        5.0420344979        6.1429235833
  C        -1.0744578928        1.8438539088        7.9811133823
  C         3.5711753879       -1.3602630364        7.4194777932
  C         1.4205647485       -0.8028273105       10.7095385001
  C         1.0928435293        9.5004370347        5.1558405430
  C         3.3598628487        7.3393339840        2.3908508060
  C        -1.2217695375        6.0539999694        5.5897868389
  C        -0.9258958831        4.0745538535        6.9448496964
  C         3.7152470325       -3.4225698397        6.1420468860
  C         3.7725348327        6.8162039836        0.0412591646
  O         1.6848396282        1.4881241615        6.9374663936
  O        -0.2819352923       -1.8345862436        7.9920653703
  O        -2.4046523342       -0.4004723776       10.9176803592
  O        -2.7563356180        9.1294499322        5.6382311486
  O        -0.4741342183        7.9456743965        2.4888459583
  O         1.7099707483        5.7603174961        4.9470793001
  O        -0.6079981626        0.6591327530        8.1126944948
  O         4.0330485342       -0.7107435173        8.4553072887
  O         1.7669752110       -0.1726613816        9.6345574403
  O         1.3946509373        8.2516629621        5.2457720149
  O         3.6439485374        8.1305677881        3.3689553491
  O        -0.9360554391        6.5832755570        4.4556792000
  O        -2.2365645985        2.1049393457        8.4715211852
  O         2.4608734852       -1.1022196808        6.8673001541
  O         0.3034240586       -1.4367626171       10.7445979848
  O        -0.0368004366        9.8576801159        4.6551336534
  O         2.2261975190        6.7341557983        2.3579833633
  O        -2.3333900401        6.3414445543        6.1661685552
  O         2.4224336845        2.3708029182       10.2117557114
  C         2.0368205382        3.4720066492        9.8177866289
  O         1.2298063227        4.2005620687       10.6074614703
  H         2.3321803411        3.9180633785        8.8501270198
  H         0.9991291238        5.0395867436       10.1459854033
      59
 i =      217, E =     -1483.3262938800
 Ni         3.2904628814        0.8916690223        9.2140435630
 Ni         0.8786284356       -0.1233645739        7.4521953970
 Ni        -1.1916673525       -1.1835827417        9.5950139352
 Ni        -1.5168243734        8.8020553515        3.9587592344
 Ni         0.7089930119        6.7410862083        3.5664902055
 Ni         3.0201698881        7.4217794538        5.5670677600
  H         2.6880579743        3.4849608460        5.6954703849
  H        -1.6214813076       11.1067813863        6.9052524032
  H        -1.5166139414        0.0515100486       13.3317143343
  H        -1.9496175053        4.2618331740        7.2720502244
  H         2.6573872216       -3.2477668436        5.9227332788
  H         2.7156204223        6.5894009573       -0.0141295942
  C         1.0196019318        2.6287875234        6.7755650348
  C        -1.0135658683       -2.6758359508        7.2004423390
  C         3.6734680140       -0.4852536973       12.0049738347
  C         3.4106208449       10.2828541147        5.9839662991
  C        -1.0829448816        7.5072784324        1.3436275720
  C         1.0425910341        4.8697869930        5.7083451700
  C         1.6772664928        3.6696044766        6.0578997610
  C        -2.6746144645       11.2812581294        6.6898339315
  C        -2.5801420753       -0.1735447332       13.2763048458
  C        -0.3062290657        2.8923797862        7.2764414241
  C         4.3881523820       -2.4765469812        6.9080505770
  C         2.2389986008       -0.7497986142       11.9432780776
  C         2.0149525474       10.5115525106        5.7112915473
  C         4.3153243646        7.1779624756        1.2712237056
  C        -0.3209114324        5.0649037530        6.1514601886
  C        -1.0788364503        1.8774860245        7.9902142407
  C         3.5662311525       -1.3656050112        7.4228185995
  C         1.4229828909       -0.8114386688       10.7056624603
  C         1.0916777658        9.5001280834        5.1521755977
  C         3.3647755094        7.3469037799        2.3838664588
  C        -1.2175599638        6.0692918879        5.5854027675
  C        -0.9197821972        4.1009750037        6.9562389829
  C         3.7095944254       -3.4232399075        6.1416056744
  C         3.7809157601        6.8101998570        0.0353091877
  O         1.6754292762        1.4951443408        6.9382997402
  O        -0.2852640082       -1.8313903796        7.9874617370
  O        -2.3955017202       -0.3909284392       10.9104697299
  O        -2.7535377452        9.1324165606        5.6358652776
  O        -0.4705221707        7.9606359117        2.4803638402
  O         1.7114308234        5.7708962086        4.9414268141
  O        -0.6213135024        0.6845039100        8.1097962302
  O         4.0396084003       -0.7173050875        8.4543216225
  O         1.7682268583       -0.1814233100        9.6302087243
  O         1.3923465160        8.2514801401        5.2458315022
  O         3.6465260331        8.1405058498        3.3587094469
  O        -0.9358292007        6.5900700292        4.4457179464
  O        -2.2315342446        2.1620479067        8.4961049761
  O         2.4574654835       -1.1010053891        6.8702511138
  O         0.3036385074       -1.4446263802       10.7471529126
  O        -0.0360078143        9.8615692581        4.6515411952
  O         2.2309223983        6.7401815625        2.3505700396
  O        -2.3311655824        6.3476633881        6.1661441650
  O         2.4321530530        2.3405899764       10.2168578526
  C         2.1080570655        3.4376281549        9.7622806916
  O         1.2806485249        4.2109996602       10.4694104258
  H         2.4636356983        3.8219708027        8.7956623332
  H         1.1127581355        5.0427552913        9.9819235571
      59
 i =      218, E =     -1483.3264992405
 Ni         3.2939271953        0.8922355385        9.2130030679
 Ni         0.8763146801       -0.1177073002        7.4517755314
 Ni        -1.1924098895       -1.1866962923        9.5942907127
 Ni        -1.5163182627        8.8018479977        3.9596860541
 Ni         0.7099559109        6.7468737988        3.5676383415
 Ni         3.0202283016        7.4185522216        5.5683355526
  H         2.6820517116        3.4803972327        5.6797825640
  H        -1.6211015054       11.1094008910        6.9029737714
  H        -1.5148320721        0.0558535954       13.3265386155
  H        -1.9446940102        4.2722484830        7.2804433853
  H         2.6559613535       -3.2504017849        5.9240569637
  H         2.7179455619        6.5871850269       -0.0156017669
  C         1.0166761849        2.6314964710        6.7726549039
  C        -1.0134383870       -2.6748744287        7.1974142262
  C         3.6748878457       -0.4847647963       12.0018314857
  C         3.4109116023       10.2826379566        5.9825583941
  C        -1.0817106776        7.5110811599        1.3401864185
  C         1.0420840596        4.8702399758        5.7024062795
  C         1.6743872133        3.6683408362        6.0493282466
  C        -2.6744239720       11.2821754425        6.6870885641
  C        -2.5778030526       -0.1718330198       13.2724808376
  C        -0.3069480400        2.8963929885        7.2767163096
  C         4.3870147154       -2.4775230275        6.9083364460
  C         2.2408530558       -0.7511920236       11.9419877605
  C         2.0156413755       10.5120793631        5.7086429766
  C         4.3168667167        7.1795307320        1.2696308602
  C        -0.3184822570        5.0693129989        6.1521152683
  C        -1.0801099327        1.8835960143        7.9928012215
  C         3.5645602728       -1.3668816678        7.4231630056
  C         1.4241040384       -0.8112929790       10.7043782313
  C         1.0919180672        9.5002646026        5.1510907195
  C         3.3654700893        7.3465534322        2.3816957306
  C        -1.2165926789        6.0714004167        5.5853428543
  C        -0.9167687034        4.1081126770        6.9602053069
  C         3.7088457837       -3.4243031062        6.1414628884
  C         3.7831621804        6.8088066636        0.0344376369
  O         1.6740886088        1.5002095679        6.9411130820
  O        -0.2847344578       -1.8304768201        7.9846222209
  O        -2.3952246527       -0.3882481794       10.9061643116
  O        -2.7532244890        9.1319759754        5.6348528034
  O        -0.4710188673        7.9605339288        2.4792496577
  O         1.7119791068        5.7723098853        4.9371608693
  O        -0.6259598070        0.6885222927        8.1106365001
  O         4.0411438422       -0.7180366175        8.4526812611
  O         1.7687691461       -0.1815792594        9.6292415422
  O         1.3934333874        8.2522448824        5.2473748404
  O         3.6475351270        8.1424991195        3.3549218628
  O        -0.9363357300        6.5906479574        4.4449819489
  O        -2.2283000885        2.1756031642        8.5067193264
  O         2.4560188463       -1.1001510390        6.8706428995
  O         0.3039834426       -1.4424264394       10.7454957372
  O        -0.0361094542        9.8611463754        4.6518145097
  O         2.2307955890        6.7404593972        2.3518929527
  O        -2.3308234364        6.3476327357        6.1648503876
  O         2.4340429306        2.3367001102       10.2178323283
  C         2.1281781171        3.4323982198        9.7434025021
  O         1.2932707461        4.2222400617       10.4248189762
  H         2.5057663531        3.7986192795        8.7771218169
  H         1.1421815714        5.0497869637        9.9253019808
      59
 i =      219, E =     -1483.3259238074
 Ni         3.2989625787        0.8922196859        9.2107337891
 Ni         0.8724317189       -0.1072541109        7.4552085752
 Ni        -1.1916211685       -1.1870471056        9.5960265052
 Ni        -1.5168289542        8.8015303800        3.9588586491
 Ni         0.7108542339        6.7537264335        3.5645553060
 Ni         3.0192400529        7.4164759664        5.5701503621
  H         2.6666809908        3.4697395567        5.6391853989
  H        -1.6194120382       11.1175022247        6.8932325616
  H        -1.5124860312        0.0670632308       13.3124209965
  H        -1.9343519069        4.2986799351        7.2956634296
  H         2.6532505008       -3.2536064431        5.9249245423
  H         2.7232711119        6.5790400317       -0.0183884086
  C         1.0107358679        2.6376385021        6.7631499610
  C        -1.0149794862       -2.6713629247        7.1931573019
  C         3.6778358702       -0.4820538562       11.9940265140
  C         3.4130100054       10.2868268906        5.9759847804
  C        -1.0778837066        7.5149540347        1.3331194311
  C         1.0412894037        4.8756888945        5.6891575114
  C         1.6666050743        3.6666430823        6.0253715502
  C        -2.6735174838       11.2885706707        6.6789080832
  C        -2.5749459709       -0.1645962826       13.2636873421
  C        -0.3079187732        2.9085758729        7.2748465850
  C         4.3843288258       -2.4773607459        6.9059233552
  C         2.2450347136       -0.7551808112       11.9375158686
  C         2.0168655621       10.5133216164        5.7029907760
  C         4.3210940558        7.1788194163        1.2638892216
  C        -0.3134839721        5.0827763706        6.1526384249
  C        -1.0823025405        1.9026392277        7.9999202657
  C         3.5618878780       -1.3673330811        7.4225864686
  C         1.4257394813       -0.8142615571       10.7013875648
  C         1.0920462693        9.5007023029        5.1477378229
  C         3.3683577156        7.3475252175        2.3753378878
  C        -1.2153099403        6.0802794324        5.5854122598
  C        -0.9111022789        4.1247471676        6.9642330962
  C         3.7079097142       -3.4246975528        6.1379799715
  C         3.7878234579        6.8042142680        0.0307153818
  O         1.6711771564        1.5101822638        6.9419658323
  O        -0.2862068256       -1.8269745729        7.9825356540
  O        -2.3927842131       -0.3775173942       10.8969073007
  O        -2.7533459672        9.1335379738        5.6324577705
  O        -0.4699089348        7.9634533429        2.4742511337
  O         1.7132284308        5.7776768077        4.9242235177
  O        -0.6344671272        0.7026364757        8.1126801607
  O         4.0434284773       -0.7202292645        8.4497842801
  O         1.7699843681       -0.1853979263        9.6258472612
  O         1.3929053282        8.2531474590        5.2483417380
  O         3.6511196058        8.1450268621        3.3455948477
  O        -0.9370077579        6.5931389146        4.4418851479
  O        -2.2224820788        2.2098919063        8.5294973206
  O         2.4526479957       -1.0990642611        6.8719850907
  O         0.3037876272       -1.4412561604       10.7452518961
  O        -0.0366653084        9.8613702844        4.6496631272
  O         2.2332462974        6.7407619939        2.3504593513
  O        -2.3309194091        6.3509079222        6.1642311223
  O         2.4348596158        2.3259286334       10.2178591861
  C         2.1837931740        3.4168232236        9.6856914479
  O         1.3272764557        4.2518112976       10.2930017707
  H         2.6268518207        3.7316972943        8.7221217149
  H         1.2258226473        5.0674956495        9.7587772976
      59
 i =      220, E =     -1483.3266874770
 Ni         3.2943941609        0.8933868228        9.2128504973
 Ni         0.8755907375       -0.1149689430        7.4527587690
 Ni        -1.1913612946       -1.1854601365        9.5954093584
 Ni        -1.5167684657        8.8013935869        3.9592447245
 Ni         0.7101653291        6.7472355169        3.5655975824
 Ni         3.0204045863        7.4184554727        5.5666695069
  H         2.6778351425        3.4766975454        5.6639762231
  H        -1.6201783353       11.1112907474        6.8998243168
  H        -1.5147515782        0.0634221012       13.3214795829
  H        -1.9391978130        4.2815887899        7.2860058409
  H         2.6558057459       -3.2512196224        5.9239853886
  H         2.7200397348        6.5846229586       -0.0156825694
  C         1.0164802949        2.6323957529        6.7676916057
  C        -1.0137420109       -2.6739839812        7.1967294560
  C         3.6756749974       -0.4818892385       11.9992298538
  C         3.4120811209       10.2840452830        5.9804271765
  C        -1.0802193604        7.5124182060        1.3384272109
  C         1.0429229786        4.8726450063        5.6975242979
  C         1.6728504357        3.6675296930        6.0394426204
  C        -2.6738279157       11.2840203810        6.6849109511
  C        -2.5774408441       -0.1664620935       13.2695021022
  C        -0.3055201015        2.9002509746        7.2746497299
  C         4.3867929535       -2.4768671512        6.9070256588
  C         2.2422288715       -0.7514540491       11.9408240981
  C         2.0160668789       10.5118875942        5.7080342514
  C         4.3186452575        7.1791143349        1.2678784601
  C        -0.3154474523        5.0746742361        6.1527961152
  C        -1.0793195482        1.8898029962        7.9942903690
  C         3.5644460387       -1.3661892968        7.4227694015
  C         1.4244292997       -0.8122925612       10.7038132222
  C         1.0923066797        9.5000569147        5.1504084776
  C         3.3669377933        7.3470750538        2.3801297442
  C        -1.2156446179        6.0748259569        5.5859060842
  C        -0.9134142445        4.1129562704        6.9605210342
  C         3.7092352446       -3.4241450406        6.1401815129
  C         3.7849583305        6.8075048450        0.0333018545
  O         1.6741387272        1.5016899107        6.9386867023
  O        -0.2850966896       -1.8298455864        7.9850707680
  O        -2.3948331100       -0.3829758274       10.9024788817
  O        -2.7532827913        9.1320995024        5.6345235165
  O        -0.4703482139        7.9617951334        2.4777475414
  O         1.7129951859        5.7745301783        4.9309163847
  O        -0.6273719912        0.6933561876        8.1110184708
  O         4.0416568562       -0.7185509090        8.4523113674
  O         1.7689734914       -0.1824764677        9.6283392807
  O         1.3928070047        8.2519829653        5.2471203312
  O         3.6487666950        8.1427484491        3.3528862769
  O        -0.9364142169        6.5915439161        4.4439892977
  O        -2.2260865411        2.1855975183        8.5108334915
  O         2.4554304970       -1.0999103157        6.8711040683
  O         0.3042896925       -1.4433907697       10.7465128033
  O        -0.0360325295        9.8611744555        4.6509763225
  O         2.2325383477        6.7402361430        2.3502431651
  O        -2.3306113177        6.3489017942        6.1655711447
  O         2.4320743906        2.3376436502       10.2138074870
  C         2.1505571165        3.4300203549        9.7134406358
  O         1.3098684654        4.2421588786       10.3626811947
  H         2.5548235449        3.7737608997        8.7486973830
  H         1.1791672302        5.0618247075        9.8446669695
      59
 i =      221, E =     -1483.3267401121
 Ni         3.2930782004        0.8941513667        9.2144755102
 Ni         0.8762481235       -0.1177317613        7.4527422991
 Ni        -1.1913136684       -1.1852802440        9.5944807957
 Ni        -1.5167065999        8.8013333192        3.9590072364
 Ni         0.7104124888        6.7479936521        3.5656549621
 Ni         3.0205351020        7.4191432316        5.5643626771
  H         2.6763382900        3.4745688863        5.6568600921
  H        -1.6198650594       11.1112752315        6.8995321853
  H        -1.5151048716        0.0686862357       13.3201415960
  H        -1.9365018951        4.2847631353        7.2884405209
  H         2.6559019568       -3.2519219659        5.9245975754
  H         2.7210625862        6.5836931705       -0.0161740564
  C         1.0169384085        2.6319096917        6.7654551342
  C        -1.0135524734       -2.6742499664        7.1966205613
  C         3.6759113161       -0.4791021408       11.9981315902
  C         3.4119427053       10.2835988222        5.9810276496
  C        -1.0799122987        7.5133594686        1.3379869920
  C         1.0435324953        4.8731212595        5.6951288988
  C         1.6725354578        3.6666932612        6.0350846848
  C        -2.6735176310       11.2837680774        6.6847957034
  C        -2.5776163578       -0.1626197122       13.2683224129
  C        -0.3043472799        2.9014558973        7.2749713960
  C         4.3872740344       -2.4768453028        6.9069405207
  C         2.2429087520       -0.7509065694       11.9400882666
  C         2.0161415499       10.5118128580        5.7086739192
  C         4.3193209762        7.1789804436        1.2671835598
  C        -0.3140605969        5.0756807686        6.1523515354
  C        -1.0781440637        1.8898668114        7.9942006122
  C         3.5652514124       -1.3657942324        7.4226428382
  C         1.4238961639       -0.8121702594       10.7035883303
  C         1.0923119139        9.5002284380        5.1511593171
  C         3.3676539649        7.3466432920        2.3798963254
  C        -1.2151170201        6.0749075804        5.5850618890
  C        -0.9115480361        4.1143852218        6.9614734242
  C         3.7092232866       -3.4243980436        6.1409903700
  C         3.7857680717        6.8076550869        0.0325175976
  O         1.6737789162        1.5007561916        6.9379367962
  O        -0.2851132383       -1.8298292760        7.9849538494
  O        -2.3945622601       -0.3801983738       10.9006955342
  O        -2.7531263016        9.1319943637        5.6342542856
  O        -0.4698043581        7.9629922454        2.4769366107
  O         1.7137036594        5.7744638224        4.9270894229
  O        -0.6259511964        0.6935664565        8.1101983609
  O         4.0410399746       -0.7177680549        8.4523873690
  O         1.7680869737       -0.1827593194        9.6280434913
  O         1.3926207269        8.2522549980        5.2476688074
  O         3.6489996138        8.1425002739        3.3527929080
  O        -0.9363741040        6.5922300262        4.4433448038
  O        -2.2261456129        2.1837775836        8.5093667595
  O         2.4563833357       -1.1005447654        6.8705836887
  O         0.3041099585       -1.4441456939       10.7463208665
  O        -0.0362339697        9.8615741183        4.6517527485
  O         2.2329529698        6.7405895524        2.3495072024
  O        -2.3308530229        6.3488429790        6.1638220144
  O         2.4298036631        2.3413358350       10.2102795672
  C         2.1613137057        3.4314823153        9.6953884219
  O         1.3203381688        4.2572026741       10.3274417452
  H         2.5787145752        3.7627602693        8.7315576408
  H         1.1999611595        5.0716218940        9.7978417693
      59
 i =      222, E =     -1483.3266137443
 Ni         3.2919284900        0.8948091759        9.2174016731
 Ni         0.8767445337       -0.1194684717        7.4529288158
 Ni        -1.1913438508       -1.1852853672        9.5933734404
 Ni        -1.5151218296        8.8013450233        3.9584412403
 Ni         0.7093290853        6.7460624650        3.5636317569
 Ni         3.0220425585        7.4198823087        5.5582092061
  H         2.6780985504        3.4756801083        5.6620530548
  H        -1.6204482305       11.1094915276        6.9018511852
  H        -1.5159203753        0.0698723027       13.3225399635
  H        -1.9396092309        4.2799993963        7.2807954391
  H         2.6569421894       -3.2487784542        5.9225633870
  H         2.7211781129        6.5825519893       -0.0158731433
  C         1.0176028087        2.6323613189        6.7663703652
  C        -1.0132023001       -2.6744682740        7.1977506280
  C         3.6751989433       -0.4776601604       11.9990148084
  C         3.4114485416       10.2839434155        5.9816242015
  C        -1.0802479247        7.5121434178        1.3387195684
  C         1.0435152734        4.8722826687        5.6956072755
  C         1.6735314356        3.6679905683        6.0378930655
  C        -2.6736701319       11.2832219940        6.6862834547
  C        -2.5783678377       -0.1621204836       13.2695841658
  C        -0.3054326794        2.8982995988        7.2736670952
  C         4.3880794972       -2.4758728455        6.9065421967
  C         2.2425984128       -0.7495092125       11.9398070004
  C         2.0156228659       10.5123325302        5.7090273673
  C         4.3192537658        7.1769042643        1.2678628388
  C        -0.3150257051        5.0728182324        6.1500221621
  C        -1.0785921622        1.8859944346        7.9927085434
  C         3.5664902980       -1.3646186916        7.4220145244
  C         1.4240744757       -0.8121382172       10.7039939024
  C         1.0926467117        9.5008820903        5.1508229814
  C         3.3678516301        7.3451963598        2.3802480759
  C        -1.2147386425        6.0735446376        5.5845517379
  C        -0.9130699763        4.1112280534        6.9592430719
  C         3.7097778050       -3.4227131900        6.1400676855
  C         3.7853399634        6.8078258999        0.0324122432
  O         1.6738732657        1.5001052330        6.9385446468
  O        -0.2853010115       -1.8300559441        7.9852806595
  O        -2.3948407874       -0.3810151630       10.9023729139
  O        -2.7526675198        9.1336220478        5.6332434852
  O        -0.4698639552        7.9633679433        2.4767328800
  O         1.7129908946        5.7745828716        4.9268888958
  O        -0.6232082531        0.6913089595        8.1097654820
  O         4.0400683741       -0.7167290728        8.4533975015
  O         1.7675280741       -0.1813314877        9.6291365311
  O         1.3927837360        8.2521143726        5.2457191175
  O         3.6486413918        8.1404181852        3.3538580603
  O        -0.9351995977        6.5917971424        4.4433797074
  O        -2.2275643455        2.1770607530        8.5077842459
  O         2.4569660093       -1.0996806872        6.8710111369
  O         0.3039609562       -1.4434491996       10.7463469377
  O        -0.0358117238        9.8617621687        4.6510158474
  O         2.2329019887        6.7398114708        2.3487725742
  O        -2.3310367969        6.3487058713        6.1618346435
  O         2.4293561529        2.3459612974       10.2082318739
  C         2.1620453072        3.4345541478        9.6941524676
  O         1.3266657295        4.2600002905       10.3283575072
  H         2.5801680806        3.7658618331        8.7318725457
  H         1.2025379203        5.0731502149        9.7965919342
      59
 i =      223, E =     -1483.3267837837
 Ni         3.2916082315        0.8967732921        9.2194166324
 Ni         0.8776937716       -0.1187896775        7.4522246885
 Ni        -1.1930692564       -1.1831304977        9.5933251282
 Ni        -1.5148061306        8.8029926445        3.9583753313
 Ni         0.7086828174        6.7450584359        3.5624469999
 Ni         3.0264429310        7.4208914439        5.5467699225
  H         2.6824633794        3.4784947111        5.6697330626
  H        -1.6208282193       11.1068607137        6.9052259418
  H        -1.5157719744        0.0732272712       13.3260006676
  H        -1.9412957163        4.2749236207        7.2728900040
  H         2.6592626690       -3.2445426050        5.9187159638
  H         2.7227010629        6.5811605593       -0.0157404902
  C         1.0191917910        2.6322783375        6.7668454496
  C        -1.0116071791       -2.6735556959        7.1989226224
  C         3.6757856154       -0.4769212335       12.0003810448
  C         3.4117554998       10.2848889455        5.9815008541
  C        -1.0802076080        7.5126813301        1.3396294921
  C         1.0453640800        4.8717026477        5.6973707154
  C         1.6764633891        3.6693371230        6.0420209679
  C        -2.6737264192       11.2824676777        6.6890819690
  C        -2.5776193298       -0.1615087767       13.2713206521
  C        -0.3054387293        2.8954821824        7.2710313327
  C         4.3899849309       -2.4744864275        6.9049830042
  C         2.2431449150       -0.7480170244       11.9403981372
  C         2.0159246269       10.5133036836        5.7081773797
  C         4.3200738294        7.1744444748        1.2695005449
  C        -0.3141584830        5.0712707062        6.1483766151
  C        -1.0772002607        1.8827923232        7.9909845878
  C         3.5674503674       -1.3644562843        7.4207069635
  C         1.4257485521       -0.8101248087       10.7048165227
  C         1.0934432652        9.5020893297        5.1493584106
  C         3.3683247478        7.3429469356        2.3807977885
  C        -1.2135249468        6.0734008409        5.5851585475
  C        -0.9136177578        4.1076326955        6.9548284399
  C         3.7113570226       -3.4206519857        6.1380014617
  C         3.7870346623        6.8051039955        0.0330876032
  O         1.6756610329        1.4991739325        6.9362345275
  O        -0.2846670868       -1.8320936799        7.9891033030
  O        -2.3933873674       -0.3825191972       10.9060179804
  O        -2.7519150229        9.1361423879        5.6313657987
  O        -0.4704642957        7.9660789848        2.4770397626
  O         1.7133188764        5.7756735346        4.9270806990
  O        -0.6213407278        0.6891840222        8.1082321008
  O         4.0402686507       -0.7160018767        8.4529581535
  O         1.7704497106       -0.1786953187        9.6304235990
  O         1.3946919423        8.2528571402        5.2427673729
  O         3.6489728624        8.1376338754        3.3549891890
  O        -0.9342261217        6.5914723045        4.4439405218
  O        -2.2270509602        2.1727369025        8.5047443023
  O         2.4566610486       -1.0999024338        6.8713449265
  O         0.3056414819       -1.4421304532       10.7460032873
  O        -0.0355642089        9.8625544555        4.6503870431
  O         2.2322259962        6.7401468511        2.3474047836
  O        -2.3294318591        6.3487989698        6.1640363321
  O         2.4305510458        2.3508509578       10.2057176153
  C         2.1704982048        3.4363590412        9.6876149255
  O         1.3452438735        4.2673334350       10.3188425558
  H         2.5911311039        3.7632854924        8.7268805107
  H         1.2225209020        5.0784613989        9.7823579976
      59
 i =      224, E =     -1483.3266089682
 Ni         3.2927230444        0.9014329010        9.2252558404
 Ni         0.8788014650       -0.1172411159        7.4489714114
 Ni        -1.1947546887       -1.1795520328        9.5922803416
 Ni        -1.5138191063        8.8059859502        3.9580436901
 Ni         0.7079921874        6.7456634487        3.5594267794
 Ni         3.0341726978        7.4254115944        5.5221958122
  H         2.6897203147        3.4807999350        5.6782571949
  H        -1.6220187833       11.1003208420        6.9130717399
  H        -1.5154592947        0.0828231872       13.3301783592
  H        -1.9409910788        4.2695338648        7.2628776343
  H         2.6638864074       -3.2367254000        5.9105044601
  H         2.7263054463        6.5756508104       -0.0160675703
  C         1.0233347195        2.6325424560        6.7667582451
  C        -1.0092590972       -2.6727754171        7.2003614260
  C         3.6768011218       -0.4736572107       12.0020266263
  C         3.4130013087       10.2860939397        5.9805063194
  C        -1.0796827721        7.5148190752        1.3406004692
  C         1.0499475675        4.8713681550        5.6989126416
  C         1.6822304841        3.6712132189        6.0461349399
  C        -2.6740675166       11.2798939977        6.6950319079
  C        -2.5759727525       -0.1577504549       13.2733795786
  C        -0.3028204595        2.8921858444        7.2672727990
  C         4.3930494924       -2.4718733196        6.9014025680
  C         2.2444831667       -0.7450775657       11.9407620278
  C         2.0172652965       10.5153815138        5.7057758594
  C         4.3221221808        7.1701720025        1.2721139524
  C        -0.3107206840        5.0690761829        6.1454272891
  C        -1.0727009872        1.8789995900        7.9889541283
  C         3.5690075740       -1.3641395092        7.4183781111
  C         1.4281060164       -0.8072628617       10.7059262223
  C         1.0955182780        9.5045150103        5.1463622681
  C         3.3690405767        7.3393843633        2.3811744617
  C        -1.2101039450        6.0719869975        5.5838726795
  C        -0.9122892974        4.1030628494        6.9489893161
  C         3.7147967490       -3.4163352235        6.1323978788
  C         3.7899457966        6.8010707953        0.0340667588
  O         1.6791672673        1.4977514662        6.9330484049
  O        -0.2833417886       -1.8347170724        7.9927455347
  O        -2.3925099831       -0.3840029024       10.9098855869
  O        -2.7493028063        9.1400408730        5.6281826959
  O        -0.4710730188        7.9745364213        2.4764510005
  O         1.7158210020        5.7766671748        4.9244284520
  O        -0.6197788351        0.6856945704        8.1041897522
  O         4.0403690268       -0.7161230121        8.4537026242
  O         1.7731244560       -0.1746359921        9.6318544890
  O         1.3980741630        8.2545427715        5.2360031186
  O         3.6487720417        8.1332124607        3.3572767232
  O        -0.9313001041        6.5905854045        4.4431844643
  O        -2.2230606588        2.1675526001        8.5016153665
  O         2.4562583370       -1.0999528292        6.8712121499
  O         0.3084906773       -1.4410160382       10.7458593719
  O        -0.0349537194        9.8631689794        4.6505338260
  O         2.2314154124        6.7398646307        2.3445435164
  O        -2.3269937038        6.3487637364        6.1613358032
  O         2.4361696253        2.3607695820       10.2002558235
  C         2.2054488456        3.4384651404        9.6603428412
  O         1.4045447000        4.2957410887       10.2690025933
  H         2.6434927987        3.7429458074        8.7031355712
  H         1.2927223920        5.0973463446        9.7125724973
      59
 i =      225, E =     -1483.3271048371
 Ni         3.2928559300        0.8983863473        9.2214686734
 Ni         0.8784254746       -0.1181678729        7.4493354530
 Ni        -1.1933986249       -1.1802715440        9.5933232737
 Ni        -1.5154240309        8.8049715325        3.9588277036
 Ni         0.7087762654        6.7465877541        3.5629426474
 Ni         3.0277358216        7.4267372446        5.5459499829
  H         2.6831939716        3.4756945174        5.6675411259
  H        -1.6212384847       11.1042211206        6.9068055588
  H        -1.5167286754        0.0762464820       13.3266266248
  H        -1.9385164759        4.2744107038        7.2763846163
  H         2.6597035000       -3.2435278457        5.9197873694
  H         2.7221944042        6.5807096528       -0.0153608582
  C         1.0204164463        2.6307491196        6.7662366859
  C        -1.0112875719       -2.6742882227        7.2007606487
  C         3.6753960702       -0.4757001852       12.0009478150
  C         3.4115618502       10.2846088027        5.9829060619
  C        -1.0807746896        7.5142570544        1.3400208992
  C         1.0465073806        4.8708730852        5.6978976428
  C         1.6777196631        3.6674989643        6.0407530421
  C        -2.6743205769       11.2809223738        6.6920608851
  C        -2.5777998501       -0.1602399755       13.2717026332
  C        -0.3025638224        2.8944882509        7.2719866315
  C         4.3902436451       -2.4749570098        6.9056055479
  C         2.2422740392       -0.7461495673       11.9405216160
  C         2.0160163972       10.5134939227        5.7090370049
  C         4.3198606356        7.1745306463        1.2707034444
  C        -0.3129439282        5.0704688474        6.1492893569
  C        -1.0746276801        1.8814414243        7.9908080539
  C         3.5669293552       -1.3658211360        7.4210688491
  C         1.4251207316       -0.8084964799       10.7052338163
  C         1.0932613140        9.5029092771        5.1492299429
  C         3.3672712994        7.3428345044        2.3813830631
  C        -1.2131354866        6.0724253496        5.5852847118
  C        -0.9114037757        4.1068629940        6.9565449021
  C         3.7114845711       -3.4210014267        6.1391407127
  C         3.7864737112        6.8054034641        0.0338776778
  O         1.6769963499        1.4977689831        6.9345627376
  O        -0.2838331679       -1.8326801889        7.9898945553
  O        -2.3939215858       -0.3827872261       10.9068415550
  O        -2.7508600356        9.1369620487        5.6322574258
  O        -0.4709358159        7.9709116189        2.4768643029
  O         1.7138605637        5.7753052149        4.9273745174
  O        -0.6223058850        0.6866736214        8.1055652176
  O         4.0402357713       -0.7170728694        8.4532161521
  O         1.7696928925       -0.1771436420        9.6302620863
  O         1.3955655783        8.2538005491        5.2415375001
  O         3.6478917961        8.1368699071        3.3572096924
  O        -0.9346472456        6.5905838078        4.4439823008
  O        -2.2239458963        2.1715622636        8.5045476037
  O         2.4561576520       -1.1005901151        6.8711542790
  O         0.3058955589       -1.4420163654       10.7456287252
  O        -0.0356905958        9.8631735558        4.6516869372
  O         2.2310646565        6.7402921946        2.3472586631
  O        -2.3287319154        6.3483178172        6.1642108270
  O         2.4345457611        2.3530862404       10.2048615412
  C         2.1899878439        3.4361408763        9.6746263623
  O         1.3716478484        4.2807496245       10.2907259887
  H         2.6200615013        3.7493702420        8.7144056511
  H         1.2552013737        5.0860774183        9.7426455829
      59
 i =      226, E =     -1483.3272162060
 Ni         3.2928573188        0.8966282066        9.2207164828
 Ni         0.8780488687       -0.1168459063        7.4509839828
 Ni        -1.1918975622       -1.1780668859        9.5931078674
 Ni        -1.5154218895        8.8049551215        3.9581913738
 Ni         0.7089034946        6.7464867105        3.5633073515
 Ni         3.0275473207        7.4266972568        5.5434128576
  H         2.6821832313        3.4768195759        5.6657622302
  H        -1.6210320116       11.1059855865        6.9068693394
  H        -1.5176128322        0.0773298944       13.3243220264
  H        -1.9390548874        4.2745584819        7.2742996726
  H         2.6596746296       -3.2440460278        5.9188226608
  H         2.7213884418        6.5793186470       -0.0149862259
  C         1.0196136307        2.6307782507        6.7650464279
  C        -1.0124274566       -2.6745353687        7.2007881151
  C         3.6753448787       -0.4776056067       12.0006770156
  C         3.4116413861       10.2859983274        5.9813573013
  C        -1.0812402423        7.5156294611        1.3395918343
  C         1.0455916334        4.8715789445        5.6965229832
  C         1.6765238870        3.6676078090        6.0390721375
  C        -2.6737214915       11.2823413872        6.6902484492
  C        -2.5788558944       -0.1594147750       13.2710046226
  C        -0.3033914429        2.8955729430        7.2699463003
  C         4.3890399429       -2.4746227478        6.9066709506
  C         2.2422700505       -0.7496821365       11.9407176334
  C         2.0166173280       10.5151589616        5.7060102056
  C         4.3193107298        7.1759183352        1.2697878902
  C        -0.3134773777        5.0721626910        6.1491201341
  C        -1.0761955900        1.8838621477        7.9889231668
  C         3.5662405785       -1.3648520669        7.4220758445
  C         1.4243190088       -0.8105756727       10.7051716949
  C         1.0929032723        9.5033630903        5.1484375543
  C         3.3670781552        7.3438487948        2.3801884354
  C        -1.2137281555        6.0735608136        5.5845484893
  C        -0.9114748273        4.1083932096        6.9555815997
  C         3.7117795592       -3.4199091346        6.1377233413
  C         3.7855337925        6.8050035927        0.0339464858
  O         1.6761412749        1.4985720943        6.9356141794
  O        -0.2851649890       -1.8299263107        7.9876134393
  O        -2.3934713903       -0.3826186508       10.9071361682
  O        -2.7519067996        9.1373149222        5.6307036894
  O        -0.4702062324        7.9716146194        2.4759489382
  O         1.7134317934        5.7753320869        4.9271715999
  O        -0.6215468149        0.6900379412        8.1067805992
  O         4.0413566401       -0.7161126313        8.4527381347
  O         1.7679474324       -0.1779548819        9.6309229398
  O         1.3946851198        8.2545089288        5.2420596266
  O         3.6486174970        8.1388315724        3.3550115203
  O        -0.9346378672        6.5906262349        4.4428508053
  O        -2.2247067000        2.1741718076        8.5042183584
  O         2.4562222601       -1.0997773927        6.8709649548
  O         0.3042336708       -1.4417497214       10.7461503617
  O        -0.0358580663        9.8636169896        4.6504567040
  O         2.2316506521        6.7397552187        2.3486645173
  O        -2.3294477561        6.3499200747        6.1626190722
  O         2.4343775047        2.3491844873       10.2062305032
  C         2.1971770586        3.4328899914        9.6672709744
  O         1.3694913727        4.2824015579       10.2718632326
  H         2.6354023710        3.7399769282        8.7062947112
  H         1.2623118226        5.0860227083        9.7209204965
      59
 i =      227, E =     -1483.3272494935
 Ni         3.2925688805        0.8959101720        9.2203224912
 Ni         0.8780629843       -0.1194033463        7.4501265788
 Ni        -1.1920649573       -1.1779608844        9.5919236818
 Ni        -1.5150461594        8.8051333098        3.9578240999
 Ni         0.7094849644        6.7486184144        3.5640556659
 Ni         3.0279272419        7.4282722733        5.5403000001
  H         2.6825978167        3.4774065803        5.6686557077
  H        -1.6220518938       11.1051068962        6.9089144675
  H        -1.5181652235        0.0749330094       13.3246538379
  H        -1.9406821912        4.2730943323        7.2738358550
  H         2.6592444674       -3.2438603269        5.9185152917
  H         2.7204198373        6.5791234735       -0.0150697958
  C         1.0194489844        2.6308020966        6.7660329505
  C        -1.0128757720       -2.6743602565        7.2004585966
  C         3.6749254534       -0.4787215677       12.0008851042
  C         3.4112577065       10.2856580447        5.9819699061
  C        -1.0819767707        7.5161137928        1.3400013944
  C         1.0457367481        4.8720173431        5.6968700635
  C         1.6762924906        3.6679457853        6.0405898211
  C        -2.6744416166       11.2818603288        6.6913346468
  C        -2.5799542953       -0.1601002983       13.2717043162
  C        -0.3039087255        2.8955958065        7.2709786315
  C         4.3886363685       -2.4751473689        6.9066390889
  C         2.2418670765       -0.7508249855       11.9407914517
  C         2.0163627132       10.5148447606        5.7059602738
  C         4.3184368220        7.1765492106        1.2692620862
  C        -0.3139277516        5.0710457298        6.1491224697
  C        -1.0764592259        1.8834013234        7.9896561395
  C         3.5666219830       -1.3651282844        7.4221562446
  C         1.4232749856       -0.8111504618       10.7051968247
  C         1.0925940220        9.5038137292        5.1478349894
  C         3.3670688652        7.3445450302        2.3799328022
  C        -1.2137318444        6.0720738450        5.5830651446
  C        -0.9130843038        4.1071696880        6.9544400773
  C         3.7112962938       -3.4201408568        6.1374033811
  C         3.7844373004        6.8053115485        0.0337310379
  O         1.6755703543        1.4983285041        6.9373370410
  O        -0.2852939356       -1.8293439542        7.9862967101
  O        -2.3940890467       -0.3841474185       10.9073701432
  O        -2.7512369600        9.1375617855        5.6307349328
  O        -0.4702957756        7.9728902978        2.4759119901
  O         1.7142188070        5.7734816256        4.9265912285
  O        -0.6219104869        0.6892017831        8.1067529316
  O         4.0402439969       -0.7159909428        8.4533704939
  O         1.7670584178       -0.1802542831        9.6304790996
  O         1.3945849910        8.2551603279        5.2417900899
  O         3.6484331771        8.1402514030        3.3544059440
  O        -0.9338704666        6.5901803007        4.4420635596
  O        -2.2248389990        2.1741338518        8.5054263900
  O         2.4572314527       -1.1006989155        6.8698359754
  O         0.3031325619       -1.4426950236       10.7456418876
  O        -0.0365050031        9.8636829276        4.6509247021
  O         2.2318144274        6.7400123561        2.3499164454
  O        -2.3305028137        6.3493428687        6.1581992090
  O         2.4359023359        2.3471342713       10.2076991881
  C         2.1980271259        3.4314572686        9.6712070833
  O         1.3722282997        4.2790945320       10.2787242411
  H         2.6351424394        3.7400533320        8.7103795257
  H         1.2627101890        5.0831740443        9.7301108975
      59
 i =      228, E =     -1483.3272740337
 Ni         3.2931199431        0.8962242539        9.2207377748
 Ni         0.8781088915       -0.1199430157        7.4494289282
 Ni        -1.1918868894       -1.1772887219        9.5929400844
 Ni        -1.5153201130        8.8055604442        3.9578988990
 Ni         0.7090742014        6.7483788855        3.5636261148
 Ni         3.0290795671        7.4319728399        5.5398253465
  H         2.6837854853        3.4768894849        5.6700814275
  H        -1.6225677075       11.1041766390        6.9102532141
  H        -1.5185922699        0.0737570538       13.3258942217
  H        -1.9402969243        4.2720155502        7.2748648762
  H         2.6587783568       -3.2432719636        5.9189757075
  H         2.7196308058        6.5802479901       -0.0138767817
  C         1.0199025040        2.6305139434        6.7661205811
  C        -1.0125567891       -2.6742983398        7.2009312696
  C         3.6738646338       -0.4786501802       12.0023405166
  C         3.4109534058       10.2857995276        5.9825027148
  C        -1.0829298859        7.5172308095        1.3403146933
  C         1.0459652771        4.8717793015        5.6967463026
  C         1.6773978872        3.6682173660        6.0419511736
  C        -2.6749368592       11.2812397720        6.6927700184
  C        -2.5801026993       -0.1611582999       13.2725781482
  C        -0.3033608664        2.8946294065        7.2712298153
  C         4.3889627899       -2.4752771256        6.9069819313
  C         2.2405465830       -0.7499890631       11.9416394002
  C         2.0158452967       10.5147370904        5.7071220412
  C         4.3173797223        7.1779933026        1.2701774284
  C        -0.3141107283        5.0703634334        6.1493092441
  C        -1.0758535363        1.8827824974        7.9906553965
  C         3.5667230736       -1.3654304436        7.4223621468
  C         1.4229439736       -0.8112221373       10.7056345946
  C         1.0926565280        9.5039107371        5.1474532323
  C         3.3659185793        7.3457840993        2.3805769384
  C        -1.2140272082        6.0720620613        5.5834801620
  C        -0.9124831023        4.1067180781        6.9554291073
  C         3.7105455378       -3.4204674422        6.1388011458
  C         3.7839283787        6.8057926915        0.0346712182
  O         1.6759828574        1.4981333890        6.9365432889
  O        -0.2848158448       -1.8298760796        7.9872421513
  O        -2.3956494776       -0.3845909614       10.9082271179
  O        -2.7507115342        9.1380070369        5.6316594881
  O        -0.4711040421        7.9748436196        2.4760306891
  O         1.7134980214        5.7738637521        4.9270563590
  O        -0.6233271672        0.6874270248        8.1069673982
  O         4.0398154082       -0.7170609471        8.4538961762
  O         1.7668020144       -0.1803677215        9.6306688999
  O         1.3945506857        8.2550018570        5.2413696993
  O         3.6479681025        8.1405088875        3.3555020859
  O        -0.9343799650        6.5899519387        4.4421050486
  O        -2.2241796945        2.1746986767        8.5053397460
  O         2.4571318766       -1.1004692468        6.8708036210
  O         0.3029147460       -1.4429988952       10.7460269893
  O        -0.0366340457        9.8635392062        4.6511492474
  O         2.2313973873        6.7400651269        2.3497623406
  O        -2.3299252462        6.3500747319        6.1601183148
  O         2.4378762196        2.3467436729       10.2089715569
  C         2.2021327126        3.4310057816        9.6723795933
  O         1.3790708266        4.2800971507       10.2794431705
  H         2.6397554346        3.7379114074        8.7117803736
  H         1.2682031719        5.0826373747        9.7292779402
      59
 i =      229, E =     -1483.3272817259
 Ni         3.2930363647        0.8956789064        9.2198238026
 Ni         0.8780758023       -0.1194982399        7.4506273215
 Ni        -1.1916807256       -1.1773011071        9.5941595432
 Ni        -1.5153546233        8.8053665686        3.9577183404
 Ni         0.7087162505        6.7473686924        3.5634172106
 Ni         3.0294944491        7.4327958225        5.5378033325
  H         2.6851182470        3.4785375437        5.6732449899
  H        -1.6227863006       11.1046268745        6.9115097703
  H        -1.5190303915        0.0716405445       13.3261653449
  H        -1.9413897415        4.2703330789        7.2729865484
  H         2.6585958906       -3.2434021495        5.9188708663
  H         2.7184769829        6.5809539716       -0.0128377168
  C         1.0199653344        2.6307778279        6.7667925992
  C        -1.0129377544       -2.6742312199        7.2008693965
  C         3.6729714666       -0.4801900348       12.0032464375
  C         3.4109932140       10.2862688515        5.9822370852
  C        -1.0836210425        7.5176474530        1.3403224349
  C         1.0456313610        4.8717935903        5.6966808162
  C         1.6780298388        3.6690407334        6.0438738362
  C        -2.6748167404       11.2817369625        6.6924727443
  C        -2.5806686775       -0.1624225176       13.2728735523
  C        -0.3040364521        2.8943268714        7.2703593791
  C         4.3887207986       -2.4747816149        6.9072964252
  C         2.2394538549       -0.7509911138       11.9423939879
  C         2.0160069167       10.5153623595        5.7066332182
  C         4.3164391443        7.1793305758        1.2702120160
  C        -0.3150835469        5.0700484520        6.1483492080
  C        -1.0767467826        1.8832753092        7.9908364647
  C         3.5662254958       -1.3647618326        7.4224354853
  C         1.4224987046       -0.8122628152       10.7056177771
  C         1.0928551659        9.5038178037        5.1472454741
  C         3.3650055028        7.3469814924        2.3804579103
  C        -1.2145535692        6.0724452644        5.5830882425
  C        -0.9130356868        4.1063580961        6.9544548181
  C         3.7106145244       -3.4198532449        6.1384569661
  C         3.7828365121        6.8065868804        0.0352702127
  O         1.6761352456        1.4987852068        6.9369463207
  O        -0.2853193747       -1.8291483411        7.9871484489
  O        -2.3965431870       -0.3858142987       10.9088492541
  O        -2.7511143924        9.1380230734        5.6314338353
  O        -0.4712784945        7.9759165104        2.4755768665
  O         1.7124179572        5.7740457278        4.9275994294
  O        -0.6235333632        0.6879581256        8.1087711403
  O         4.0398947368       -0.7172210542        8.4537560284
  O         1.7667898879       -0.1813624499        9.6309628815
  O         1.3944204589        8.2550308342        5.2411831849
  O         3.6480476315        8.1413075294        3.3550831541
  O        -0.9345725914        6.5901456144        4.4416712472
  O        -2.2248799185        2.1760110545        8.5053944200
  O         2.4567058043       -1.0998602396        6.8708888051
  O         0.3020577657       -1.4430940059       10.7466342148
  O        -0.0365883687        9.8633672823        4.6509695814
  O         2.2311767554        6.7401963272        2.3498688547
  O        -2.3299542740        6.3509850676        6.1600759016
  O         2.4377214018        2.3443546290       10.2114431812
  C         2.1995214483        3.4299333711        9.6769962641
  O         1.3732304903        4.2763450555       10.2865876764
  H         2.6361790890        3.7394920586        8.7160567129
  H         1.2613742180        5.0793179110        9.7387005758
      59
 i =      230, E =     -1483.3272996455
 Ni         3.2922508327        0.8957179548        9.2193049517
 Ni         0.8780944996       -0.1189729956        7.4505090445
 Ni        -1.1923638925       -1.1770342347        9.5938463837
 Ni        -1.5153871926        8.8059183929        3.9578731448
 Ni         0.7086790060        6.7477143949        3.5635520164
 Ni         3.0296435591        7.4334659181        5.5376321900
  H         2.6845501488        3.4782421724        5.6725132420
  H        -1.6229749069       11.1045821018        6.9120373591
  H        -1.5196324957        0.0720121898       13.3260118242
  H        -1.9411821448        4.2702681324        7.2738062913
  H         2.6582648995       -3.2441819689        5.9209192270
  H         2.7178052617        6.5819811209       -0.0126514540
  C         1.0198812694        2.6304526390        6.7670034518
  C        -1.0132935059       -2.6742818762        7.2016650462
  C         3.6727906533       -0.4805510712       12.0029819500
  C         3.4108614439       10.2861131896        5.9832635088
  C        -1.0838286654        7.5186367559        1.3403349593
  C         1.0452883899        4.8713782913        5.6961069881
  C         1.6773630846        3.6681525752        6.0427778458
  C        -2.6750601278       11.2817863315        6.6931416756
  C        -2.5814001062       -0.1617005465       13.2727211154
  C        -0.3040511129        2.8943009405        7.2705761453
  C         4.3883387086       -2.4750022470        6.9080285195
  C         2.2391249218       -0.7506275106       11.9424665726
  C         2.0158444533       10.5148891668        5.7077759167
  C         4.3163105876        7.1800960887        1.2700232520
  C        -0.3153492854        5.0697966829        6.1478986736
  C        -1.0768529099        1.8832107542        7.9908765710
  C         3.5658602914       -1.3646723343        7.4225781102
  C         1.4222994007       -0.8117250674       10.7055340837
  C         1.0926094805        9.5037894072        5.1479462194
  C         3.3649430219        7.3472396979        2.3804939047
  C        -1.2147128160        6.0723978741        5.5829422144
  C        -0.9132867687        4.1059293942        6.9538898188
  C         3.7105212275       -3.4203886623        6.1395193474
  C         3.7822025382        6.8074931310        0.0352189982
  O         1.6764782327        1.4985783560        6.9368253534
  O        -0.2852702554       -1.8290169623        7.9872973924
  O        -2.3963392494       -0.3870239147       10.9087908787
  O        -2.7512980744        9.1382459239        5.6313786378
  O        -0.4714492017        7.9776275586        2.4753825842
  O         1.7118827966        5.7735710892        4.9268539549
  O        -0.6229156074        0.6882947168        8.1091802224
  O         4.0399099018       -0.7161700139        8.4530949265
  O         1.7672098585       -0.1812320330        9.6309911549
  O         1.3947730559        8.2551907825        5.2409880915
  O         3.6476003663        8.1417578917        3.3553278392
  O        -0.9347093100        6.5906502407        4.4418502647
  O        -2.2250804407        2.1757858646        8.5060758402
  O         2.4564410754       -1.0999583309        6.8705309461
  O         0.3018996431       -1.4427936007       10.7461375513
  O        -0.0366190215        9.8637241435        4.6513466441
  O         2.2309046151        6.7409235421        2.3498701113
  O        -2.3302575775        6.3503647797        6.1596273637
  O         2.4367954038        2.3448964789       10.2107375908
  C         2.2014363339        3.4301988159        9.6736777418
  O         1.3749003595        4.2789510149       10.2800085493
  H         2.6410552899        3.7370664168        8.7130636427
  H         1.2644898524        5.0802301517        9.7287991845
      59
 i =      231, E =     -1483.3273093213
 Ni         3.2923852594        0.8955856435        9.2184482112
 Ni         0.8776559225       -0.1188995214        7.4503869404
 Ni        -1.1920560048       -1.1777441386        9.5937191090
 Ni        -1.5153646251        8.8062445910        3.9580628718
 Ni         0.7085435043        6.7485741174        3.5634160410
 Ni         3.0299417049        7.4340885266        5.5371813599
  H         2.6844217728        3.4784772472        5.6730318624
  H        -1.6233121834       11.1045921660        6.9129276007
  H        -1.5197597304        0.0716155654       13.3270388458
  H        -1.9414637929        4.2700673662        7.2739334159
  H         2.6575685761       -3.2450090831        5.9231152634
  H         2.7173275778        6.5836683195       -0.0123792532
  C         1.0198798253        2.6304168360        6.7667711473
  C        -1.0137058580       -2.6744740419        7.2021668709
  C         3.6728084497       -0.4808762544       12.0037402206
  C         3.4104365644       10.2859384720        5.9840540908
  C        -1.0843849349        7.5202482145        1.3408565077
  C         1.0450949166        4.8715439701        5.6956011547
  C         1.6770281420        3.6683235949        6.0426237866
  C        -2.6755121204       11.2813695023        6.6941386924
  C        -2.5816711488       -0.1613935017       13.2736193259
  C        -0.3041718705        2.8942326035        7.2704171200
  C         4.3878533351       -2.4752856497        6.9090039415
  C         2.2390678765       -0.7501158679       11.9428703800
  C         2.0153283714       10.5146126927        5.7089308736
  C         4.3158216075        7.1815008216        1.2703975451
  C        -0.3156603187        5.0692525517        6.1473550431
  C        -1.0767477822        1.8832453387        7.9910395209
  C         3.5656707427       -1.3646644368        7.4232461329
  C         1.4227642704       -0.8114168520       10.7056075619
  C         1.0924776556        9.5037396346        5.1485462935
  C         3.3646567132        7.3479000823        2.3810082805
  C        -1.2146938450        6.0722583660        5.5827968388
  C        -0.9137265451        4.1057176937        6.9537603404
  C         3.7098833624       -3.4210041852        6.1412456811
  C         3.7818600860        6.8086048866        0.0354319264
  O         1.6761189948        1.4982956683        6.9371767985
  O        -0.2853603349       -1.8290776206        7.9871148385
  O        -2.3960733753       -0.3885817107       10.9097619643
  O        -2.7515407870        9.1383521123        5.6316250487
  O        -0.4716650054        7.9799526080        2.4754486899
  O         1.7118567748        5.7735382098        4.9262857744
  O        -0.6230145325        0.6883867623        8.1094937915
  O         4.0402273734       -0.7155938927        8.4532499501
  O         1.7677382242       -0.1809891348        9.6311095703
  O         1.3949643263        8.2550691275        5.2408393228
  O         3.6469022980        8.1423451814        3.3562345915
  O        -0.9346440717        6.5911557223        4.4419462015
  O        -2.2251114163        2.1761265560        8.5064917508
  O         2.4563873158       -1.0999938130        6.8709892963
  O         0.3023466354       -1.4425973487       10.7462724291
  O        -0.0366296980        9.8637277883        4.6516467881
  O         2.2307128155        6.7413001817        2.3501443191
  O        -2.3300057626        6.3507609332        6.1598591012
  O         2.4369041126        2.3450856938       10.2102767229
  C         2.2020987017        3.4303157083        9.6732671707
  O         1.3756333038        4.2792976781       10.2794116625
  H         2.6420900844        3.7364338702        8.7128063980
  H         1.2643847412        5.0795160285        9.7265954333
      59
 i =      232, E =     -1483.3273279854
 Ni         3.2925703282        0.8949425356        9.2156374206
 Ni         0.8773656729       -0.1184336520        7.4508048659
 Ni        -1.1921476030       -1.1796121048        9.5941683202
 Ni        -1.5157133767        8.8077941679        3.9583144090
 Ni         0.7084181623        6.7507474101        3.5628124093
 Ni         3.0303823210        7.4360984714        5.5355570072
  H         2.6852432271        3.4794813288        5.6754252221
  H        -1.6246618877       11.1041466460        6.9166070310
  H        -1.5204360830        0.0699969715       13.3301817678
  H        -1.9423294654        4.2692924268        7.2731932921
  H         2.6550956923       -3.2478591413        5.9300866520
  H         2.7152565635        6.5892418084       -0.0114905868
  C         1.0196922952        2.6310288573        6.7670306650
  C        -1.0147529236       -2.6746861936        7.2043202775
  C         3.6722099534       -0.4820505150       12.0064049738
  C         3.4094006901       10.2853141964        5.9867941046
  C        -1.0860716449        7.5252570635        1.3423301976
  C         1.0444462665        4.8710760764        5.6942214872
  C         1.6770449646        3.6686962075        6.0430430003
  C        -2.6767947965       11.2805904312        6.6971684622
  C        -2.5827187406       -0.1606787739       13.2762351496
  C        -0.3049739117        2.8939882522        7.2701698914
  C         4.3865210014       -2.4767770636        6.9121148447
  C         2.2382408093       -0.7486808852       11.9443051589
  C         2.0141043255       10.5136155541        5.7124343905
  C         4.3141072934        7.1864426290        1.2714472628
  C        -0.3167313932        5.0679951909        6.1450346185
  C        -1.0766723923        1.8830018233        7.9916234917
  C         3.5649431854       -1.3651438399        7.4247058566
  C         1.4235643985       -0.8106637296       10.7060879606
  C         1.0920299356        9.5038552418        5.1497479996
  C         3.3632969777        7.3508153223        2.3823017977
  C        -1.2147661945        6.0720998667        5.5813260474
  C        -0.9149412609        4.1048989051        6.9523158705
  C         3.7079709550       -3.4229264838        6.1458889333
  C         3.7801625345        6.8126901790        0.0362947249
  O         1.6759703285        1.4986351455        6.9379613117
  O        -0.2857200457       -1.8286282936        7.9877789260
  O        -2.3956271988       -0.3939158481       10.9133476922
  O        -2.7517346541        9.1387166989        5.6321974117
  O        -0.4724397524        7.9895299297        2.4751430400
  O         1.7110668375        5.7735492987        4.9253745357
  O        -0.6232831422        0.6882698550        8.1102951986
  O         4.0399817883       -0.7150868803        8.4540264000
  O         1.7690250747       -0.1809783044        9.6315001381
  O         1.3951064830        8.2549512472        5.2403910497
  O         3.6449911851        8.1436301040        3.3593171105
  O        -0.9343667116        6.5926887243        4.4410321830
  O        -2.2252208881        2.1764928650        8.5079181378
  O         2.4561829970       -1.1001319002        6.8716448747
  O         0.3031892596       -1.4424771948       10.7460568491
  O        -0.0366564182        9.8642260620        4.6520092019
  O         2.2300236923        6.7427401717        2.3505474557
  O        -2.3297612011        6.3508593011        6.1588289252
  O         2.4367441964        2.3450529992       10.2095014005
  C         2.2029182972        3.4303646970        9.6729081492
  O         1.3765929447        4.2800393700       10.2788569881
  H         2.6441419390        3.7348389232        8.7129675002
  H         1.2623807613        5.0767062201        9.7211276233
      59
 i =      233, E =     -1483.3273458305
 Ni         3.2935800206        0.8933106700        9.2147551934
 Ni         0.8770598756       -0.1179737419        7.4511868801
 Ni        -1.1915111398       -1.1816535562        9.5946584164
 Ni        -1.5166454194        8.8105665437        3.9587761989
 Ni         0.7080625519        6.7524999759        3.5623091110
 Ni         3.0305401042        7.4378497013        5.5344896743
  H         2.6862616884        3.4809569693        5.6784754937
  H        -1.6261172404       11.1035698460        6.9200613715
  H        -1.5209068953        0.0686105288       13.3339843398
  H        -1.9435714196        4.2690700767        7.2710352498
  H         2.6524717509       -3.2508927576        5.9369796161
  H         2.7135131724        6.5958766218       -0.0107509026
  C         1.0195185222        2.6315503856        6.7672234170
  C        -1.0160551093       -2.6752291908        7.2062246392
  C         3.6718237266       -0.4839344082       12.0104759804
  C         3.4083280158       10.2850314678        5.9890191741
  C        -1.0877503986        7.5319400920        1.3446220561
  C         1.0439796332        4.8711788495        5.6932322313
  C         1.6771358889        3.6694951592        6.0439699914
  C        -2.6782291796       11.2795998907        6.7003751637
  C        -2.5835122205       -0.1597307377       13.2800133247
  C        -0.3057657380        2.8940193495        7.2697587923
  C         4.3848723989       -2.4779941636        6.9153589332
  C         2.2373019849       -0.7469205269       11.9460327795
  C         2.0126507833       10.5126243724        5.7158033842
  C         4.3124398426        7.1924812461        1.2730292558
  C        -0.3177990926        5.0670966413        6.1424600998
  C        -1.0768228745        1.8830041088        7.9917172831
  C         3.5640176402       -1.3655849375        7.4264604426
  C         1.4244226647       -0.8098346017       10.7069378237
  C         1.0914199158        9.5037128755        5.1510536983
  C         3.3618341120        7.3541304177        2.3838741665
  C        -1.2151827345        6.0722258505        5.5796784893
  C        -0.9162164740        4.1043439429        6.9503669212
  C         3.7057794653       -3.4250833115        6.1511912595
  C         3.7787272385        6.8175074528        0.0376255101
  O         1.6760989084        1.4989771591        6.9381802392
  O        -0.2864107045       -1.8283695162        7.9881825672
  O        -2.3951387064       -0.4013453753       10.9184823886
  O        -2.7518885235        9.1394490172        5.6325599651
  O        -0.4739561255        8.0013748067        2.4760075080
  O         1.7104819347        5.7735696547        4.9242627765
  O        -0.6235261448        0.6883161614        8.1104213583
  O         4.0397771848       -0.7148089275        8.4551080702
  O         1.7701801471       -0.1809501650        9.6318672487
  O         1.3949147261        8.2544907373        5.2393265754
  O         3.6429417394        8.1449694426        3.3631175507
  O        -0.9345666784        6.5945164425        4.4398200985
  O        -2.2260208251        2.1758877614        8.5079628296
  O         2.4559508174       -1.0999461902        6.8722779223
  O         0.3041215468       -1.4424335842       10.7463331037
  O        -0.0366552124        9.8647485358        4.6527379331
  O         2.2292597154        6.7443721105        2.3510777053
  O        -2.3293963791        6.3516508173        6.1586918048
  O         2.4370885310        2.3443270368       10.2097573846
  C         2.2032298949        3.4300011420        9.6736998340
  O         1.3767749790        4.2803652669       10.2793088312
  H         2.6452304229        3.7329201311        8.7138630139
  H         1.2593759746        5.0731989657        9.7168228885
      59
 i =      234, E =     -1483.3273607972
 Ni         3.2950874548        0.8912377470        9.2151710647
 Ni         0.8771530154       -0.1176479683        7.4518216766
 Ni        -1.1909274479       -1.1862255010        9.5960664976
 Ni        -1.5178616263        8.8132701458        3.9594561880
 Ni         0.7081150265        6.7532182085        3.5621035788
 Ni         3.0302074065        7.4392403502        5.5347067071
  H         2.6876001119        3.4827873005        5.6816917389
  H        -1.6272036155       11.1030988317        6.9222953857
  H        -1.5212972795        0.0681652621       13.3378368637
  H        -1.9447990363        4.2693223888        7.2672314581
  H         2.6504293781       -3.2533210003        5.9420944878
  H         2.7123847020        6.6017648979       -0.0098815608
  C         1.0193623029        2.6320497648        6.7670989462
  C        -1.0170075853       -2.6757566691        7.2082554702
  C         3.6718556789       -0.4858385469       12.0150491191
  C         3.4079080403       10.2854076926        5.9899278807
  C        -1.0890557917        7.5380981797        1.3475991243
  C         1.0438561071        4.8716500651        5.6928089145
  C         1.6776113307        3.6707874011        6.0453920345
  C        -2.6791767279       11.2793836549        6.7023870728
  C        -2.5843760975       -0.1580661915       13.2843431692
  C        -0.3064166245        2.8942576441        7.2689406749
  C         4.3836155771       -2.4791806026        6.9182897662
  C         2.2366077730       -0.7453073203       11.9482349092
  C         2.0117290594       10.5118752054        5.7177776100
  C         4.3109352423        7.1985576274        1.2749626849
  C        -0.3183282414        5.0671948590        6.1404607295
  C        -1.0770957113        1.8828050184        7.9908539176
  C         3.5634707681       -1.3660003069        7.4278902089
  C         1.4251785655       -0.8092416081       10.7082879530
  C         1.0905982290        9.5036382441        5.1515606197
  C         3.3605188288        7.3573910750        2.3856099863
  C        -1.2156058731        6.0726587166        5.5778900139
  C        -0.9169069957        4.1044410061        6.9484302428
  C         3.7040599594       -3.4269386207        6.1553487891
  C         3.7775943614        6.8223550531        0.0394638264
  O         1.6759887656        1.4994104500        6.9382582510
  O        -0.2866074674       -1.8284676547        7.9891104517
  O        -2.3942060793       -0.4097168585       10.9243289089
  O        -2.7514673069        9.1406869221        5.6325593312
  O        -0.4767525838        8.0089500924        2.4795528208
  O         1.7105571891        5.7743165648        4.9240808978
  O        -0.6237626982        0.6881229749        8.1103145815
  O         4.0400081155       -0.7149158001        8.4561525020
  O         1.7711042171       -0.1808042193        9.6326219524
  O         1.3941419703        8.2541681708        5.2385572895
  O         3.6410529937        8.1461978285        3.3672045361
  O        -0.9347225372        6.5959788808        4.4383331522
  O        -2.2268271408        2.1743597252        8.5066002901
  O         2.4560813867       -1.0996142407        6.8727858213
  O         0.3051081635       -1.4428167293       10.7471222602
  O        -0.0367249747        9.8654803710        4.6528630958
  O         2.2287129441        6.7459573977        2.3512177589
  O        -2.3293243600        6.3519309719        6.1581428350
  O         2.4374040129        2.3430808242       10.2103961041
  C         2.2018121878        3.4291986331        9.6752382306
  O         1.3756283054        4.2797029853       10.2810670025
  H         2.6433699588        3.7317304901        8.7150718561
  H         1.2557356936        5.0697705129        9.7155043946
      59
 i =      235, E =     -1483.3273775719
 Ni         3.2952422824        0.8913585363        9.2171171318
 Ni         0.8777154453       -0.1180469190        7.4516814042
 Ni        -1.1906189053       -1.1857965551        9.5964864349
 Ni        -1.5179628663        8.8130706451        3.9595797676
 Ni         0.7081455020        6.7514495538        3.5625743717
 Ni         3.0293938752        7.4371153679        5.5365545646
  H         2.6872653062        3.4826936103        5.6805151606
  H        -1.6262641221       11.1030898455        6.9196218558
  H        -1.5210415316        0.0697096482       13.3364779150
  H        -1.9445790678        4.2701751851        7.2662428799
  H         2.6518309771       -3.2518421895        5.9380235156
  H         2.7132610252        6.5994524424       -0.0095359302
  C         1.0191449408        2.6317903377        6.7667900837
  C        -1.0162753222       -2.6757593234        7.2072907331
  C         3.6721722740       -0.4850775041       12.0141465465
  C         3.4086003534       10.2860141179        5.9880840026
  C        -1.0881547976        7.5355107066        1.3473242094
  C         1.0443207878        4.8721037530        5.6939348340
  C         1.6777247101        3.6708469636        6.0455043344
  C        -2.6781608436       11.2801906256        6.7001021401
  C        -2.5841008316       -0.1574793398       13.2834374635
  C        -0.3061363326        2.8945470212        7.2686617565
  C         4.3844147771       -2.4784459348        6.9167944434
  C         2.2369023996       -0.7457288413       11.9483769718
  C         2.0124135770       10.5123763390        5.7157031273
  C         4.3115463020        7.1971028525        1.2748741819
  C        -0.3175855360        5.0684565994        6.1418080617
  C        -1.0773481049        1.8828325845        7.9896873119
  C         3.5639052299       -1.3658062434        7.4271834035
  C         1.4247619148       -0.8099553165       10.7086085909
  C         1.0905316898        9.5035900310        5.1506323948
  C         3.3609807064        7.3568069209        2.3853989022
  C        -1.2158884791        6.0729683988        5.5785803542
  C        -0.9160998510        4.1053194343        6.9489026465
  C         3.7052670131       -3.4257563049        6.1524664214
  C         3.7780639806        6.8213026668        0.0397675460
  O         1.6759553444        1.4996236744        6.9377263710
  O        -0.2865717413       -1.8287165622        7.9891408558
  O        -2.3946783393       -0.4079463440       10.9232307702
  O        -2.7515022002        9.1405246058        5.6326145315
  O        -0.4774924904        8.0009064271        2.4817519723
  O         1.7111137473        5.7744388298        4.9247672786
  O        -0.6232933849        0.6882499192        8.1091256261
  O         4.0400703627       -0.7157257945        8.4562692052
  O         1.7702253270       -0.1809524950        9.6326300543
  O         1.3934991944        8.2542853114        5.2390325152
  O         3.6418480498        8.1459754085        3.3665557562
  O        -0.9351346830        6.5949791074        4.4387251906
  O        -2.2267872728        2.1731984764        8.5046711161
  O         2.4564228531       -1.0993062637        6.8723670908
  O         0.3049581530       -1.4433292838       10.7474619929
  O        -0.0367081029        9.8655919033        4.6522676524
  O         2.2291900106        6.7455512770        2.3510839079
  O        -2.3298966345        6.3514002871        6.1586124872
  O         2.4374419849        2.3429628633       10.2107218819
  C         2.2001147120        3.4290085724        9.6760044347
  O         1.3740546256        4.2788708014       10.2822824933
  H         2.6402159271        3.7331937926        8.7154781475
  H         1.2556636033        5.0709644111        9.7197370682
      59
 i =      236, E =     -1483.3273900974
 Ni         3.2948666126        0.8914505708        9.2167781038
 Ni         0.8780845981       -0.1181690407        7.4514946583
 Ni        -1.1910161071       -1.1863063649        9.5971322729
 Ni        -1.5177392859        8.8130243188        3.9596627530
 Ni         0.7076867228        6.7517849909        3.5626402911
 Ni         3.0293865993        7.4363552911        5.5361359140
  H         2.6872089722        3.4830041652        5.6806484644
  H        -1.6261572275       11.1030260066        6.9195041324
  H        -1.5212348204        0.0701439442       13.3366980821
  H        -1.9450254305        4.2698757528        7.2655705776
  H         2.6520170699       -3.2517045853        5.9379343916
  H         2.7124363114        6.5999564086       -0.0086266470
  C         1.0189940166        2.6319781658        6.7669983980
  C        -1.0161115073       -2.6756694148        7.2074800231
  C         3.6716453692       -0.4852329551       12.0145210604
  C         3.4085024195       10.2860144622        5.9884363728
  C        -1.0885749989        7.5360893095        1.3474550133
  C         1.0443342380        4.8721499748        5.6938327310
  C         1.6775814058        3.6707993092        6.0453697607
  C        -2.6779144081       11.2806009718        6.6996334318
  C        -2.5843516181       -0.1570975697       13.2835974845
  C        -0.3063967777        2.8943587659        7.2681782304
  C         4.3845478999       -2.4782815491        6.9170476233
  C         2.2362439946       -0.7455099085       11.9491446015
  C         2.0124199017       10.5125867082        5.7158992598
  C         4.3109876220        7.1979075542        1.2750677041
  C        -0.3176281052        5.0682561264        6.1417832376
  C        -1.0775562697        1.8824428064        7.9891410102
  C         3.5640377616       -1.3655199161        7.4272729529
  C         1.4246027327       -0.8104254741       10.7087421739
  C         1.0904418510        9.5036912666        5.1508197939
  C         3.3603125258        7.3580851982        2.3855359684
  C        -1.2158497335        6.0728856727        5.5787911757
  C        -0.9163569776        4.1052086092        6.9485659945
  C         3.7056564072       -3.4251429867        6.1518749059
  C         3.7771973102        6.8221565021        0.0402826345
  O         1.6755232310        1.4998668894        6.9380912091
  O        -0.2866937089       -1.8284048063        7.9892344047
  O        -2.3951626361       -0.4098348713       10.9239159756
  O        -2.7519227650        9.1405524417        5.6327726482
  O        -0.4768327659        8.0027142867        2.4810558506
  O         1.7111374265        5.7742772419        4.9244704317
  O        -0.6226319882        0.6882419488        8.1092697461
  O         4.0402025984       -0.7152209552        8.4562260273
  O         1.7705622972       -0.1814995764        9.6327807665
  O         1.3934094216        8.2545519932        5.2394949263
  O         3.6413041608        8.1469622299        3.3668789219
  O        -0.9350959007        6.5943754231        4.4389781936
  O        -2.2266065865        2.1727322743        8.5045067366
  O         2.4566080352       -1.0995488832        6.8721746666
  O         0.3048852551       -1.4435208272       10.7475996122
  O        -0.0367489856        9.8656349724        4.6521365774
  O         2.2289947133        6.7459694439        2.3515642330
  O        -2.3301622609        6.3512300289        6.1579654718
  O         2.4374485763        2.3426252411       10.2108160498
  C         2.2011837095        3.4285543008        9.6756035814
  O         1.3752816645        4.2790531936       10.2808828662
  H         2.6417514470        3.7321058287        8.7151236277
  H         1.2575438943        5.0708736526        9.7176850136
      59
 i =      237, E =     -1483.3273972979
 Ni         3.2944698763        0.8917557922        9.2163919848
 Ni         0.8780785995       -0.1181093223        7.4512973245
 Ni        -1.1912478300       -1.1876695087        9.5971638724
 Ni        -1.5177734252        8.8128003637        3.9601011186
 Ni         0.7075271070        6.7523930282        3.5626116634
 Ni         3.0291839589        7.4339305880        5.5370456921
  H         2.6864239400        3.4826826874        5.6793209680
  H        -1.6258206903       11.1033562434        6.9180223213
  H        -1.5217030179        0.0711138996       13.3369469317
  H        -1.9451686578        4.2701272463        7.2659226997
  H         2.6521797606       -3.2511909417        5.9373133187
  H         2.7115520930        6.6009605847       -0.0072864725
  C         1.0189518778        2.6320311346        6.7670563901
  C        -1.0156351676       -2.6752614774        7.2065685458
  C         3.6709330338       -0.4847916267       12.0147773541
  C         3.4083725669       10.2854146375        5.9887887471
  C        -1.0892365102        7.5371602092        1.3477806602
  C         1.0441061951        4.8722580687        5.6939110046
  C         1.6770919767        3.6705857797        6.0445552778
  C        -2.6778405160       11.2806322720        6.6989744491
  C        -2.5848368063       -0.1563247523       13.2837534561
  C        -0.3064906412        2.8942054006        7.2677815840
  C         4.3848579707       -2.4780708635        6.9165854925
  C         2.2355123945       -0.7449152286       11.9499238640
  C         2.0124460192       10.5126490840        5.7162659650
  C         4.3103723977        7.1990419285        1.2753956855
  C        -0.3176194055        5.0685185318        6.1426931105
  C        -1.0777312223        1.8822340459        7.9888629466
  C         3.5641698486       -1.3655702624        7.4274275436
  C         1.4240543705       -0.8104970419       10.7090531784
  C         1.0906305009        9.5034784061        5.1513791685
  C         3.3599165302        7.3594320848        2.3860884418
  C        -1.2156921349        6.0729176370        5.5791943984
  C        -0.9166454232        4.1049411847        6.9483896137
  C         3.7057776924       -3.4248044944        6.1513245522
  C         3.7765531159        6.8229762114        0.0408255767
  O         1.6758315765        1.5002105647        6.9382538655
  O        -0.2862011548       -1.8285889263        7.9887933340
  O        -2.3961622207       -0.4113027423       10.9242263335
  O        -2.7524304878        9.1397433369        5.6336882350
  O        -0.4765312141        8.0038068751        2.4810002646
  O         1.7109238176        5.7742671229        4.9243175582
  O        -0.6224535912        0.6882594775        8.1090689270
  O         4.0401298457       -0.7150495010        8.4563407236
  O         1.7707023780       -0.1821698448        9.6329665658
  O         1.3934902184        8.2545505389        5.2404966927
  O         3.6405043102        8.1484683120        3.3674632501
  O        -0.9352395890        6.5934371258        4.4390216569
  O        -2.2263226330        2.1723065517        8.5047720581
  O         2.4567318286       -1.0993132464        6.8723858522
  O         0.3047519232       -1.4438614119       10.7477058173
  O        -0.0366927763        9.8651103945        4.6523726638
  O         2.2289592512        6.7468594811        2.3519038599
  O        -2.3302059777        6.3509836793        6.1580690472
  O         2.4375293300        2.3424244749       10.2104929938
  C         2.2019866315        3.4280542257        9.6751451879
  O         1.3756297203        4.2790967843       10.2791799277
  H         2.6431041423        3.7312022270        8.7148566889
  H         1.2588707965        5.0709766794        9.7158192938
      59
 i =      238, E =     -1483.3274010269
 Ni         3.2943406990        0.8919346111        9.2163954060
 Ni         0.8781603581       -0.1184143829        7.4511682533
 Ni        -1.1912917588       -1.1878216033        9.5975924709
 Ni        -1.5178853783        8.8129078663        3.9602503098
 Ni         0.7074015351        6.7525970244        3.5628869015
 Ni         3.0292712992        7.4328092626        5.5376026754
  H         2.6863946588        3.4826518509        5.6790927731
  H        -1.6256424299       11.1036214719        6.9171384462
  H        -1.5221909993        0.0713986841       13.3381119142
  H        -1.9452888953        4.2696480464        7.2656772617
  H         2.6524461586       -3.2506137447        5.9370862327
  H         2.7110920857        6.6020491976       -0.0065024481
  C         1.0189239534        2.6319513849        6.7670763747
  C        -1.0155631860       -2.6753327842        7.2065042290
  C         3.6708152925       -0.4846451190       12.0155235756
  C         3.4082549948       10.2850843886        5.9889951170
  C        -1.0898188449        7.5382425950        1.3484008284
  C         1.0441853735        4.8721856001        5.6940872866
  C         1.6772670239        3.6707181987        6.0449121420
  C        -2.6778652683       11.2805494680        6.6988116291
  C        -2.5854018247       -0.1555251226       13.2845280892
  C        -0.3067465490        2.8938458130        7.2675364579
  C         4.3851005364       -2.4778172106        6.9162788002
  C         2.2352198550       -0.7445911917       11.9506479875
  C         2.0122811854       10.5123864117        5.7166808360
  C         4.3098508940        7.2004438284        1.2761424967
  C        -0.3175683188        5.0683235678        6.1427822151
  C        -1.0778360543        1.8817142503        7.9888296129
  C         3.5642608719       -1.3653374496        7.4271468190
  C         1.4240757112       -0.8102037216       10.7093873698
  C         1.0907209521        9.5031304561        5.1515597209
  C         3.3593766438        7.3605374265        2.3868640028
  C        -1.2155606476        6.0726388798        5.5792015125
  C        -0.9165822191        4.1048409211        6.9486656223
  C         3.7058466894       -3.4248561000        6.1515192396
  C         3.7761175365        6.8243465977        0.0415268395
  O         1.6758170088        1.5002009223        6.9382269896
  O        -0.2862327690       -1.8284733265        7.9888611650
  O        -2.3959737628       -0.4118649124       10.9254017299
  O        -2.7524382616        9.1395960470        5.6335452634
  O        -0.4770575239        8.0047781189        2.4816455082
  O         1.7109148852        5.7744240819        4.9245219931
  O        -0.6224299338        0.6879300732        8.1090205694
  O         4.0400398319       -0.7151066857        8.4563429686
  O         1.7706490688       -0.1820692487        9.6331213370
  O         1.3935340359        8.2542773293        5.2409211518
  O         3.6397046184        8.1495260274        3.3685066609
  O        -0.9352944381        6.5931131263        4.4390985013
  O        -2.2263572675        2.1716172111        8.5047135235
  O         2.4565440289       -1.0997139563        6.8723637640
  O         0.3049411863       -1.4437260050       10.7478464969
  O        -0.0365955156        9.8651070805        4.6525042222
  O         2.2285328583        6.7478686505        2.3520687056
  O        -2.3300022638        6.3507594792        6.1583859710
  O         2.4378453655        2.3422039894       10.2106997762
  C         2.2023101233        3.4276827919        9.6755332174
  O         1.3759975527        4.2789729908       10.2791593609
  H         2.6434254585        3.7307783125        8.7153267915
  H         1.2597551402        5.0711547888        9.7161742488
      59
 i =      239, E =     -1483.3274002645
 Ni         3.2943406990        0.8919346111        9.2163954060
 Ni         0.8781603581       -0.1184143829        7.4511682533
 Ni        -1.1912917588       -1.1878216033        9.5975924709
 Ni        -1.5178853783        8.8129078663        3.9602503098
 Ni         0.7074015351        6.7525970244        3.5628869015
 Ni         3.0292712992        7.4328092626        5.5376026754
  H         2.6863946588        3.4826518509        5.6790927731
  H        -1.6256424299       11.1036214719        6.9171384462
  H        -1.5221909993        0.0713986841       13.3381119142
  H        -1.9452888953        4.2696480464        7.2656772617
  H         2.6524461586       -3.2506137447        5.9370862327
  H         2.7110920857        6.6020491976       -0.0065024481
  C         1.0189239534        2.6319513849        6.7670763747
  C        -1.0155631860       -2.6753327842        7.2065042290
  C         3.6708152925       -0.4846451190       12.0155235756
  C         3.4082549948       10.2850843886        5.9889951170
  C        -1.0898188449        7.5382425950        1.3484008284
  C         1.0441853735        4.8721856001        5.6940872866
  C         1.6772670239        3.6707181987        6.0449121420
  C        -2.6778652683       11.2805494680        6.6988116291
  C        -2.5854018247       -0.1555251226       13.2845280892
  C        -0.3067465490        2.8938458130        7.2675364579
  C         4.3851005364       -2.4778172106        6.9162788002
  C         2.2352198550       -0.7445911917       11.9506479875
  C         2.0122811854       10.5123864117        5.7166808360
  C         4.3098508940        7.2004438284        1.2761424967
  C        -0.3175683188        5.0683235678        6.1427822151
  C        -1.0778360543        1.8817142503        7.9888296129
  C         3.5642608719       -1.3653374496        7.4271468190
  C         1.4240757112       -0.8102037216       10.7093873698
  C         1.0907209521        9.5031304561        5.1515597209
  C         3.3593766438        7.3605374265        2.3868640028
  C        -1.2155606476        6.0726388798        5.5792015125
  C        -0.9165822191        4.1048409211        6.9486656223
  C         3.7058466894       -3.4248561000        6.1515192396
  C         3.7761175365        6.8243465977        0.0415268395
  O         1.6758170088        1.5002009223        6.9382269896
  O        -0.2862327690       -1.8284733265        7.9888611650
  O        -2.3959737628       -0.4118649124       10.9254017299
  O        -2.7524382616        9.1395960470        5.6335452634
  O        -0.4770575239        8.0047781189        2.4816455082
  O         1.7109148852        5.7744240819        4.9245219931
  O        -0.6224299338        0.6879300732        8.1090205694
  O         4.0400398319       -0.7151066857        8.4563429686
  O         1.7706490688       -0.1820692487        9.6331213370
  O         1.3935340359        8.2542773293        5.2409211518
  O         3.6397046184        8.1495260274        3.3685066609
  O        -0.9352944381        6.5931131263        4.4390985013
  O        -2.2263572675        2.1716172111        8.5047135235
  O         2.4565440289       -1.0997139563        6.8723637640
  O         0.3049411863       -1.4437260050       10.7478464969
  O        -0.0365955156        9.8651070805        4.6525042222
  O         2.2285328583        6.7478686505        2.3520687056
  O        -2.3300022638        6.3507594792        6.1583859710
  O         2.4378453655        2.3422039894       10.2106997762
  C         2.2023101233        3.4276827919        9.6755332174
  O         1.3759975527        4.2789729908       10.2791593609
  H         2.6434254585        3.7307783125        8.7153267915
  H         1.2597551402        5.0711547888        9.7161742488
