78
C37 H16 Mg6 O19
Mg        2.165851        8.623810        5.435018
Mg       -0.125077       10.311081        4.752594
Mg       -2.415118       10.058113        6.556577
Mg        0.121971        1.034644       11.305273
Mg        2.412878       -0.652605       11.987718
Mg        4.702939       -0.399647       10.183732
H         0.020518        9.014964        1.494332
H        -2.270293       13.526353        7.058312
H         2.309460        6.452138        8.184963
H         4.794014       10.345438        1.009902
H         2.503406       13.289838        8.452346
H         0.211458        5.363341        7.284251
H         2.267360        0.643477       15.245900
H         4.558133       -3.867906        9.681989
H        -0.021674        3.206334        8.555297
H        -2.506143       -0.687045       15.730454
H        -0.215589       -3.631396        8.287984
H         2.076271        4.295103        9.456055
C         1.829748        9.469311        2.524632
C        -0.459812       12.410339        6.937242
C         4.120534        7.115489        7.279549
C         1.067043        9.300668        1.375816
C        -1.223710       13.488699        7.364749
C         3.356328        6.205791        7.999324
C         1.603785        9.480494        0.079449
C        -0.688602       14.523684        8.166858
C         3.891418        4.993139        8.493312
C         0.684119        0.178026       16.660867
C         2.976404       -4.865260        8.573505
C        -1.603659        4.665312        8.247003
C         3.748755       10.043167        1.088930
C         1.458305       13.371002        8.149921
C        -0.834064        5.584430        7.504269
C         3.220623        9.858059        2.362198
C         0.931309       12.359146        7.354437
C        -1.360718        6.779998        7.026518
C         4.137263       10.068517        3.507381
C         1.848355       11.260610        6.966283
C        -0.443660        7.666629        6.271486
C         1.220834        0.357808       15.364437
C         3.511546       -3.830237        9.375607
C        -1.068595        3.452673        8.740948
C         0.458067        0.189145       14.215635
C         2.747629       -2.751922        9.803072
C        -1.832769        2.542944        9.460698
C        -0.932753       -0.199613       14.378106
C         1.356529       -2.700716        9.385876
C         3.648490        2.878456        9.713672
C        -1.460847       -0.384685       15.651412
C         0.829510       -3.712569        8.590426
C         3.121829        4.074029        9.235993
C        -1.849432       -0.410099       13.232890
C         0.439442       -1.602166        9.774045
C         2.731473        1.991787       10.468770
O        -1.548495       10.487946        3.326687
O         3.034961       11.207223        7.420277
O         0.743182        7.300731        5.998486
O         3.703648        9.791304        4.692900
O         1.413532       10.371351        6.135475
O        -0.878146        8.831306        5.918235
O         1.263589        9.268243        3.733016
O        -1.025841       11.462735        6.161200
O         3.555009        8.261793        6.847801
O         3.836344       -0.829538       13.413604
O        -0.747152       -1.548775        9.320043
O         1.544635        2.357694       10.741833
O        -1.415826       -0.132841       12.047395
O         0.874272       -0.712895       10.604791
O         3.166005        0.827118       10.822067
O         1.024245        0.390224       13.007272
O         3.313679       -1.804289       10.579123
O        -1.267225        1.396720        9.892507
C        -0.484149        3.182279       12.890032
O        -0.232133        2.215750       12.220420
H        -0.323440        3.569756       11.885614
H        -0.621885        2.891614       13.727047
H         0.615463        3.182279       12.890032
H         0.661301        2.215750       12.220420
