107
74ace65 s3_to_s4 A (s3 augmented)
  Zn       -1.3831775220        0.8914035664       10.8650570864
  Zn        1.3885544878       -1.0500057737       10.2429633603
  Zn        6.6457657044        6.1607517314        1.2301670824
  Zn        3.4173093844        7.9173355606        1.9056284266
  H        -5.3402470685        7.3336355742       10.1527378895
  H        -1.3244642184       12.7880087484       -0.1090325843
  H         7.6372392175        1.0882062651        0.0219920505
  H        -2.7534419943        6.2131507543       10.4345893933
  H         4.7195098529       10.5774258326        2.7472746321
  H         4.9566808819        4.5213335812        4.8900938728
  C         0.9180419656        2.8814079299       10.9840447417
  C         1.2564345603        4.8408961820        0.0063396075
  C         5.2889457528       -2.2966315389       11.5349504890
  C         1.4937463093       11.3083686174        0.1895069292
  C         5.1500747799        2.6120980650       -0.2455718695
  C         6.1821841947       -0.4081343241        1.1090493306
  C         4.7433960648        0.1952443798        0.9515552206
  C         0.1028226695       -0.9087721459        7.4704763246
  C         6.7150304641        0.5025027530       -0.0238429614
  C        -0.3877313498       13.3512228165       -0.0960448274
  C         5.2752458330        1.1539877672       -0.1820555261
  C         1.0641000562       12.7086635023        0.0726454631
  C        -4.8267659716        7.1553488197       11.1005716862
  C        -3.3949027355        6.5359264254       11.2583123878
  C        -2.7066392938       -1.1982819234        5.1854380339
  C         3.3936107228        3.7200054214        8.6449253258
  C        -1.4871458019       -0.6774064882        5.4703786251
  C         3.0242809210        3.9143518618        9.9338040075
  C        11.8318687003       -1.9764010553        4.0068106461
  C         3.8681214265        4.6945222586        7.6845719296
  C         7.4576437355        8.8290927192        2.3591505053
  C         2.9821899350        7.1308029197        4.8956474374
  C         7.4892388033       11.0091116579        3.7615024349
  C         6.8975483597       10.0237771163        2.8685230469
  C         3.0976431118        5.5192509929        6.9324269588
  C        12.4026211140        3.9945791035        0.2141538128
  C        -1.1571070048        4.4733211153        0.5274994543
  C         6.7162052205       -2.5165768896       11.5869597935
  C        -0.0040621969        4.1200079003       -0.0787958302
  C         3.4773963271        6.0453868661        5.6467333359
  C         4.3607209704       -2.1684201208       10.4782781794
  C        -3.0420845286       -1.6513382758       11.2819963082
  C         1.9173702922       10.5279573043        1.2809476487
  C         5.3779232039        3.5218527778        0.7987188597
  C         9.4965431656        5.2759098360        0.2902645238
  C         1.8818260415        5.4197527659        1.1225968048
  C        -3.1643461294        3.3085750893       11.4770768859
  C         0.1645834014       -3.6515183087       10.9988559588
  C         5.5337692869        9.8912649395        2.5372132438
  C         4.3886510881        5.4325281707        4.7428293654
  C         2.6344366054        1.5570826712       10.8339974191
  C        -1.5370608893        0.4809335298        7.8179019758
  C         2.2931588486        2.8969739806       10.6774913187
  C        -1.0037794806       -0.3297784206        6.8057483392
  N         0.4850672772        1.6361607543       11.2505850252
  N        -2.1418862750       -0.7633093561       11.7372269624
  N         3.1737537101       -1.7260405044       10.9302852243
  N         2.4184612260        9.3445517340        0.9106019529
  N         5.4672297584        4.7891489723        0.3822600606
  N         3.2841555095       -1.5206791606       12.3009188494
  N         2.7983782180        6.3322376250        0.7775840989
  N         0.1893288814       -0.4849410065        8.7414036806
  N        -2.6179990982        2.1584170062       11.8639724070
  N         0.3406130878       -2.3699111979       11.3453676282
  N         5.3054037343        8.7175118137        1.9287485967
  N         4.4476369775        6.0844172369        3.5838781213
  N         1.5794094134        0.7865076179       11.1508359149
  N        -0.8556426388        0.3958605975        8.9621551958
  N         6.4942793336        8.0433872081        1.8280200921
  N         3.5658069435        7.1373487680        3.6855013708
  Cl       -0.1174675810        4.2405842878       11.0008183347
  Cl        3.2745639382        5.4610239728       10.6832944806
  Cl       -0.3098698108       -0.5690607411        4.1903019980
  Cl       -6.1478259476       10.3951189477        4.7982223452
  Cl        1.4661047813        5.7904318873        7.4875108420
  Cl       11.6525548715        2.8672591126        1.3141342617
  Cl       -1.1831917622        5.8151341868        1.6582354835
  Cl        1.2428146934       -2.0404561946        6.8891352297
  Cl        9.0946120220        8.3474525562        2.2594927813
  Cl        1.8498421378        8.3543999629        5.3019544459
  Cl        4.6019561631       -2.4852175412        8.8178094251
  Cl       -3.2959802447       -1.8873101074        9.6094210036
  Cl       10.9262880506       -1.1824850760        6.3900083565
  Cl        3.1456840536        2.1470173143        7.8730613479
  F         6.8334926599       -0.5800362390        2.2932667055
  F        -5.0267324282       -4.0341072208       11.3563132977
  F         7.4309946349       -1.7884710932       10.6726345080
  F         1.8926028328       10.8245765582        2.5875368105
  F         5.5774945978        3.2373703321        2.0937042051
  F         9.9237139194        5.4170329871        1.5416179097
  F         1.6578476303        5.1415485107        2.4048811877
  F         3.9136283868        0.5668471820        1.9746943730
  F        -3.3009779518        3.5452020546       10.1704021778
  F         0.0537449863       -3.9655180003        9.6948868539
  F         3.8481876728        1.0303502928       10.6754028400
  F        -2.5886866610        1.2969082710        7.7715960281
  F        10.8028144625       -1.4508435240        3.2683722399
  F         5.1844419473        4.4755835536        7.2821397995
  O         7.5430168086        5.5249912038        5.8629113748
  O         7.5749769809        5.2706793274        2.8485520529
  C         7.8204701744        4.4376584469        3.7192952004
  H         6.7317687788        5.2933414693        6.3581655422
  H         7.0708621068        3.6898258243        4.0305239550
  H         7.0974268955        0.8078895223        6.3055832684
  H         7.3599551335        6.4233039876        5.5301129635
  H         7.8339850041        0.7366003038        6.3055832684
  H         8.8404836309        4.3527627216        4.1288564456
