     235
 i =      112, E =     -2903.5792682217
 Br        15.4666220387       20.2043888540       16.5172118873
 Br        26.9517320310       20.7469210886       24.9988959611
 Br         9.8693165827       16.6310760951       25.0030782494
 Br        26.6790286248       24.1814913176       16.3891296022
 Br        21.2846220182       17.1324015326        5.8307985839
 Br         7.0100280026       11.3386201454       10.8105846604
 Br        21.5295883617       20.7560673028       31.2005873932
 Br        32.7251055854       24.2492418883       30.5863640000
  C        17.8479838705       11.9985757645        8.1288860518
  C        15.9404645158       10.8637419543        6.4187609972
  C        17.9698287367       12.1337279127        6.7244322809
  C        15.7996689758       10.7177741593        7.8023697894
  C        17.0183438835       11.5712597989        5.8776773432
  C        16.7486073143       11.2884392384        8.6428548595
  C        21.1701021044       18.5181015404        7.1062143590
  C        21.0574356440       22.1166962343        7.4120653064
  C        21.0800868334       18.3804662031        8.4906278962
  C        21.1350186358       22.2341998159        6.0351112893
  C        21.0708438762       20.7631277388        7.8074541112
  C        21.1650477873       19.8741338602        6.7171552842
  C         6.4967201840       11.6810706994        9.0192669755
  C         7.5567549155       11.2661711521        5.6107976075
  C         5.3225448730       12.3356431192        8.6442055842
  C         8.7162644489       10.6415130730        6.0610042550
  C         6.7564987370       11.6465956786        6.6967985287
  C         7.3233961527       11.3061830657        7.9431468740
  C        21.8083382740       27.3317747067       30.7562585767
  C        23.7889554809       28.3385175999       32.5195136990
  C        21.7234566975       28.6832519640       31.1825204596
  C        23.8161418321       27.0008440807       32.1045564407
  C        22.7308301745       29.1018150066       32.0288825391
  C        22.8482194592       26.5139261374       31.2342790026
  C        19.7210478268       20.2104649115       31.1300342312
  C        17.5108952410       17.6026934432       32.2911174078
  C        18.6803775538       20.8440073656       30.4582331375
  C        18.5774638252       16.9826572730       32.9194791891
  C        17.9328308750       18.7726014869       31.6234429227
  C        19.3105601334       19.0284749696       31.7808289634
  C        33.2179116779       26.0667476241       30.8558462708
  C        32.1363002839       29.1226849609       32.4431456615
  C        34.3553001600       26.6910820683       30.3829477593
  C        30.9929815356       28.5036273681       32.9033955253
  C        32.9272398599       28.2493788350       31.7003201788
  C        32.4016436354       26.9409474451       31.6112653718
  C        10.0240647530       16.5780017096       21.5022237389
  C        12.3534633699       21.1717485923       21.6621613528
  C        12.7065494889       18.2875488180       17.4892428777
  C        29.5562878184       22.7189511462       17.4751250773
  C        27.4144279870       18.1430127351       17.1799745532
  C        26.9882020836       20.8596218232       21.5000664714
  C        18.3398073565       15.4973888546       13.3915293299
  C        18.8120989560       12.5591387470        9.1276082468
  C        21.0487770109       17.1804224465        9.3233386685
  C        23.7890900250       12.9261312609        9.4567701745
  C        23.4417874953       15.7474322152       13.6194038440
  C        21.0776361877       11.2505384803       13.2325390344
  C        21.2671012849       23.5725614183       25.5249016058
  C        20.8442898284       26.6776184192       29.8193009871
  C        18.7156128728       27.9251150344       25.6408427706
  C        15.9178914810       26.1553455320       29.5029192602
  C        16.1969988750       23.5587036594       25.3077495773
  C        18.6730807034       22.0598786707       29.6366736161
  C        18.5521920762       15.7436976252       33.7057247976
  C        24.7997511019       28.9399088459       33.4516641969
  C        29.8949549855       28.9864226722       33.6950282130
  C        21.1313930371       23.4524039601        5.2081291902
  C        14.9245905447       10.2678787771        5.4878484037
  C         9.8149366871       10.1062421697        5.2320374205
  C        26.3291774954       17.6353881557       16.2764581219
  C        24.4465384198       16.3741077446       14.5395566326
  C        25.1411301719       18.2857476529       15.8558944317
  C        25.5825832212       15.6473919940       14.9388030235
  C        24.2272225785       17.6772925979       15.0005815225
  C        26.4329278190       16.3338748100       15.7864551769
  C        13.4019561175       21.8064707891       22.5365994188
  C        15.2218710745       22.9486425335       24.3609297218
  C        14.5734574606       22.4570537458       22.0803586075
  C        14.0840538891       22.2841940112       24.8308816633
  C        15.4618720375       23.0273737643       22.9866571021
  C        13.1960588460       21.7191286463       23.9243880161
  C        14.9685557509       18.4099382569       16.2267728135
  C        16.1030016175       15.3752720520       14.6174699383
  C        13.8139832763       17.7696148157       16.6769693658
  C        17.2393781478       16.0441069069       14.1889921696
  C        15.2691033358       16.2379349738       15.3583806308
  C        15.7910393018       17.5422490297       15.4759802331
  C        25.7230397383       21.3646144487       23.6932617970
  C        22.4797056446       22.9348173469       23.3538195797
  C        25.8600636453       21.3279308786       22.3084420397
  C        22.3548869084       22.9805392590       24.7300535270
  C        23.7004436714       22.3328052158       22.9723146606
  C        24.4895914025       21.9314345945       24.0692930039
  C         9.9846729039       15.2374065556       23.7294010114
  C        10.1577387685       11.6764393226       23.5453090103
  C        10.0483524807       15.3734203903       22.3424139442
  C        10.1005290195       11.5343900698       24.8416334589
  C        10.1184146023       12.9945068024       23.0369433359
  C        10.0371317860       13.8872945492       24.1317538755
  C        28.5071689693       24.5975884555       16.1677930089
  C        30.7527322993       26.9795748429       14.6019768256
  C        29.6194538105       23.9034408184       16.6685749492
  C        29.6559732407       27.6432268366       14.0918327407
  C        30.3377508914       25.8556849724       15.3533123756
  C        28.9319501364       25.7037060799       15.4178147796
  H        25.7327084848       14.6329998011       14.5711425077
  H        23.3393175430       18.2289122879       14.7012219325
  H         7.7725644123       15.7403144105       16.1266652823
  H        13.9066843240       22.2210567766       25.9031042259
  H        16.3543398372       23.5308207779       22.6231571696
  H        12.3082311643       21.1929664665       24.2711086531
  H        15.9193383384       14.3277121054       14.3911091203
  H        21.7192630651       23.3306745878       22.6853518610
  H        18.8239481242       28.4889903622       22.8663581376
  H        31.7836683000       27.2781121862       14.4341199795
  H        14.9469262598       10.1641850910        8.1962613763
  H        17.1034118830       11.6871928310        4.7980584658
  H        16.6516290255       11.1868089912        9.7217013746
  H        20.9892362018       22.9847250267        8.0615794813
  H         7.3554804502       11.4242607724        4.5551168620
  H        24.6227761346       26.3772785982       32.4894449256
  H        13.9432872336       12.5800772056       32.2991745849
  H        22.8693694358       25.4692412911       30.9250404072
  H        16.5020286413       17.2004218731       32.3273879681
  H        23.6321607682       12.4916164866       32.7116629760
  H        26.6726906414       20.5307669260       16.2111172906
  H        13.0770198640       23.0196518836       19.8598690440
  H        20.6436218678       12.3502561196        7.2207762100
  H        19.0614827797       28.3246954511       30.8255739694
  O        10.0523379266       19.5825646647       19.4431273021
  O        10.1712205068       16.3263674035       20.2384282538
  O        11.7080671661       20.2106673028       22.1511320771
  O        12.8441883256       19.4511909962       17.9886997912
  O         9.8300486502       17.6895874698       22.0602251806
  O        11.7082589441       17.4882848063       17.6471099478
  O        12.1992294839       21.6554483488       20.4767952222
  O        11.1739241148       22.1752967728       17.7491176752
  O        27.5497765316       19.4375017358       17.2066532224
  O        28.5278603356       22.1528252516       17.9354996399
  O        28.1056273288       17.3203269253       17.8250839230
  O        28.0632785227       20.5347023389       22.0968028693
  O        26.7974455535       20.8457359164       20.2273798080
  O        21.0717475327       14.2232957025       11.3667605494
  O        19.2840031361       16.3093924745       13.0868014581
  O        18.3634884001       12.7797439580       10.2978277461
  O        21.0605046198       16.0450945324        8.7366407912
  O        18.2821482493       14.2541464670       13.0905647329
  O        21.0067103678       17.3773063148       10.5935126210
  O        20.0409028538       12.7490976677        8.7888042699
  O        22.9232576133       13.4299888695        8.6847152014
  O        23.6463026105       14.5295219962       13.3027599947
  O        23.9560207966       12.7384796768       10.6955048332
  O        22.4682833432       16.4816611630       13.2528506194
  O        19.9104221528       11.5667033844       12.8672020263
  O        22.2653612896       11.6643655467       13.0947773045
  O        18.6521521897       24.9746146282       27.5812516257
  O        20.3028647944       24.0911834958       24.8766062577
  O        21.3077238233       25.7639664834       29.0695893762
  O        18.5916368604       28.1796264270       26.8727367810
  O        21.3917788930       23.5055022204       26.8015598913
  O        18.7617140292       26.8886282862       24.9323243012
  O        19.6095464138       27.0310579631       29.8385234434
  O        16.7033957894       27.1128698269       29.2331827483
  O        15.9658001786       23.3983457413       26.5526480345
  O        15.8136440830       24.9290763980       29.2453479796
  O        17.1953979002       24.1654362763       24.7976964683
  O        19.6924612103       22.8298623124       29.6669139750
  O        17.6023654941       22.2416939570       28.9540661582
  O        18.5789181188       12.7191806595       35.7354412262
  O        19.6859824797       15.2833941726       34.0704423939
  O        24.6460982610       30.1169625403       33.8592250143
  O        28.8992299198       28.2638705458       34.0030128503
  O        17.3801609805       15.2728645935       33.9486802301
  O        21.4303423308       12.5705480907       34.0430802434
  O        25.7616350005       28.1240050537       33.7453776197
  O        21.2008536790       23.3405215841        3.9523149628
  O        13.9198740996        9.6593105011        5.9733239650
  O        21.0739142101       24.5406698437        5.9094339456
  O        15.0604275849       10.3629414575        4.2260284478
  O         9.7042990780       10.2251365427        3.9735042072
  O        10.7725196755        9.5455357252        5.8562782460
  O        25.8215211663       20.8518403322       15.7920078759
  O        23.4580747122       20.3007983694       15.7892780614
  O        24.7945763621       19.9343019132       17.8941337214
  O        13.9234577710       23.5499246340       19.7503106839
  O        16.2859934225       23.3405320157       20.2955080276
  O        14.9631952639       21.2672090924       19.7579316970
  O        20.5809444153       12.3112722513        6.2209351547
  O        19.0338627265       13.0035456912        4.4680566335
  O        19.2862259200       14.4171964936        6.5344056570
  O        19.1930535245       29.2198468004       31.2609201633
  O        12.2251440009       13.3514015409       31.3492589288
  O        20.4669229033       29.7294427186       29.1600054385
  S        13.7456538828       16.0929395984       16.1662331827
  S        17.3079096583       17.7195152772       14.6760818587
  S        24.4711293642       21.9825807860       21.4663129880
  S        23.7112719376       22.2633657882       25.5735490519
  S        10.1556967710       13.8299575062       21.5240855280
  S        10.0116047079       13.0526611191       25.6632062655
  S        31.1597391342       24.6106652805       16.2209496966
  S        28.1289342325       26.9495049654       14.5237617316
  S        20.9960535404       19.9247180163        9.3163369562
  S        21.2325577614       20.7022865269        5.2057328577
  S         5.2290323352       12.4508442505        6.9199622828
  S         8.8466623407       10.5021533526        7.7911125340
  S        17.1685509009       19.9716717325       30.6377651665
  S        20.1004132015       17.8130122546       32.7159165566
  S        34.4363477182       28.3593664590       30.8475330043
  S        30.8954428948       26.8023094590       32.4430971542
  S        24.6855611468       19.9253209964       16.4474715245
  S        15.0563990958       22.5855978690       20.3513319265
  S        19.2281679381       13.1176346143        5.8934538047
  S        20.4987388604       29.9260880703       30.6133810601
 Zn        10.2259811316       17.7547006227       18.9038585329
 Zn        29.6185770278       19.5045682000       21.3904347065
 Zn        18.3916388073       26.7942002769       28.2687068144
 Zn        17.0636352517       23.9068645111       28.0813839033
 Zn        20.1610359137       13.6148067992       35.0395327902
 Zn        17.1155413426       13.6333430159       34.9771683474
 Zn        27.2183872996       28.5858823485       34.9504601293
 Zn        21.0208341395       26.3569937546        5.2001466908
 Zn        11.5545460100       20.6504224182       18.8434671173
 Zn        28.0711575405       20.4492144550       18.8233394465
 Zn        20.9408646039       16.0849726266       12.0623505421
 Zn        19.4386834819       13.2329502909       11.8998145697
 Zn        21.2659228864       14.2333891339        9.3992275643
 Zn        22.6714211323       13.3221923712       12.0887580209
 Zn        18.7490631604       25.0444221224       25.6073139280
 Zn        20.3223583063       24.1587884696       28.3533783135
  O        22.5047872907       23.0304366271       29.3610454248
  C        23.5535549982       23.7304759130       28.9312181721
  O        24.7479696979       23.0883428411       29.4725283473
  H        23.7846767729       24.1569492962       27.9416366008
  H        25.5905202081       23.5043698798       29.0871118475
  H        23.4963830087       23.8220614119       29.9836084292
  H        24.9341008310       23.2247932924       30.4682029398
     235
 i =      113, E =     -2903.7495833126
 Br        15.4637587927       20.2043318869       16.5192805750
 Br        26.9496139701       20.7484520712       24.9971029098
 Br         9.8699174723       16.6266019174       24.9980594070
 Br        26.6894645393       24.1696680299       16.3975875417
 Br        21.2841024091       17.1324151744        5.8315961513
 Br         6.9952042234       11.3443175228       10.8096429152
 Br        21.5305649461       20.7523815999       31.2029842740
 Br        32.7286104995       24.2452215472       30.5816767355
  C        17.8489038166       11.9999658903        8.1293372162
  C        15.9442866749       10.8659711738        6.4213838960
  C        17.9746851182       12.1369689020        6.7245697411
  C        15.8031213613       10.7199881673        7.8038780576
  C        17.0222284551       11.5724694537        5.8815869591
  C        16.7500392817       11.2899588697        8.6460278552
  C        21.1705127776       18.5187820463        7.1064444478
  C        21.0566932551       22.1195195732        7.4116840111
  C        21.0805739713       18.3787046953        8.4918467315
  C        21.1328765265       22.2350994420        6.0341928036
  C        21.0712664681       20.7651869066        7.8066581462
  C        21.1649510608       19.8751012147        6.7171031022
  C         6.4963370357       11.6822131249        9.0123601996
  C         7.5510182977       11.2652810811        5.6112577662
  C         5.3146427883       12.3415552305        8.6528452076
  C         8.7183870386       10.6416115468        6.0600500200
  C         6.7563536607       11.6457434228        6.6947559937
  C         7.3256841095       11.3073870139        7.9411531794
  C        21.8049311068       27.3272649682       30.7543170142
  C        23.7937980116       28.3439232940       32.5243768499
  C        21.7258623658       28.6806901639       31.1852320543
  C        23.8194280384       27.0046398077       32.1055562559
  C        22.7325399589       29.0810492128       32.0223956470
  C        22.8484300355       26.5173551988       31.2385663044
  C        19.7217795238       20.2082110912       31.1332057724
  C        17.5088663385       17.6024783880       32.2903916781
  C        18.6821828515       20.8415894195       30.4601891627
  C        18.5760960104       16.9832978649       32.9178354509
  C        17.9307103923       18.7723936297       31.6233792762
  C        19.3085541140       19.0268220983       31.7817964356
  C        33.2215439342       26.0682739435       30.8538337828
  C        32.1437362384       29.1251959177       32.4388839692
  C        34.3554406083       26.6903704963       30.3856747020
  C        30.9958350029       28.5221396871       32.9070079804
  C        32.9243260199       28.2560113385       31.6998289781
  C        32.4035135522       26.9431510857       31.6094212473
  C        10.0159538136       16.5852462561       21.4968376607
  C        12.3515543676       21.1626314068       21.6550816613
  C        12.7029440510       18.2873299518       17.4944382163
  C        29.5252950262       22.7345839535       17.4707544798
  C        27.4213016945       18.1442220290       17.1881663467
  C        26.9874487187       20.8634658800       21.5023380566
  C        18.3440974213       15.4985035679       13.3989257508
  C        18.8107369968       12.5546009043        9.1267534115
  C        21.0494503908       17.1796622627        9.3246866127
  C        23.7765186121       12.9395301723        9.4689217435
  C        23.4403575047       15.7490415656       13.6234942477
  C        21.0761537375       11.2715380819       13.2254963791
  C        21.2644283592       23.5691155718       25.5240378061
  C        20.8436502545       26.6733608610       29.8148280276
  C        18.7160554731       27.8993397749       25.6350870641
  C        15.9420293682       26.1470890079       29.4866848719
  C        16.1965075964       23.5534213219       25.3069476186
  C        18.6714811511       22.0572185924       29.6393142383
  C        18.5449258971       15.7482183457       33.7094328178
  C        24.7995636522       28.9518859631       33.4620624023
  C        29.8984427916       28.9543269786       33.6920099042
  C        21.1363635051       23.4537540392        5.1976615681
  C        14.9300030230       10.2691473607        5.4919191090
  C         9.8194005692       10.0977543461        5.2284239444
  C        26.3363913940       17.6405909489       16.2779887347
  C        24.4466847980       16.3760347312       14.5400071062
  C        25.1446561760       18.2883722141       15.8577233782
  C        25.5833825792       15.6425327562       14.9377728305
  C        24.2302546847       17.6781009538       15.0045164865
  C        26.4131241808       16.3488989813       15.7769212089
  C        13.3969882605       21.8091477539       22.5365105219
  C        15.2212818536       22.9505208734       24.3604663299
  C        14.5704509494       22.4564700257       22.0798421005
  C        14.0840739782       22.2844715873       24.8310063050
  C        15.4620150960       23.0247132937       22.9856502749
  C        13.1942982923       21.7221777193       23.9248938120
  C        14.9670780739       18.4108536191       16.2277613318
  C        16.1032099260       15.3757853652       14.6178558132
  C        13.8107908025       17.7712037418       16.6759174947
  C        17.2393272941       16.0455579572       14.1874217161
  C        15.2682916328       16.2373074574       15.3589936485
  C        15.7892926112       17.5418554238       15.4771984421
  C        25.7194602266       21.3652003258       23.6920272727
  C        22.4777960004       22.9367819461       23.3563371050
  C        25.8550659228       21.3255339983       22.3067763994
  C        22.3566869263       22.9815694298       24.7331371841
  C        23.6977016338       22.3346972698       22.9736259474
  C        24.4876155995       21.9334271262       24.0700175588
  C         9.9867051095       15.2354910403       23.7241116197
  C        10.1566714485       11.6966204412       23.5926887157
  C        10.0546578291       15.3748581027       22.3370309961
  C        10.1008024247       11.5249708951       24.8396722318
  C        10.1172485616       12.9944115327       23.0234663305
  C        10.0368765280       13.8850593497       24.1225927644
  C        28.5095857540       24.6009431125       16.1622162155
  C        30.7496585211       26.9855667623       14.5978308903
  C        29.6250922551       23.8994240449       16.6708169365
  C        29.6527576499       27.6453595654       14.0870307673
  C        30.3406333954       25.8587578007       15.3521631765
  C        28.9318556927       25.7046452255       15.4183920920
  H        25.7352413153       14.6270724250       14.5721515449
  H        23.3407174964       18.2240041095       14.7005761037
  H         7.7756585858       15.7427538685       16.1302067874
  H        13.9051925079       22.2196679929       25.9028048527
  H        16.3525546852       23.5306962245       22.6206917809
  H        12.3076574637       21.1929912438       24.2695333022
  H        15.9185658447       14.3282431308       14.3913345918
  H        21.7189191892       23.3305209552       22.6848522341
  H        18.8217418403       28.5103376167       22.9047968844
  H        31.7845367375       27.2743089836       14.4375592662
  H        14.9490360055       10.1654149042        8.1947549557
  H        17.1017305278       11.6861342268        4.8008060066
  H        16.6527485931       11.1874739029        9.7247912045
  H        20.9889061148       22.9847464030        8.0649666354
  H         7.3560810536       11.4218354793        4.5544617711
  H        24.6237966618       26.3768872222       32.4907757341
  H        13.8019112118       12.6440234074       32.2208330785
  H        22.8652588386       25.4750205382       30.9224769149
  H        16.4997444918       17.2014544190       32.3254394510
  H        23.5641843763       12.5078497964       32.7594246467
  H        26.6731919017       20.5225184526       16.2123386601
  H        13.0755539201       23.0181084399       19.8576537762
  H        20.6412962260       12.3476331864        7.2148865864
  H        19.0681183733       28.3248750453       30.8338705450
  O        10.0557497454       19.5897036240       19.4289806576
  O        10.1556007646       16.3123283116       20.2283290350
  O        11.7104193849       20.2094279972       22.1422237820
  O        12.8388374926       19.4470320219       17.9979368529
  O         9.8275673030       17.6923924738       22.0410276538
  O        11.7028887867       17.4858780907       17.6417645223
  O        12.2108424114       21.6638591147       20.4699452264
  O        11.1716726697       22.1535138844       17.7522184267
  O        27.5630906655       19.4476619677       17.2062919485
  O        28.5396294266       22.1317767151       17.9571614094
  O        28.1072686188       17.3344145041       17.8306459808
  O        28.0568072032       20.5376271039       22.1027956603
  O        26.8057097370       20.8464417669       20.2261121539
  O        21.0841120693       14.2123505599       11.3750901511
  O        19.2891031796       16.3089469415       13.0905725715
  O        18.3626886778       12.7755104446       10.2985928771
  O        21.0707931708       16.0404543289        8.7434575632
  O        18.2851411891       14.2549090850       13.0957072932
  O        20.9999221024       17.3705319729       10.5958637518
  O        20.0395441566       12.7483051198        8.7853991805
  O        22.9313288278       13.4229066123        8.6896250333
  O        23.6442067489       14.5289665449       13.3132444010
  O        23.9633062306       12.7188057213       10.6891863679
  O        22.4729178537       16.4875368517       13.2530230072
  O        19.9175117138       11.5583717530       12.8669386202
  O        22.2636971160       11.6503283650       13.0970651352
  O        18.6447503496       24.9854174605       27.5853759839
  O        20.3041048143       24.0901529386       24.8718957229
  O        21.3078763994       25.7608544067       29.0609161871
  O        18.5813804976       28.2059422159       26.8443524213
  O        21.3862815640       23.5044596187       26.8018092223
  O        18.7571855107       26.8745362195       24.9394375883
  O        19.6069858998       27.0246482301       29.8363802746
  O        16.6915861535       27.1195523601       29.2283094579
  O        15.9640194391       23.3994674333       26.5557851363
  O        15.8083522190       24.9327668189       29.2480399606
  O        17.1934006540       24.1660031932       24.7959715163
  O        19.6854987432       22.8348949054       29.6647517484
  O        17.5922901499       22.2378076879       28.9687632711
  O        18.5774509716       12.7244650559       35.7439641691
  O        19.6677116035       15.2858827950       34.0949305643
  O        24.6675649225       30.1172083461       33.8747048219
  O        28.8870781237       28.2782439217       34.0279469682
  O        17.3608455418       15.2783821181       33.9290066729
  O        21.4691789535       12.5612278771       34.0346829427
  O        25.7508222734       28.1020081876       33.7497726871
  O        21.2039427124       23.3599049321        3.9521953828
  O        13.9184892524        9.6604558509        5.9552325923
  O        21.0756434708       24.5388027227        5.9263174843
  O        15.0395316986       10.3552536059        4.2287447290
  O         9.7080925579       10.2240295857        3.9734083628
  O        10.7730005209        9.5327052028        5.8460386150
  O        25.8198431502       20.8487598055       15.7997013642
  O        23.4531319733       20.3022472355       15.7961309835
  O        24.7902048166       19.9271413002       17.8983885563
  O        13.9239457494       23.5500393095       19.7515424084
  O        16.2861839934       23.3347381846       20.2973863663
  O        14.9608378738       21.2651159707       19.7555856678
  O        20.5861428491       12.3138889327        6.2152168650
  O        19.0447852298       13.0108128350        4.4654529389
  O        19.2900354276       14.4196519153        6.5331053597
  O        19.1884490990       29.2205552429       31.2673501950
  O        12.3711445102       13.2802258583       31.4364216664
  O        20.4677259166       29.7418385294       29.1474982784
  S        13.7443027010       16.0938248468       16.1673166954
  S        17.3059201779       17.7204299049       14.6768775610
  S        24.4666390726       21.9830757100       21.4673432051
  S        23.7122907832       22.2619235717       25.5766469793
  S        10.1552680123       13.8345393034       21.5135170575
  S        10.0127206678       13.0321488777       25.6588650463
  S        31.1627284827       24.6120981069       16.2177259129
  S        28.1352532170       26.9593781793       14.5204227487
  S        20.9954307922       19.9249282373        9.3147755174
  S        21.2324783845       20.7034264353        5.2048798776
  S         5.2224860367       12.4526109040        6.9437673785
  S         8.8525427928       10.5043169083        7.7848797654
  S        17.1685646216       19.9717897445       30.6369988759
  S        20.1004386026       17.8117747965       32.7158792961
  S        34.4408118501       28.3472102334       30.8415862581
  S        30.8985356409       26.8072444364       32.4446499921
  S        24.6808198453       19.9245739038       16.4519930630
  S        15.0535442531       22.5832433560       20.3497595947
  S        19.2317741646       13.1202412338        5.8916093177
  S        20.4937825513       29.9333527974       30.6092238692
 Zn        10.2711672594       17.7834718888       18.9565281517
 Zn        29.6145786517       19.5014088427       21.3402417372
 Zn        18.3981213339       26.8116619714       28.2603483093
 Zn        17.0667894821       23.8944260497       28.0770555895
 Zn        20.1537957415       13.5482129432       34.9779946794
 Zn        17.1973919737       13.6419842785       34.9751104352
 Zn        27.1850746851       28.6121589553       34.9286724948
 Zn        21.0249726329       26.3415500092        5.1912874169
 Zn        11.5342442050       20.6619936492       18.8495170680
 Zn        28.0712693037       20.4126962978       18.8313944469
 Zn        20.9438758979       16.0826154402       12.0633494879
 Zn        19.4288194760       13.2375056083       11.8931445558
 Zn        21.2481217275       14.2285935090        9.3966499376
 Zn        22.6841393472       13.3252881934       12.0980963811
 Zn        18.7445138229       25.0245946107       25.6075513405
 Zn        20.3176941676       24.1570862853       28.3496821721
  O        22.5084921231       22.8566974007       29.3223488021
  C        23.5315976046       23.8345382752       28.9732835702
  O        24.7506409222       22.9755894568       29.4376853889
  H        23.8016337519       24.1533297409       27.9379991740
  H        25.6080255199       23.4620576964       29.1083302355
  H        23.4467508233       24.0720614119       30.0296475454
  H        24.9863464542       23.2081334139       30.4226249416
     235
 i =      114, E =     -2903.9342829765
 Br        15.4603791253       20.2045716687       16.5218741898
 Br        26.9467500672       20.7503858843       24.9950561789
 Br         9.8705671143       16.6221336347       24.9923818632
 Br        26.6999511331       24.1562921538       16.4069435573
 Br        21.2835406681       17.1324797490        5.8323679397
 Br         6.9791250572       11.3495186540       10.8102674750
 Br        21.5314802243       20.7495781032       31.2050741661
 Br        32.7326948885       24.2407883535       30.5765025239
  C        17.8505309444       12.0009187256        8.1296196284
  C        15.9476165602       10.8664664330        6.4225315433
  C        17.9790675737       12.1394724927        6.7241085951
  C        15.8057212357       10.7219260525        7.8041810799
  C        17.0251234788       11.5736585051        5.8846623809
  C        16.7509946295       11.2915493756        8.6475145747
  C        21.1709686741       18.5188742421        7.1072230631
  C        21.0557102417       22.1214631156        7.4108592715
  C        21.0810829695       18.3768501109        8.4937451070
  C        21.1320029747       22.2355384647        6.0327747356
  C        21.0714316996       20.7663828712        7.8060669467
  C        21.1649723577       19.8753040601        6.7172292159
  C         6.4958451887       11.6829590862        9.0067134096
  C         7.5459744317       11.2661354221        5.6118149713
  C         5.3074075968       12.3494369738        8.6607014823
  C         8.7203072616       10.6405786680        6.0592569688
  C         6.7552141263       11.6430352855        6.6925498622
  C         7.3276835539       11.3101250938        7.9400417442
  C        21.8017545280       27.3232396340       30.7535408189
  C        23.7931881535       28.3504914831       32.5262873510
  C        21.7262549092       28.6793468122       31.1866770198
  C        23.8221725427       27.0080583865       32.1077401553
  C        22.7316317957       29.0626393137       32.0135318708
  C        22.8488277229       26.5213455357       31.2428791011
  C        19.7236036246       20.2058104974       31.1367979914
  C        17.5062849278       17.6024533913       32.2891350739
  C        18.6843566745       20.8381183298       30.4622900313
  C        18.5736737212       16.9846401983       32.9171274745
  C        17.9284493089       18.7720951447       31.6229816744
  C        19.3062621154       19.0252887146       31.7826517007
  C        33.2252396119       26.0697879004       30.8526353553
  C        32.1515400206       29.1289990018       32.4345093654
  C        34.3554267224       26.6901332879       30.3882162336
  C        30.9989163067       28.5425993602       32.9126535551
  C        32.9211461187       28.2627511116       31.6996125944
  C        32.4045385332       26.9450866294       31.6064786346
  C        10.0099080952       16.5909755710       21.4897562927
  C        12.3471219334       21.1568226692       21.6499405224
  C        12.6988752355       18.2887381211       17.4976827578
  C        29.4905897177       22.7527151525       17.4657536173
  C        27.4310596623       18.1451298784       17.1930910780
  C        26.9865042361       20.8652066032       21.5054691102
  C        18.3464425255       15.5002074727       13.4046741423
  C        18.8096693693       12.5514885489        9.1246064061
  C        21.0507902936       17.1786695934        9.3263794385
  C        23.7618376134       12.9517498580        9.4833500700
  C        23.4390163251       15.7516657116       13.6272190144
  C        21.0738417696       11.2933101248       13.2154666796
  C        21.2631980340       23.5676777997       25.5215425759
  C        20.8440148053       26.6689993824       29.8115234801
  C        18.7150726185       27.8726018388       25.6218767430
  C        15.9670970961       26.1375685849       29.4673617863
  C        16.1927324908       23.5509521057       25.3053868089
  C        18.6675060173       22.0552493574       29.6450649877
  C        18.5379006262       15.7528922069       33.7121717700
  C        24.7963058382       28.9619505026       33.4716062063
  C        29.9022843035       28.9195068321       33.6884314858
  C        21.1399474807       23.4569353901        5.1895249574
  C        14.9317907729       10.2711088296        5.4958839671
  C         9.8230406883       10.0889809760        5.2227097741
  C        26.3425850422       17.6446468741       16.2786024379
  C        24.4466579886       16.3771023489       14.5420183117
  C        25.1467766806       18.2909157816       15.8596886339
  C        25.5863992439       15.6401664211       14.9381554719
  C        24.2330573807       17.6790051059       15.0070714660
  C        26.3969374386       16.3636490743       15.7681611488
  C        13.3940562156       21.8111578647       22.5366049659
  C        15.2209801751       22.9491805687       24.3601025814
  C        14.5683908334       22.4560872258       22.0790756052
  C        14.0820414629       22.2851719375       24.8310047520
  C        15.4616044701       23.0237326285       22.9847634640
  C        13.1912578612       21.7250313618       23.9249899766
  C        14.9651448777       18.4120776337       16.2283464991
  C        16.1030636366       15.3766783552       14.6180269659
  C        13.8083169099       17.7719607440       16.6751701042
  C        17.2400996025       16.0469921118       14.1877206519
  C        15.2673315882       16.2368673638       15.3597949345
  C        15.7875358101       17.5416857770       15.4785488010
  C        25.7151650039       21.3656601761       23.6904221242
  C        22.4761949557       22.9387934899       23.3582898265
  C        25.8498591750       21.3242821013       22.3045923587
  C        22.3583708025       22.9812964348       24.7355540381
  C        23.6953108934       22.3367413903       22.9752253328
  C        24.4853322245       21.9355954683       24.0715860390
  C         9.9892807015       15.2336025864       23.7185810439
  C        10.1555516127       11.7179480233       23.6343051597
  C        10.0597186063       15.3752825267       22.3313680546
  C        10.1015155091       11.5131952499       24.8395180492
  C        10.1159851655       12.9951390387       23.0118727603
  C        10.0370869503       13.8834016533       24.1151820684
  C        28.5110324238       24.6044262721       16.1569439561
  C        30.7466020008       26.9898751813       14.5944476983
  C        29.6316203003       23.8951773048       16.6730714990
  C        29.6504013952       27.6481485943       14.0820159914
  C        30.3428295643       25.8606778850       15.3516200886
  C        28.9305021699       25.7048826613       15.4194439310
  H        25.7379243190       14.6230765172       14.5745598138
  H        23.3417296184       18.2200002216       14.7006820349
  H         7.7793610597       15.7456977552       16.1344469902
  H        13.9036471314       22.2178609974       25.9026897668
  H        16.3510882708       23.5300234103       22.6174639510
  H        12.3062054974       21.1927068987       24.2684066382
  H        15.9178577814       14.3289970154       14.3917482707
  H        21.7178704223       23.3306696419       22.6851725475
  H        18.8189771390       28.5372462429       22.9556735594
  H        31.7845197802       27.2712849907       14.4405292724
  H        14.9510570824       10.1665406534        8.1936245381
  H        17.1008125103       11.6854161171        4.8030879444
  H        16.6543983554       11.1885404303        9.7264597246
  H        20.9886082282       22.9843811370        8.0675157870
  H         7.3559574502       11.4187540800        4.5537434386
  H        24.6253782969       26.3764791011       32.4921990994
  H        13.5739915922       12.7456430682       32.0950487055
  H        22.8610729642       25.4812295482       30.9232486488
  H        16.4970751509       17.2023428224       32.3234636607
  H        23.4707502734       12.5305695049       32.8241495625
  H        26.6721072849       20.5128390771       16.2144270659
  H        13.0746668625       23.0163513248       19.8555630629
  H        20.6402677635       12.3436660148        7.2084034706
  H        19.0745217225       28.3239322580       30.8445733683
  O        10.0601098604       19.5962437419       19.4179974305
  O        10.1409692684       16.2951858301       20.2160473471
  O        11.7139138587       20.2069762858       22.1307481676
  O        12.8327955570       19.4421164153       18.0110787033
  O         9.8229571261       17.6970047519       22.0112489146
  O        11.6994360671       17.4828084670       17.6381723388
  O        12.2267847036       21.6725610375       20.4620386584
  O        11.1680484886       22.1374151972       17.7540230383
  O        27.5804772294       19.4580919105       17.2055206306
  O        28.5556934068       22.1119173406       17.9877722781
  O        28.1093657051       17.3518873311       17.8390198272
  O        28.0521316602       20.5391444548       22.1071884532
  O        26.8116600886       20.8473048000       20.2252013919
  O        21.0946739573       14.1967463890       11.3835496271
  O        19.2941762265       16.3076211421       13.0944990929
  O        18.3631309743       12.7720518526       10.2986244198
  O        21.0791699553       16.0363898343        8.7486538751
  O        18.2862745481       14.2556470025       13.0999919906
  O        20.9935102010       17.3636031389       10.5985252599
  O        20.0392216942       12.7486596919        8.7819743040
  O        22.9402822183       13.4130579857        8.6929184344
  O        23.6403519796       14.5283561621       13.3248686318
  O        23.9721995432       12.6955631168       10.6833773677
  O        22.4761400241       16.4920670740       13.2524938093
  O        19.9216682432       11.5478300257       12.8687965670
  O        22.2631527769       11.6305862345       13.0998443102
  O        18.6387076299       25.0006281430       27.5924566927
  O        20.3040803803       24.0881584032       24.8662082234
  O        21.3079354340       25.7582538839       29.0526823824
  O        18.5748910082       28.2286752743       26.8067385477
  O        21.3811225631       23.5025741264       26.7993964346
  O        18.7531789106       26.8579522853       24.9429750934
  O        19.6062311440       27.0216459834       29.8357525116
  O        16.6764909964       27.1261013789       29.2213642535
  O        15.9632503948       23.3989801766       26.5586365167
  O        15.8041827514       24.9359002411       29.2531891711
  O        17.1917920235       24.1645013722       24.7946778868
  O        19.6753595095       22.8407593180       29.6657832862
  O        17.5812383555       22.2333025840       28.9826977470
  O        18.5817278926       12.7280722720       35.7562085737
  O        19.6498897676       15.2867704970       34.1145282727
  O        24.6960628778       30.1155467409       33.8905733697
  O        28.8788421771       28.2869594803       34.0447665985
  O        17.3420937571       15.2842550125       33.9130525492
  O        21.5153718793       12.5453848404       34.0158286409
  O        25.7383196992       28.0825680376       33.7594576872
  O        21.2088697169       23.3936484266        3.9535130333
  O        13.9191851657        9.6624992532        5.9483088105
  O        21.0775385987       24.5365455149        5.9508552712
  O        15.0217447413       10.3491371762        4.2325774718
  O         9.7125184543       10.2230956186        3.9710572342
  O        10.7740614216        9.5199295494        5.8310800447
  O        25.8178408466       20.8461596752       15.8062826615
  O        23.4488244188       20.3027130278       15.8025376008
  O        24.7869718064       19.9182817661       17.9028631917
  O        13.9250740985       23.5499138105       19.7512302622
  O        16.2865362940       23.3284808517       20.2984163976
  O        14.9587267762       21.2622171957       19.7541205004
  O        20.5921916825       12.3166986395        6.2090882899
  O        19.0554993926       13.0166369993        4.4626185593
  O        19.2930200631       14.4215018437        6.5317057390
  O        19.1852051972       29.2207218392       31.2746900495
  O        12.6043063267       13.1713535536       31.5728573024
  O        20.4661019574       29.7521404806       29.1345092077
  S        13.7424340022       16.0939880387       16.1679462158
  S        17.3038198969       17.7219892282       14.6777829958
  S        24.4610627226       21.9835269729       21.4680127883
  S        23.7128989317       22.2606766658       25.5807345550
  S        10.1549547028       13.8375014562       21.5040979964
  S        10.0132608299       13.0100021134       25.6564775634
  S        31.1676303769       24.6132800407       16.2147079106
  S        28.1433743927       26.9708083419       14.5159669848
  S        20.9946642357       19.9251807981        9.3140081375
  S        21.2320050024       20.7037871255        5.2040755585
  S         5.2142469559       12.4541030542        6.9687733661
  S         8.8585015914       10.5080940720        7.7783544691
  S        17.1682638328       19.9716934870       30.6361442809
  S        20.0995637284       17.8105531268       32.7159276578
  S        34.4461368333       28.3342492909       30.8352566706
  S        30.9016184670       26.8122036183       32.4461290537
  S        24.6767402793       19.9243035593       16.4568380820
  S        15.0506203107       22.5807720175       20.3475839851
  S        19.2356134169       13.1224066607        5.8892600899
  S        20.4882335558       29.9459412764       30.6047060468
 Zn        10.3205094992       17.8131718817       19.0131552468
 Zn        29.6103747038       19.4977005455       21.2689998855
 Zn        18.4095314322       26.8344780946       28.2532551667
 Zn        17.0727726099       23.8799987904       28.0707675352
 Zn        20.1498987458       13.4708575908       34.9011198964
 Zn        17.2912007729       13.6538394857       34.9726739890
 Zn        27.1563709647       28.6456520673       34.8998545847
 Zn        21.0282639088       26.3197656469        5.1771686475
 Zn        11.5076816167       20.6787538521       18.8533227623
 Zn        28.0757259099       20.3685034851       18.8460528259
 Zn        20.9455012512       16.0787537481       12.0625698280
 Zn        19.4153401583       13.2419614278       11.8869975960
 Zn        21.2305872427       14.2262554567        9.3935614588
 Zn        22.6964891870       13.3278101081       12.1087889341
 Zn        18.7397928235       24.9995191939       25.6093439694
 Zn        20.3170182077       24.1505739611       28.3465560734
  O        22.4809285124       22.8043157129       29.3057632811
  C        23.5133078895       23.7934956679       28.9670290018
  O        24.7835554303       22.9307202089       29.4308176234
  H        23.8086919413       24.1565925040       27.9751517865
  H        25.6447378100       23.4081745903       29.0978866831
  H        23.4054672418       24.3220614119       30.0328225087
  H        25.0249048139       23.1631869577       30.4013511228
     235
 i =      115, E =     -2903.5525108111
 Br        15.4572006067       20.2050195461       16.5242791966
 Br        26.9443955107       20.7519568480       24.9936169174
 Br         9.8711063786       16.6195623455       24.9877980683
 Br        26.7081679923       24.1452158411       16.4145429454
 Br        21.2830655840       17.1325257896        5.8330403327
 Br         6.9661060639       11.3520070204       10.8124687817
 Br        21.5315633109       20.7469109886       31.2075251486
 Br        32.7362096077       24.2376726062       30.5725154313
  C        17.8523978602       12.0016422551        8.1292038890
  C        15.9489839948       10.8668026330        6.4223488674
  C        17.9822425988       12.1405979422        6.7229088672
  C        15.8076529659       10.7230891000        7.8034605944
  C        17.0268771261       11.5740635176        5.8861547836
  C        16.7518954201       11.2928660002        8.6471488473
  C        21.1714071982       18.5183477618        7.1083138414
  C        21.0550437409       22.1222903770        7.4093250089
  C        21.0817744389       18.3754628942        8.4957571849
  C        21.1316061529       22.2346640483        6.0307345714
  C        21.0712866569       20.7668443244        7.8053938962
  C        21.1649381600       19.8746449241        6.7175042824
  C         6.4954678773       11.6835672734        9.0042927694
  C         7.5429025202       11.2679178958        5.6123955878
  C         5.3034328478       12.3578977080        8.6653450446
  C         8.7219971580       10.6391672050        6.0583694875
  C         6.7533559179       11.6390705502        6.6909164141
  C         7.3285855678       11.3135493614        7.9403403572
  C        21.7992216535       27.3208166945       30.7529223130
  C        23.7887108929       28.3571176169       32.5266459586
  C        21.7290591265       28.6788625732       31.1881050723
  C        23.8241789080       27.0114635773       32.1100528487
  C        22.7304157734       29.0548308666       32.0081610576
  C        22.8483585452       26.5256054117       31.2475106793
  C        19.7244899351       20.2038910564       31.1388936395
  C        17.5032910879       17.6031729467       32.2875480893
  C        18.6854636811       20.8364601357       30.4637724099
  C        18.5710459814       16.9874574862       32.9165031742
  C        17.9273807202       18.7720651341       31.6223976841
  C        19.3052120301       19.0241428030       31.7835371430
  C        33.2279998553       26.0716571307       30.8519975759
  C        32.1582479887       29.1344284445       32.4314830422
  C        34.3560634922       26.6903575834       30.3898060663
  C        31.0025611987       28.5578431517       32.9173339173
  C        32.9177492498       28.2679315196       31.7002135146
  C        32.4043812666       26.9462062336       31.6038580431
  C        10.0037126019       16.5926713064       21.4824455650
  C        12.3459229082       21.1525614013       21.6456143057
  C        12.6959488758       18.2892642422       17.5014919439
  C        29.4648867859       22.7674742342       17.4634856383
  C        27.4390001663       18.1438846765       17.1950918537
  C        26.9860570346       20.8657667744       21.5077444679
  C        18.3472998706       15.5012487537       13.4088429376
  C        18.8086993738       12.5494064409        9.1223018211
  C        21.0514856039       17.1779629219        9.3278580154
  C        23.7500038448       12.9593591215        9.4942514446
  C        23.4373078985       15.7533305488       13.6309157477
  C        21.0716419764       11.3088556605       13.2065572632
  C        21.2625951107       23.5658289541       25.5204090845
  C        20.8437178887       26.6660010840       29.8098092602
  C        18.7136699403       27.8518107306       25.6044109985
  C        15.9854961532       26.1297828176       29.4509446796
  C        16.1893374251       23.5473725809       25.3035020418
  C        18.6648166782       22.0555266711       29.6507603946
  C        18.5340346408       15.7576866056       33.7122899344
  C        24.7940768558       28.9654738187       33.4790853983
  C        29.9059701092       28.8895019434       33.6837006348
  C        21.1431456905       23.4612962100        5.1875498112
  C        14.9314396914       10.2719027419        5.4982983534
  C         9.8245591307       10.0816594104        5.2156080175
  C        26.3469656609       17.6456488109       16.2772589626
  C        24.4466888347       16.3781255488       14.5436297142
  C        25.1484470897       18.2931365204       15.8612712979
  C        25.5900084549       15.6417573510       14.9405253676
  C        24.2350674402       17.6797845179       15.0092215868
  C        26.3903953377       16.3726527303       15.7628380054
  C        13.3926303874       21.8133963828       22.5374712770
  C        15.2194723515       22.9486123462       24.3596976473
  C        14.5670557264       22.4562394191       22.0784520205
  C        14.0798532174       22.2852822667       24.8312167054
  C        15.4613997493       23.0230200374       22.9841360156
  C        13.1883120081       21.7269371408       23.9253698512
  C        14.9635075823       18.4131765951       16.2285614809
  C        16.1030029562       15.3776446723       14.6185229192
  C        13.8063480149       17.7730846983       16.6742725099
  C        17.2410456574       16.0483128686       14.1886126977
  C        15.2663045722       16.2367206830       15.3603683539
  C        15.7861868804       17.5416854446       15.4795938514
  C        25.7120792516       21.3658143579       23.6889983429
  C        22.4751293427       22.9402049510       23.3596023426
  C        25.8462379948       21.3234637251       22.3028781728
  C        22.3589179704       22.9814654469       24.7370279228
  C        23.6935599447       22.3383825469       22.9761819051
  C        24.4836116307       21.9366600060       24.0722130505
  C         9.9915344570       15.2329538627       23.7145144025
  C        10.1552528031       11.7362425841       23.6565612768
  C        10.0624746064       15.3748970788       22.3273777720
  C        10.1017272595       11.4980782914       24.8425239748
  C        10.1153787934       12.9979822109       23.0057731183
  C        10.0371796652       13.8835448688       24.1121596521
  C        28.5116917664       24.6072795794       16.1531601791
  C        30.7443337806       26.9915076417       14.5927832370
  C        29.6365446013       23.8903256096       16.6758000115
  C        29.6492209060       27.6511027219       14.0778205554
  C        30.3441812077       25.8611506425       15.3516683838
  C        28.9286236683       25.7048582969       15.4205356059
  H        25.7404444706       14.6232274882       14.5784336908
  H        23.3425859666       18.2174913346       14.7014395707
  H         7.7827751945       15.7484423445       16.1383506011
  H        13.9020792467       22.2163121989       25.9028203045
  H        16.3499929128       23.5292446009       22.6145838882
  H        12.3042282916       21.1924640268       24.2676059783
  H        15.9173547305       14.3299437419       14.3921678781
  H        21.7165758007       23.3311112627       22.6863027253
  H        18.8162485009       28.5632735600       23.0092493680
  H        31.7838066987       27.2694935564       14.4424738830
  H        14.9528454915       10.1676541933        8.1927170567
  H        17.1006724126       11.6852652895        4.8043767095
  H        16.6559137126       11.1897458077        9.7262869077
  H        20.9883620790       22.9836686524        8.0683039219
  H         7.3551725206       11.4159145275        4.5533839884
  H        24.6267254390       26.3766158523       32.4935000374
  H        13.3295862234       12.8528526325       31.9621239361
  H        22.8574129154       25.4860942541       30.9279722737
  H        16.4942617399       17.2027725630       32.3218736674
  H        23.3644477630       12.5557167894       32.8956109607
  H        26.6699885540       20.5048824407       16.2167048240
  H        13.0747080191       23.0145090294       19.8542830839
  H        20.6408680189       12.3395110618        7.2034687828
  H        19.0807297435       28.3235844589       30.8551191439
  O        10.0625685458       19.6028731058       19.4081223374
  O        10.1382323606       16.2754358258       20.2065799795
  O        11.7156079188       20.2049495344       22.1170070652
  O        12.8294653509       19.4361246794       18.0257779363
  O         9.8208068302       17.7016510861       21.9809989938
  O        11.6969465441       17.4801107329       17.6371240715
  O        12.2388726219       21.6812208597       20.4568272651
  O        11.1652038778       22.1277185388       17.7545196628
  O        27.5859896001       19.4654389133       17.2054440033
  O        28.5735669876       22.0889651940       18.0010276380
  O        28.1092719986       17.3603734629       17.8444460599
  O        28.0478418295       20.5405341611       22.1123314672
  O        26.8130337234       20.8485966628       20.2244728676
  O        21.1028602451       14.1825972190       11.3881447482
  O        19.2974298872       16.3055476482       13.0963091070
  O        18.3636193875       12.7699367472       10.2981006178
  O        21.0823022362       16.0349868465        8.7492561325
  O        18.2864622533       14.2557035472       13.1023574592
  O        20.9909183920       17.3596151282       10.6006052508
  O        20.0388126602       12.7491306176        8.7782382673
  O        22.9462336459       13.4057741209        8.6961825043
  O        23.6383574313       14.5284074888       13.3312243001
  O        23.9845935595       12.6880844856       10.6780818274
  O        22.4775413644       16.4935277521       13.2511316460
  O        19.9241694255       11.5407997349       12.8712426238
  O        22.2612633485       11.6141869327       13.1020061433
  O        18.6318362449       25.0156627707       27.5978594919
  O        20.3044920184       24.0869600863       24.8634006572
  O        21.3076733965       25.7553984097       29.0493523734
  O        18.5703502613       28.2491368485       26.7693584741
  O        21.3780091839       23.5003608356       26.7981498830
  O        18.7519667762       26.8401251947       24.9431941230
  O        19.6047868056       27.0198475197       29.8345040227
  O        16.6619670266       27.1301972026       29.2144599994
  O        15.9609831270       23.3984152053       26.5599710466
  O        15.8022073895       24.9375609758       29.2614689212
  O        17.1888419340       24.1629183276       24.7928759153
  O        19.6695793608       22.8450843604       29.6668981752
  O        17.5777704723       22.2311410577       28.9869103756
  O        18.5948484602       12.7262781210       35.7727604714
  O        19.6346375124       15.2855631932       34.1315501926
  O        24.7314987115       30.1119868986       33.9052302351
  O        28.8761942845       28.2926772283       34.0651298398
  O        17.3306774240       15.2906028967       33.9030059955
  O        21.5754285157       12.5338113418       33.9954701682
  O        25.7253360563       28.0601255910       33.7701864164
  O        21.2152914557       23.4241964693        3.9581068514
  O        13.9205032198        9.6646074321        5.9492859372
  O        21.0779090642       24.5356823584        5.9757426340
  O        15.0192794703       10.3447577408        4.2369616303
  O         9.7159179047       10.2237325024        3.9664037003
  O        10.7755688089        9.5125021706        5.8160159348
  O        25.8159276028       20.8442010461       15.8097750969
  O        23.4454702633       20.3032588322       15.8064157781
  O        24.7858663075       19.9139109747       17.9055590615
  O        13.9266578370       23.5495087389       19.7507876905
  O        16.2865506928       23.3246735152       20.2983676349
  O        14.9581807355       21.2593102584       19.7537435242
  O        20.5967315165       12.3180488450        6.2047189226
  O        19.0584644973       13.0187938305        4.4605112700
  O        19.2943952400       14.4222219113        6.5302430408
  O        19.1809797341       29.2220445290       31.2818539891
  O        12.8543063267       13.0601650395       31.7121422421
  O        20.4616121193       29.7560678114       29.1253316604
  S        13.7405634070       16.0945589113       16.1683994604
  S        17.3022754004       17.7236732305       14.6788004310
  S        24.4569838155       21.9834490357       21.4684845386
  S        23.7129679116       22.2601746146       25.5827654392
  S        10.1550402922       13.8386739152       21.4984379823
  S        10.0134171227       12.9904312315       25.6561086787
  S        31.1717750899       24.6130455685       16.2130080836
  S        28.1506597456       26.9808955724       14.5114081763
  S        20.9940050897       19.9256721665        9.3136659613
  S        21.2315985442       20.7024696952        5.2032146020
  S         5.2061509967       12.4544531936        6.9876342004
  S         8.8628843000       10.5130059039        7.7729391743
  S        17.1681483000       19.9713800127       30.6354036829
  S        20.0989034723       17.8095179179       32.7165517242
  S        34.4503104458       28.3237943248       30.8303375998
  S        30.9033284224       26.8137147537       32.4464956139
  S        24.6735160135       19.9245561065       16.4599966404
  S        15.0488423362       22.5786656135       20.3457546554
  S        19.2385805836       13.1235583983        5.8865765593
  S        20.4838801598       29.9536602666       30.6017529989
 Zn        10.3629497096       17.8344113470       19.0644798827
 Zn        29.6051904738       19.4978441775       21.2028073019
 Zn        18.4200333425       26.8569987532       28.2442709831
 Zn        17.0766608577       23.8679504036       28.0628304685
 Zn        20.1548386716       13.4006235106       34.8326050445
 Zn        17.3743098283       13.6691962399       34.9695389364
 Zn        27.1313971467       28.6653877201       34.8791888952
 Zn        21.0338566013       26.2971711666        5.1573453755
 Zn        11.4876278661       20.6941787743       18.8570488078
 Zn        28.0796173108       20.3287883858       18.8610355934
 Zn        20.9456521079       16.0753856935       12.0601569708
 Zn        19.4040729486       13.2478373076       11.8807437848
 Zn        21.2118724940       14.2275549187        9.3889582617
 Zn        22.7060094060       13.3306999797       12.1165698126
 Zn        18.7342711294       24.9737144798       25.6104433165
 Zn        20.3165896178       24.1458008250       28.3430667285
  O        22.4530816654       22.7799934936       29.2793279735
  C        23.4965603677       23.8133914626       28.9840001602
  O        24.8174006029       22.8965113228       29.4213545329
  H        23.8170243237       24.1493557553       27.9848498285
  H        25.6794159978       23.3633253244       29.0814595465
  H        23.3739535578       24.4526595597       30.0469266563
  H        25.0543553529       23.1278713771       30.3829494218
     235
 i =      116, E =     -2904.0824201128
 Br        15.4540516872       20.2071572414       16.5272170306
 Br        26.9406462311       20.7540577903       24.9906070234
 Br         9.8712964744       16.6206307373       24.9850872446
 Br        26.7182452018       24.1367062553       16.4201501666
 Br        21.2827758607       17.1327396057        5.8332729297
 Br         6.9595589333       11.3478623507       10.8236790935
 Br        21.5321774403       20.7478710593       31.2090729122
 Br        32.7385224094       24.2350211721       30.5697104825
  C        17.8554407966       12.0023583388        8.1270725797
  C        15.9413017994       10.8621550408        6.4124944492
  C        17.9833144276       12.1406952102        6.7193463205
  C        15.8085522474       10.7237950014        7.7950677950
  C        17.0242496664       11.5716304682        5.8875040138
  C        16.7522338807       11.2932160367        8.6399137622
  C        21.1721679331       18.5157338163        7.1111937968
  C        21.0541043816       22.1224570746        7.4048688766
  C        21.0827143021       18.3745842724        8.4992139719
  C        21.1330350480       22.2254219559        6.0250965329
  C        21.0712597925       20.7673884506        7.8039811435
  C        21.1643568288       19.8714225362        6.7190663165
  C         6.4973817357       11.6857395821        9.0139674589
  C         7.5446491390       11.2733908614        5.6142468685
  C         5.3077772078       12.3657956876        8.6586455881
  C         8.7247594744       10.6365742061        6.0552109849
  C         6.7490876793       11.6329073448        6.6910755966
  C         7.3229010373       11.3183638560        7.9461108745
  C        21.7993464580       27.3175837556       30.7548114274
  C        23.7636572367       28.3716924302       32.5201943737
  C        21.7502258755       28.6757425778       31.1919484552
  C        23.8267447272       27.0200492888       32.1161571106
  C        22.7251175393       29.0864589839       32.0126154655
  C        22.8486234716       26.5316704385       31.2578774689
  C        19.7294946551       20.2019227980       31.1410451186
  C        17.4985927986       17.6044332866       32.2852338603
  C        18.6875509407       20.8331923245       30.4669864357
  C        18.5694045376       16.9949688589       32.9157677627
  C        17.9246215232       18.7718198869       31.6206712837
  C        19.3020505860       19.0242507458       31.7827343630
  C        33.2283213496       26.0720137142       30.8547899514
  C        32.1596583510       29.1433757222       32.4311013433
  C        34.3553609706       26.6935494532       30.3907977705
  C        31.0047662153       28.5623393164       32.9248107243
  C        32.9145607609       28.2709978487       31.7036182155
  C        32.4015746022       26.9460948078       31.5996170483
  C         9.9953900837       16.5841366116       21.4761809573
  C        12.3539862503       21.1523696395       21.6418673655
  C        12.6981041406       18.2881302591       17.5066736582
  C        29.4618676094       22.7685407770       17.4704633883
  C        27.4361160202       18.1421885261       17.1861929158
  C        26.9890516152       20.8637895062       21.5075759160
  C        18.3460852663       15.5002097340       13.4123644044
  C        18.8086706678       12.5487886319        9.1192896978
  C        21.0515771821       17.1770346514        9.3294871818
  C        23.7634794958       12.9452885193        9.4832587916
  C        23.4315000081       15.7558052932       13.6354709732
  C        21.0669377109       11.2883659731       13.2142746901
  C        21.2624392330       23.5632114578       25.5151782198
  C        20.8417356966       26.6659201607       29.8118718887
  C        18.7047777387       27.8614005303       25.5641624295
  C        15.9698819161       26.1352616398       29.4527757894
  C        16.1835745390       23.5409858280       25.2998423134
  C        18.6602322246       22.0565733973       29.6619090501
  C        18.5327092841       15.7656728665       33.7084496057
  C        24.7891415959       28.9501498151       33.4794850140
  C        29.9107656991       28.8724622087       33.6776720859
  C        21.1475019465       23.4679368910        5.2030211701
  C        14.9182984802       10.2671501425        5.4936290323
  C         9.8209415547       10.0722079005        5.2036444951
  C        26.3439548107       17.6215188210       16.2696755191
  C        24.4425748623       16.3822201903       14.5462708332
  C        25.1547008495       18.2974222543       15.8649150953
  C        25.5948517031       15.6620157005       14.9486710052
  C        24.2393407065       17.6841262272       15.0131617409
  C        26.4197653027       16.3544391679       15.7635957661
  C        13.3979581879       21.8129523277       22.5418143110
  C        15.2152185370       22.9454643921       24.3579982195
  C        14.5649346626       22.4610042605       22.0763619401
  C        14.0743208365       22.2855423717       24.8321698024
  C        15.4607508785       23.0235349702       22.9827122547
  C        13.1826406836       21.7274831986       23.9271286301
  C        14.9620820319       18.4152607218       16.2274441732
  C        16.1032203516       15.3796259336       14.6192878194
  C        13.8066838169       17.7734187374       16.6714089207
  C        17.2431617989       16.0498174494       14.1910068598
  C        15.2645839005       16.2370826497       15.3605626209
  C        15.7852758263       17.5418596384       15.4810170204
  C        25.7070235324       21.3658825629       23.6870897126
  C        22.4742017891       22.9418130842       23.3598769780
  C        25.8480523246       21.3235231394       22.3014119044
  C        22.3603923351       22.9796301752       24.7375211962
  C        23.6915241564       22.3402100288       22.9765384200
  C        24.4797258996       21.9376385623       24.0735890679
  C         9.9951777269       15.2351415753       23.7134753547
  C        10.1551515502       11.7476708932       23.6356497399
  C        10.0603880342       15.3697588824       22.3273186284
  C        10.1026666890       11.4786843487       24.8520382674
  C        10.1164156074       13.0037404493       23.0131916452
  C        10.0363595698       13.8879172145       24.1181392522
  C        28.5134683859       24.6129466623       16.1494168834
  C        30.7412353720       26.9848179686       14.5946892276
  C        29.6308527311       23.8762328561       16.6866025813
  C        29.6506869706       27.6572183869       14.0744418172
  C        30.3443577009       25.8572583691       15.3552858879
  C        28.9252203213       25.7080868091       15.4188178170
  H        25.7448811783       14.6406956483       14.5917975315
  H        23.3437224016       18.2151928869       14.7035254451
  H         7.7861101089       15.7511731194       16.1421474234
  H        13.9007011415       22.2142757845       25.9042325968
  H        16.3498699297       23.5273963719       22.6112425472
  H        12.2997336936       21.1913910156       24.2691142709
  H        15.9171765233       14.3320470859       14.3930405365
  H        21.7137847668       23.3324855551       22.6887324999
  H        18.8132492715       28.5936548039       23.0781583142
  H        31.7780041879       27.2711838179       14.4417283514
  H        14.9569192078       10.1703938392        8.1915818560
  H        17.1024720983       11.6860837710        4.8074554835
  H        16.6586466468       11.1924922892        9.7201522185
  H        20.9880826934       22.9824888215        8.0666862953
  H         7.3527297481       11.4121286040        4.5545111365
  H        24.6256673597       26.3735734071       32.4914825541
  H        13.5681644653       12.7464374894       32.0829424598
  H        22.8542015159       25.4933298096       30.9402436935
  H        16.4898818327       17.2026177091       32.3205095147
  H        23.2106046174       12.5920191781       32.9958819488
  H        26.6643578045       20.4977240125       16.2212202569
  H        13.0769769144       23.0123604117       19.8543069825
  H        20.6454206064       12.3338077131        7.1999283686
  H        19.0955852558       28.3297744296       30.8672131665
  O        10.0644310196       19.6088779912       19.4092716366
  O        10.1512987346       16.2624659465       20.2007724703
  O        11.7129168720       20.2115548476       22.1040979874
  O        12.8310275007       19.4306786582       18.0382295751
  O         9.8254802965       17.7061917878       21.9471789256
  O        11.6993031644       17.4787030264       17.6436914130
  O        12.2462981335       21.6911195828       20.4547343705
  O        11.1610061944       22.1313559722       17.7463090191
  O        27.5851837884       19.4686488015       17.2062235627
  O        28.5956655049       22.0748815566       17.9919913210
  O        28.1035393966       17.3645404722       17.8403376609
  O        28.0461092556       20.5360650153       22.1177623573
  O        26.8021062885       20.8495046434       20.2228174330
  O        21.1018901141       14.1669531826       11.3893576989
  O        19.2961161691       16.3020528218       13.0930277104
  O        18.3615183007       12.7744572302       10.2937897823
  O        21.0771408120       16.0384659033        8.7401153057
  O        18.2768660355       14.2547156720       13.0988267186
  O        20.9945918227       17.3606357522       10.6018145322
  O        20.0390032526       12.7501571543        8.7727862600
  O        22.9493297509       13.3976805817        8.7169811065
  O        23.6400252747       14.5308888299       13.3345668808
  O        23.9843827025       12.7042666836       10.6585355589
  O        22.4728654891       16.4885204190       13.2412162243
  O        19.9403530423       11.5414096327       12.8679809499
  O        22.2374230385       11.6014559075       13.0945092830
  O        18.6339019053       25.0312901382       27.6044816142
  O        20.3054960994       24.0906241723       24.8579927436
  O        21.3004002860       25.7550820904       29.0514862959
  O        18.5802389146       28.2581785609       26.7199841167
  O        21.3797672645       23.4971666391       26.7893304661
  O        18.7562477517       26.8217699249       24.9538628111
  O        19.6036283848       27.0305371398       29.8363554332
  O        16.6433989373       27.1128903325       29.2024213193
  O        15.9519401425       23.3992170115       26.5578755973
  O        15.8165242811       24.9537025060       29.2729627912
  O        17.1796866571       24.1613490684       24.7887949600
  O        19.6613894377       22.8482277561       29.6774246712
  O        17.5810534777       22.2306838948       28.9800445299
  O        18.6306904483       12.7095806749       35.7854698423
  O        19.6183205767       15.2746448288       34.1430376539
  O        24.7700431114       30.0974990305       33.9094548479
  O        28.8914538041       28.2889032985       34.0802723606
  O        17.3307708506       15.2914021074       33.9021124667
  O        21.6608214789       12.5177894852       33.9589979594
  O        25.7130807786       28.0390049091       33.7896090443
  O        21.2242850251       23.4511404639        3.9750730707
  O        13.9236745242        9.6672678903        5.9824000773
  O        21.0722869000       24.5431870611        5.9961279056
  O        15.0523727109       10.3587478296        4.2430392108
  O         9.7175869111       10.2304421804        3.9553840085
  O        10.7787442055        9.5124820487        5.7979642965
  O        25.8139966756       20.8438886334       15.8071399090
  O        23.4411477846       20.3078646359       15.8068646491
  O        24.7902713309       19.9124481215       17.9041592230
  O        13.9295402844       23.5493624662       19.7537579773
  O        16.2873540550       23.3241421067       20.2934488007
  O        14.9607128134       21.2545645242       19.7571777711
  O        20.6007430323       12.3141772238        6.2026339590
  O        19.0511617048       13.0125375523        4.4601264006
  O        19.2882198800       14.4211727025        6.5295957805
  O        19.1650503696       29.2312197045       31.2936989671
  O        12.6244455031       13.1671836675       31.5930618295
  O        20.4462300189       29.7628543928       29.1153147559
  S        13.7378424028       16.0940103093       16.1678730623
  S        17.3008958534       17.7261754219       14.6802239408
  S        24.4558667129       21.9812589506       21.4703262206
  S        23.7133829129       22.2607817166       25.5866893247
  S        10.1559473183       13.8322569933       21.5028151732
  S        10.0122101168       12.9773718039       25.6610937074
  S        31.1666454120       24.6032061247       16.2180765296
  S        28.1571210055       26.9935360376       14.5025901679
  S        20.9932864588       19.9277254841        9.3134150679
  S        21.2309298640       20.6912002758        5.2001793229
  S         5.1957404256       12.4540111840        6.9920311287
  S         8.8609534726       10.5232932516        7.7671055085
  S        17.1670144608       19.9713068178       30.6340699376
  S        20.0990438729       17.8128091242       32.7162637978
  S        34.4537858608       28.3194507279       30.8278486437
  S        30.9032887347       26.8066988772       32.4432518859
  S        24.6698365652       19.9286630499       16.4596689617
  S        15.0504826480       22.5764777853       20.3436334052
  S        19.2435550472       13.1234139048        5.8832307970
  S        20.4814108677       29.9246920857       30.5962081055
 Zn        10.3916793538       17.8443712000       19.1024816722
 Zn        29.5970993275       19.5040079338       21.1229840158
 Zn        18.4398236479       26.8796548948       28.2339532546
 Zn        17.0850810801       23.8552056092       28.0472009975
 Zn        20.1867881331       13.3344860792       34.7703594514
 Zn        17.4453201268       13.6929158733       34.9689012597
 Zn        27.1215979764       28.6765809600       34.8648051895
 Zn        21.0389244391       26.2782757115        5.1243328919
 Zn        11.4721882657       20.7117369964       18.8561451210
 Zn        28.0913271020       20.2973410458       18.8851329685
 Zn        20.9386603455       16.0721184770       12.0509288765
 Zn        19.3886096622       13.2597484918       11.8735457848
 Zn        21.1856233306       14.2385206144        9.3865577429
 Zn        22.7092188823       13.3401392598       12.1223971941
 Zn        18.7272090811       24.9374345299       25.6125021919
 Zn        20.3313106433       24.1282481042       28.3426413103
  O        22.4142894963       22.9395596662       29.2589977471
  C        23.5035816663       23.7387272198       28.9942271059
  O        24.8950615243       22.9468909629       29.4466790065
  H        23.8018197711       24.1263457575       28.0165392111
  H        25.7098004599       23.3164222257       28.9984175706
  H        23.3951473617       24.4482261359       30.0220044521
  H        25.0073279681       23.0650175488       30.3988289795
     235
 i =      117, E =     -2904.1963911674
 Br        15.4506092945       20.2078352517       16.5296997737
 Br        26.9393576185       20.7547775972       24.9913262749
 Br         9.8715988260       16.6242810857       24.9819240654
 Br        26.7185008689       24.1278579764       16.4252352575
 Br        21.2825957563       17.1316861809        5.8332995720
 Br         6.9491008291       11.3423550488       10.8271352515
 Br        21.5312258868       20.7479183988       31.2101237742
 Br        32.7410002314       24.2331523181       30.5673645296
  C        17.8567856950       12.0013827097        8.1259027342
  C        15.9421547557       10.8647329642        6.4139303900
  C        17.9844972791       12.1369370017        6.7170962764
  C        15.8084981219       10.7238790789        7.7964468444
  C        17.0249251286       11.5720161210        5.8832178609
  C        16.7530480049       11.2934913446        8.6397966017
  C        21.1725292808       18.5140323920        7.1116750258
  C        21.0538173292       22.1185670832        7.4037640910
  C        21.0836760583       18.3759598669        8.5005572683
  C        21.1345764590       22.2234637882        6.0238317928
  C        21.0704295187       20.7637894901        7.8043140619
  C        21.1641610452       19.8691087539        6.7184869261
  C         6.4969354952       11.6842080058        9.0158969728
  C         7.5431422481       11.2741451304        5.6138776959
  C         5.3134792917       12.3826215189        8.6580438620
  C         8.7241114517       10.6336152259        6.0540726349
  C         6.7438531842       11.6216434793        6.6906336862
  C         7.3264736930       11.3265413506        7.9485821635
  C        21.7986197439       27.3200580065       30.7576529388
  C        23.7586105683       28.3788807554       32.5224725503
  C        21.7466702891       28.6803212168       31.1887720268
  C        23.8200661563       27.0253908137       32.1181589987
  C        22.7215881752       29.0907396721       32.0102133501
  C        22.8442881196       26.5313724584       31.2610318382
  C        19.7298754983       20.2038823323       31.1406735438
  C        17.4987087723       17.6052098323       32.2852707214
  C        18.6858811568       20.8362954388       30.4697691929
  C        18.5684196536       16.9938362882       32.9172584945
  C        17.9238732317       18.7718538001       31.6195442809
  C        19.3011689915       19.0258821823       31.7802918947
  C        33.2263146519       26.0731302560       30.8550879057
  C        32.1644858435       29.1536406075       32.4295888456
  C        34.3540272750       26.6972532812       30.3935304925
  C        31.0107438860       28.5660434361       32.9263398085
  C        32.9118898327       28.2738908725       31.7055586140
  C        32.4001262762       26.9456001441       31.5997125620
  C        10.0038977896       16.5811366535       21.4725728227
  C        12.3522027279       21.1559021317       21.6375943655
  C        12.6990765191       18.2901806139       17.5136936254
  C        29.4387567654       22.7783893243       17.4633930952
  C        27.4380018927       18.1415484780       17.1886037057
  C        26.9888140747       20.8621854783       21.5115994272
  C        18.3422045812       15.5007176077       13.4110632723
  C        18.8070160414       12.5498428175        9.1153758488
  C        21.0514993482       17.1787608137        9.3302725434
  C        23.7547560949       12.9493985231        9.4915830731
  C        23.4342688681       15.7589571077       13.6356475458
  C        21.0661552389       11.2964294966       13.2024136792
  C        21.2644872490       23.5637176292       25.5111702561
  C        20.8415883291       26.6665659822       29.8149601467
  C        18.7007270177       27.8502487498       25.5284355692
  C        15.9904682687       26.1292277394       29.4309229742
  C        16.1758714468       23.5432662583       25.2974974541
  C        18.6620575507       22.0550672991       29.6606664269
  C        18.5265522990       15.7669654975       33.7122901950
  C        24.7929650887       28.9419224406       33.4876447405
  C        29.9165909768       28.8482230360       33.6726058002
  C        21.1494640433       23.4731698335        5.2102504327
  C        14.9206893678       10.2650382266        5.4934710148
  C         9.8220088604       10.0707054639        5.1986935413
  C        26.3466494510       17.6230549988       16.2638719356
  C        24.4419951466       16.3825325243       14.5500429609
  C        25.1524567182       18.2973182485       15.8649696039
  C        25.5969857723       15.6641989613       14.9495304457
  C        24.2369305591       17.6849430306       15.0126284791
  C        26.4254512140       16.3556182251       15.7614407527
  C        13.3991331344       21.8118588939       22.5412773031
  C        15.2129572582       22.9416494883       24.3578216741
  C        14.5652352802       22.4601986380       22.0760525677
  C        14.0692597972       22.2854005286       24.8321636427
  C        15.4591812602       23.0252587350       22.9822742495
  C        13.1791415442       21.7268797288       23.9259492106
  C        14.9594277610       18.4163123536       16.2273573993
  C        16.1026567516       15.3808790462       14.6207260289
  C        13.8046034908       17.7754075663       16.6710590529
  C        17.2446040055       16.0503553222       14.1944306503
  C        15.2639797967       16.2385366767       15.3612498752
  C        15.7841056173       17.5437717109       15.4812623117
  C        25.7049248093       21.3659371841       23.6880772935
  C        22.4739589120       22.9420576650       23.3588861483
  C        25.8452123574       21.3251967769       22.3021316509
  C        22.3602070136       22.9787803853       24.7361663984
  C        23.6905565700       22.3405355777       22.9756443985
  C        24.4776242270       21.9379043230       24.0735951953
  C         9.9948997813       15.2351078309       23.7148108890
  C        10.1544490741       11.7492250995       23.6369940209
  C        10.0536584982       15.3697374260       22.3292990802
  C        10.1042450198       11.4715666511       24.8522531120
  C        10.1166145496       12.9980635682       23.0145975357
  C        10.0381343559       13.8871020525       24.1163068608
  C        28.5091010619       24.6140148520       16.1501588509
  C        30.7426274584       26.9798730108       14.5955811501
  C        29.6369896789       23.8775205594       16.6867234164
  C        29.6519196206       27.6595253799       14.0755293708
  C        30.3438717397       25.8559711597       15.3560431272
  C        28.9223304046       25.7045099979       15.4204431804
  H        25.7481476559       14.6419344537       14.5959054597
  H        23.3419659484       18.2187333522       14.7063013088
  H         7.7894856197       15.7539338122       16.1459627133
  H        13.8990192619       22.2128662189       25.9050030019
  H        16.3500298138       23.5258639251       22.6097142615
  H        12.2960017643       21.1910151783       24.2684602078
  H        15.9173082607       14.3333809693       14.3935366774
  H        21.7113125571       23.3339481861       22.6912055310
  H        18.8087465087       28.6238679409       23.1679370597
  H        31.7779488153       27.2708880198       14.4415528299
  H        14.9565177004       10.1702345127        8.1919104824
  H        17.1038198315       11.6869574350        4.8033408356
  H        16.6596804289       11.1937682451        9.7201332427
  H        20.9879364696       22.9812677543        8.0622918518
  H         7.3491697729       11.4097655077        4.5542556804
  H        24.6223459761       26.3820500481       32.4916073095
  H        13.5738480837       12.7445256308       32.0849470550
  H        22.8565856161       25.4910988109       30.9513091016
  H        16.4892969981       17.2038437350       32.3189770511
  H        22.9606046174       12.6317305653       33.1524451024
  H        26.6610269193       20.4916999948       16.2254425789
  H        13.0792008157       23.0097888770       19.8558911967
  H        20.6486822746       12.3287358028        7.1958840283
  H        19.0985936736       28.3243352924       30.8793490658
  O        10.0629235336       19.6134579257       19.4089167549
  O        10.1490822852       16.2636993855       20.1934835443
  O        11.7108006768       20.2082424694       22.0808119976
  O        12.8345304983       19.4292039294       18.0514620331
  O         9.8217137037       17.7095421804       21.9218129221
  O        11.7045246968       17.4762774271       17.6527572236
  O        12.2396474661       21.6952365441       20.4502272204
  O        11.1602052812       22.1356083977       17.7362916180
  O        27.5887005889       19.4720981437       17.2054614275
  O        28.6063621635       22.0669085553       18.0017908902
  O        28.1068273665       17.3669426192       17.8439453392
  O        28.0439095327       20.5331568692       22.1228707756
  O        26.8106961558       20.8476053326       20.2224481521
  O        21.1058544632       14.1637375327       11.3932416294
  O        19.2971396129       16.2972098741       13.0937488374
  O        18.3638241358       12.7758890328       10.2923576481
  O        21.0781177971       16.0381485394        8.7428897285
  O        18.2777300810       14.2526592587       13.1006320385
  O        20.9939244652       17.3565522119       10.6032285359
  O        20.0385144006       12.7502529987        8.7685566012
  O        22.9478906791       13.4004908075        8.7177997306
  O        23.6412423199       14.5310828751       13.3394377408
  O        24.0049614912       12.6898710730       10.6594813276
  O        22.4734847929       16.4901944872       13.2468287933
  O        19.9310211769       11.5347365836       12.8705712210
  O        22.2414630900       11.5939901239       13.1009236891
  O        18.6338420021       25.0361957615       27.6139461552
  O        20.3041699512       24.0879666372       24.8544650879
  O        21.2982773862       25.7573092037       29.0544161403
  O        18.5825843529       28.2899485756       26.6769721639
  O        21.3771730376       23.4894253855       26.7827080727
  O        18.7553669360       26.7912394629       24.9479901202
  O        19.6029313993       27.0381543033       29.8338431709
  O        16.6430636719       27.1267044971       29.2054709968
  O        15.9541804989       23.3967011214       26.5579393844
  O        15.8039379357       24.9430892462       29.2901372306
  O        17.1775866391       24.1581684912       24.7911632948
  O        19.6589957305       22.8492268836       29.6813232666
  O        17.5749095806       22.2303011803       28.9870850185
  O        18.6743226799       12.7007486620       35.7780052896
  O        19.6017797451       15.2655128204       34.1589836058
  O        24.7964285200       30.0873628656       33.9201517187
  O        28.8989454868       28.2886305728       34.1022119824
  O        17.3212949766       15.2881846409       33.8962194000
  O        21.7945931378       12.5124663309       33.8877126274
  O        25.7136132478       28.0199224547       33.7888954245
  O        21.2270059298       23.4853803503        3.9815306505
  O        13.9230880598        9.6697268096        5.9819228527
  O        21.0718505693       24.5504679500        6.0029939845
  O        15.0447705630       10.3675838739        4.2426255087
  O         9.7174480041       10.2352570591        3.9510780563
  O        10.7722251483        9.5063459242        5.7994824437
  O        25.8124432382       20.8450923306       15.8088107300
  O        23.4397392865       20.3050443038       15.8072994372
  O        24.7885322960       19.9139872428       17.9049173078
  O        13.9323501502       23.5479557061       19.7508983681
  O        16.2887800642       23.3223473972       20.2944921852
  O        14.9612322334       21.2519039877       19.7590865737
  O        20.6028105857       12.3167476650        6.1992309292
  O        19.0582230422       13.0147976498        4.4559540407
  O        19.2922149882       14.4208227634        6.5267754379
  O        19.1594072873       29.2329099205       31.2913223760
  O        12.6235089183       13.1700916788       31.6033647466
  O        20.4449910630       29.7518358996       29.1155065015
  S        13.7358986487       16.0959330171       16.1674322217
  S        17.3004613382       17.7279322098       14.6820551603
  S        24.4533652807       21.9808911246       21.4688063455
  S        23.7125697234       22.2619077195       25.5870973095
  S        10.1561288112       13.8310380173       21.5087583117
  S        10.0116479743       12.9702757195       25.6621499272
  S        31.1760075491       24.6049310009       16.2176655543
  S        28.1630531702       26.9986903395       14.4983675316
  S        20.9929277891       19.9289399337        9.3166293786
  S        21.2304650443       20.6887851381        5.1988881849
  S         5.1864855013       12.4492109080        6.9996054074
  S         8.8671294746       10.5333795863        7.7638120803
  S        17.1667176096       19.9708679016       30.6331677315
  S        20.0954808935       17.8151289346       32.7165075689
  S        34.4576262174       28.3175397385       30.8256134317
  S        30.9026095537       26.7975302103       32.4394317610
  S        24.6693166336       19.9287336379       16.4607026350
  S        15.0508850963       22.5754642920       20.3422610405
  S        19.2427448545       13.1232823229        5.8800041586
  S        20.4774726980       29.9399574335       30.5970311978
 Zn        10.4188054596       17.8557887611       19.1311957641
 Zn        29.5835122266       19.5108651022       21.0397148342
 Zn        18.4602932583       26.9020779038       28.2165854622
 Zn        17.0917141385       23.8424741532       28.0407703129
 Zn        20.2373214404       13.2611157852       34.6925797461
 Zn        17.5079315140       13.7082680098       34.9671981703
 Zn        27.1058218008       28.7148451978       34.8473674923
 Zn        21.0410350170       26.2717381378        5.1107013747
 Zn        11.4521273990       20.7266390628       18.8519708956
 Zn        28.1181273292       20.2555202631       18.9067574936
 Zn        20.9406301559       16.0740375004       12.0549719448
 Zn        19.3822988751       13.2706913218       11.8677719734
 Zn        21.1619810676       14.2418660318        9.3881170865
 Zn        22.7185532169       13.3477323416       12.1267364068
 Zn        18.7273543851       24.9070835977       25.6199363733
 Zn        20.3508120236       24.1141642124       28.3434686178
  O        22.3956366457       22.9902619667       29.2599370807
  C        23.4754130252       23.7572454329       29.0213334942
  O        24.9155857631       22.8779451792       29.4152029605
  H        23.7919826820       24.1189247737       28.0297617338
  H        25.7202442435       23.2890958604       28.9914115977
  H        23.4152865696       24.4895609933       30.0184540561
  H        25.0330342648       23.0454403223       30.3729286407
     235
 i =      118, E =     -2904.2504175827
 Br        15.4507146053       20.2096108089       16.5301718502
 Br        26.9377047937       20.7554923281       24.9909272119
 Br         9.8719923503       16.6220574289       24.9806181550
 Br        26.7216811766       24.1287593053       16.4248049468
 Br        21.2825021730       17.1312707448        5.8348364127
 Br         6.9464751505       11.3386061692       10.8272862845
 Br        21.5317291251       20.7479869647       31.2102212834
 Br        32.7426150967       24.2339026789       30.5666701886
  C        17.8559381781       12.0019596797        8.1239893204
  C        15.9442800616       10.8578659652        6.4104693891
  C        17.9866220950       12.1425789556        6.7153208778
  C        15.8095079734       10.7253753593        7.7937814201
  C        17.0259522279       11.5716106600        5.8871449265
  C        16.7526196716       11.2938294400        8.6397893148
  C        21.1723991129       18.5141851633        7.1127941611
  C        21.0544508120       22.1226155011        7.4000314473
  C        21.0834139204       18.3717476949        8.5016640660
  C        21.1337885388       22.2302841143        6.0205603658
  C        21.0705622466       20.7686553383        7.8016273802
  C        21.1637467725       19.8697045686        6.7191724189
  C         6.5007050503       11.6901377103        9.0170668212
  C         7.5374137939       11.2676654717        5.6133013149
  C         5.3186135636       12.3822890624        8.6572129391
  C         8.7237543840       10.6397676057        6.0539891953
  C         6.7435251051       11.6231478165        6.6915808822
  C         7.3251567349       11.3236897455        7.9477459856
  C        21.7925009904       27.3199074759       30.7570598794
  C        23.7577303546       28.3746158564       32.5240009286
  C        21.7543708582       28.6775184576       31.1973481969
  C        23.8231619377       27.0242639524       32.1190876613
  C        22.7256221785       29.0965430056       32.0170489481
  C        22.8436869492       26.5384536728       31.2635216558
  C        19.7288108601       20.2017656676       31.1425327281
  C        17.4975755565       17.6052361661       32.2842117646
  C        18.6874293104       20.8317335888       30.4662301287
  C        18.5670937108       16.9958043151       32.9192692708
  C        17.9244006886       18.7720352800       31.6187524612
  C        19.3020460208       19.0230859602       31.7832858505
  C        33.2268793526       26.0730694977       30.8549313008
  C        32.1653270281       29.1575068383       32.4305386893
  C        34.3542120894       26.6942558203       30.3919715109
  C        31.0132131156       28.5705010885       32.9249245395
  C        32.9120465879       28.2748006069       31.7068301406
  C        32.4005310494       26.9459108058       31.5987042149
  C         9.9789152645       16.5863347517       21.4673061140
  C        12.3526737384       21.1471227544       21.6321208614
  C        12.7002976043       18.2879885806       17.5161280201
  C        29.4343076234       22.7767082497       17.4682480578
  C        27.4424063741       18.1447526054       17.1823768356
  C        26.9938468292       20.8626243120       21.5082609115
  C        18.3480276734       15.4979191948       13.4197664237
  C        18.8076103634       12.5457905612        9.1160507189
  C        21.0524027997       17.1764268168        9.3329383077
  C        23.7638518367       12.9431572566        9.4885606838
  C        23.4294487840       15.7572625980       13.6452419848
  C        21.0623728955       11.2911780695       13.2061785358
  C        21.2606516782       23.5547111148       25.5119445318
  C        20.8403373221       26.6692697241       29.8094410020
  C        18.7014020782       27.8772040699       25.4964793959
  C        15.9823468041       26.1294470029       29.4415324832
  C        16.1855097827       23.5314837087       25.3005218118
  C        18.6544728358       22.0598734544       29.6724617246
  C        18.5311421416       15.7610353027       33.7087902909
  C        24.7927369011       28.9409500801       33.4785638270
  C        29.9154293957       28.8378393745       33.6727756857
  C        21.1487646817       23.4811562593        5.2077400428
  C        14.9114026055       10.2758214936        5.4929188695
  C         9.8197670487       10.0626843197        5.2005962584
  C        26.3458660525       17.6237630734       16.2709532210
  C        24.4459251244       16.3852738872       14.5462434990
  C        25.1574232925       18.3003182107       15.8644551586
  C        25.5962978150       15.6619221553       14.9498285141
  C        24.2388820528       17.6852423358       15.0174706749
  C        26.4237546874       16.3584996628       15.7597814597
  C        13.3919432845       21.8126254409       22.5378649630
  C        15.2092496039       22.9520774953       24.3588393504
  C        14.5618313233       22.4594609662       22.0761360369
  C        14.0720847850       22.2827547279       24.8304182663
  C        15.4591281140       23.0195699167       22.9829344685
  C        13.1796992130       21.7261753126       23.9244101665
  C        14.9610189010       18.4176930117       16.2269225573
  C        16.1029112826       15.3808679865       14.6216944231
  C        13.8058408807       17.7764181241       16.6706832910
  C        17.2427378608       16.0510800480       14.1905722139
  C        15.2628294889       16.2382295074       15.3609533147
  C        15.7841106846       17.5432021160       15.4808281006
  C        25.7056382182       21.3660453208       23.6853990859
  C        22.4729442708       22.9420694546       23.3581810591
  C        25.8492146855       21.3220500354       22.3000283037
  C        22.3620601283       22.9821304867       24.7359514529
  C        23.6896172257       22.3400911340       22.9753478395
  C        24.4784838338       21.9376955456       24.0725700368
  C         9.9929210825       15.2340997735       23.7111162955
  C        10.1541703393       11.7521462666       23.6438222096
  C        10.0633002452       15.3724599328       22.3240673264
  C        10.1038646089       11.4722640915       24.8509520632
  C        10.1179497542       13.0040581363       23.0115023762
  C        10.0361273539       13.8873376545       24.1196073917
  C        28.5135267094       24.6149039064       16.1483408212
  C        30.7397754861       26.9836072530       14.5961766249
  C        29.6335882586       23.8709698002       16.6903638211
  C        29.6503704414       27.6628698838       14.0709422900
  C        30.3466966563       25.8570384331       15.3534950181
  C        28.9247146129       25.7070934077       15.4197328087
  H        25.7475720058       14.6405737969       14.5942038928
  H        23.3429454953       18.2167696237       14.7063450366
  H         7.7900222084       15.7543104952       16.1464936525
  H        13.8973790164       22.2131881935       25.9027472028
  H        16.3476329847       23.5260810970       22.6114921330
  H        12.2956284700       21.1913690952       24.2664566782
  H        15.9167218946       14.3334563148       14.3937977015
  H        21.7110306078       23.3343811600       22.6894467366
  H        18.8060639682       28.6251156891       23.2151987522
  H        31.7783348581       27.2669359066       14.4436010908
  H        14.9578433432       10.1710906491        8.1908016306
  H        17.1021426061       11.6857565322        4.8058893803
  H        16.6599457196       11.1939282682        9.7205325027
  H        20.9878746618       22.9809231801        8.0629290246
  H         7.3479375198       11.4087362124        4.5536919796
  H        24.6232692979       26.3812279432       32.4936801441
  H        13.5728648836       12.7461002505       32.0899519610
  H        22.8512040776       25.4977165800       30.9550826585
  H        16.4891509733       17.2039429196       32.3190890912
  H        22.7106046174       12.6159325260       33.3040088141
  H        26.6635359059       20.4927445125       16.2272611221
  H        13.0775510246       23.0093553189       19.8552049764
  H        20.6484356264       12.3293484295        7.1959136130
  H        19.1029865056       28.3302478198       30.8791962852
  O        10.0601654241       19.6096783786       19.4076300186
  O        10.1624987336       16.2513394069       20.1941363552
  O        11.7124626483       20.2116870036       22.1016419265
  O        12.8320600562       19.4319979761       18.0428979072
  O         9.8324428887       17.7063167459       21.9473802401
  O        11.7012712736       17.4778140978       17.6532876834
  O        12.2542186051       21.7002318228       20.4484522678
  O        11.1615747326       22.1406498063       17.7435226184
  O        27.5836147557       19.4743405523       17.2112253913
  O        28.6062811638       22.0704124892       18.0080164666
  O        28.1010574418       17.3661883592       17.8448331544
  O        28.0445796704       20.5325283511       22.1282336167
  O        26.7970510148       20.8493004454       20.2229738698
  O        21.1093870775       14.1633893172       11.3891498069
  O        19.2964845409       16.2969508143       13.0902947710
  O        18.3593929667       12.7746951485       10.2908292653
  O        21.0766837674       16.0402055819        8.7373927647
  O        18.2721518941       14.2535752933       13.0971893632
  O        20.9937343293       17.3650358690       10.6042499608
  O        20.0389745316       12.7529952726        8.7706468797
  O        22.9538736847       13.3947676550        8.7280461827
  O        23.6439087521       14.5342033770       13.3367046279
  O        24.0013305928       12.7082223154       10.6501769743
  O        22.4749440069       16.4885292488       13.2369347298
  O        19.9398952261       11.5388967584       12.8695410802
  O        22.2288706158       11.5910862202       13.0916035818
  O        18.6334023491       25.0371983529       27.6177159314
  O        20.3059394879       24.0918788069       24.8579046649
  O        21.3024205447       25.7596795517       29.0516384425
  O        18.5827583635       28.2512024202       26.6433481867
  O        21.3780283438       23.4913794564       26.7869489446
  O        18.7538832972       26.7996957677       24.9591352728
  O        19.5988868210       27.0258341226       29.8379945512
  O        16.6381148521       27.0952885811       29.1989846352
  O        15.9448154476       23.4019604806       26.5603135174
  O        15.8264467395       24.9738995085       29.2624855626
  O        17.1725732023       24.1617387334       24.7847589690
  O        19.6590804898       22.8455137435       29.6716898442
  O        17.5806386303       22.2298191147       28.9790075147
  O        18.6948351496       12.7146240787       35.7583308954
  O        19.6099239519       15.2629052145       34.1569166588
  O        24.7794817261       30.0788373684       33.9263076830
  O        28.8869946156       28.2932126904       34.0814581798
  O        17.3227337409       15.2871041691       33.8931372702
  O        21.9435337757       12.5701465624       33.7964547089
  O        25.7089855758       28.0215878174       33.7901143341
  O        21.2258808531       23.4426321221        3.9864535479
  O        13.9247405088        9.6649568391        5.9829336139
  O        21.0724906572       24.5467633261        6.0221252406
  O        15.0456670879       10.3665828277        4.2433050659
  O         9.7191085064       10.2384417610        3.9561361140
  O        10.7761393162        9.5046144742        5.7983746809
  O        25.8140895014       20.8395144435       15.8079091376
  O        23.4373904705       20.3077743874       15.8073424196
  O        24.7894352106       19.9103794878       17.9049941051
  O        13.9317638394       23.5476870271       19.7566892260
  O        16.2886311785       23.3234237104       20.2932334774
  O        14.9609097445       21.2517102180       19.7572319054
  O        20.6034933333       12.3090208685        6.2001002470
  O        19.0474748006       13.0121444355        4.4558282267
  O        19.2845265027       14.4208713157        6.5268672831
  O        19.1511581705       29.2366415009       31.2997670466
  O        12.6270151900       13.1647522776       31.5933129226
  O        20.4452662249       29.7761417508       29.1075605516
  S        13.7349874739       16.0964663594       16.1682705559
  S        17.3011057537       17.7277728059       14.6822663053
  S        24.4563559416       21.9799711873       21.4704017927
  S        23.7134138417       22.2618126915       25.5858275555
  S        10.1547564771       13.8326903152       21.5015599583
  S        10.0126195434       12.9679884142       25.6642160499
  S        31.1693597832       24.6019046896       16.2193888898
  S        28.1629150411       27.0004181638       14.4983845035
  S        20.9934011560       19.9280354339        9.3108485399
  S        21.2310607018       20.6921548455        5.2005619838
  S         5.1846716733       12.4485435394        6.9968191198
  S         8.8698022651       10.5377727024        7.7647909768
  S        17.1659530185       19.9717476639       30.6334859942
  S        20.0977623960       17.8123716908       32.7190288488
  S        34.4556807155       28.3161105208       30.8261616557
  S        30.9055457179       26.7962444101       32.4378860211
  S        24.6668131661       19.9291054042       16.4608230161
  S        15.0519740584       22.5742733613       20.3430619290
  S        19.2489449655       13.1237525430        5.8777045811
  S        20.4754559400       29.9134041353       30.5912500760
 Zn        10.4154579984       17.8466200251       19.1330059838
 Zn        29.5760614510       19.5102887475       21.0280686435
 Zn        18.4698053566       26.9060245106       28.2139014660
 Zn        17.1032552315       23.8405893025       28.0293683525
 Zn        20.2855459861       13.2202132579       34.6598052929
 Zn        17.5096812209       13.7111734253       34.9663422975
 Zn        27.1027621068       28.7200948513       34.8399333691
 Zn        21.0443137495       26.2598760924        5.0979366402
 Zn        11.4431839706       20.7284274280       18.8571752782
 Zn        28.1140031731       20.2457061816       18.9142441501
 Zn        20.9391082725       16.0744997219       12.0501368214
 Zn        19.3831195115       13.2721010682       11.8674290485
 Zn        21.1661611842       14.2486570668        9.3837815641
 Zn        22.7217811038       13.3517826306       12.1284408221
 Zn        18.7222261467       24.9143297840       25.6181404071
 Zn        20.3502566041       24.1196017706       28.3479225710
  O        22.3955331588       22.9978251782       29.2627328179
  C        23.4753215796       23.7649402320       29.0155637066
  O        24.9342885229       22.9004736455       29.4333356179
  H        23.7891302745       24.1277875859       28.0374187493
  H        25.7285524688       23.2803872425       28.9761390141
  H        23.4180701479       24.4893024493       30.0214877147
  H        25.0318082756       23.0222879200       30.3705887941
     235
 i =      119, E =     -2904.2901569732
 Br        15.4416531430       20.2090953678       16.5359679878
 Br        26.9379972636       20.7555175568       24.9956548053
 Br         9.8715215557       16.6412208926       24.9771621207
 Br        26.7111475741       24.1060320577       16.4369027396
 Br        21.2824647541       17.1278413769        5.8316596283
 Br         6.9239346897       11.3237294321       10.8364628543
 Br        21.5287166904       20.7501186340       31.2121000079
 Br        32.7460183264       24.2293462518       30.5626616453
  C        17.8605313501       11.9965990928        8.1241974336
  C        15.9384184102       10.8812003959        6.4199049926
  C        17.9841288890       12.1182661718        6.7115773192
  C        15.8071630392       10.7208419025        7.8022044755
  C        17.0247908967       11.5714633763        5.8654621286
  C        16.7547815844       11.2927910443        8.6397971242
  C        21.1735241071       18.5095839049        7.1105178127
  C        21.0525826767       22.1019856265        7.4072828012
  C        21.0868171045       18.3851746249        8.5022700469
  C        21.1399551458       22.2101121715        6.0264184431
  C        21.0678348537       20.7476257619        7.8091716540
  C        21.1638457512       19.8627559241        6.7152285373
  C         6.4926288739       11.6762069426        9.0237274509
  C         7.5448372951       11.2801344434        5.6127414750
  C         5.3342043928       12.4331480039        8.6544246566
  C         8.7194537893       10.6186442794        6.0502943254
  C         6.7271912103       11.5837086252        6.6898162907
  C         7.3386319356       11.3547214488        7.9568939233
  C        21.8017347668       27.3309145800       30.7667450221
  C        23.7467901741       28.4006256469       32.5258302230
  C        21.7248889543       28.6990704134       31.1705438434
  C        23.7947684424       27.0413874224       32.1230386175
  C        22.7050086673       29.1055026343       32.0012527652
  C        22.8305097686       26.5223162028       31.2682545971
  C        19.7305716384       20.2128360074       31.1361888150
  C        17.5019147667       17.6051511962       32.2888087053
  C        18.6772347375       20.8522798066       30.4833134117
  C        18.5696129174       16.9871440507       32.9198163120
  C        17.9218453181       18.7697006430       31.6185103432
  C        19.2982248992       19.0334997009       31.7698465217
  C        33.2174857044       26.0758334001       30.8564666878
  C        32.1758413144       29.1804236345       32.4272019567
  C        34.3486755213       26.7106639207       30.4029612544
  C        31.0275675686       28.5664771067       32.9290597675
  C        32.9055844093       28.2798291992       31.7094972276
  C        32.3949771687       26.9430157555       31.6028894219
  C        10.0633451415       16.5689179158       21.4713636186
  C        12.3438132388       21.1763244406       21.6312775967
  C        12.7024617867       18.2985063420       17.5297798357
  C        29.3784938707       22.8054328051       17.4383358807
  C        27.4302905324       18.1396543307       17.2028362890
  C        26.9852687198       20.8549070457       21.5270916664
  C        18.3229496509       15.5044533322       13.3940437310
  C        18.8021702190       12.5594123036        9.1036022130
  C        21.0494123979       17.1874730795        9.3293224589
  C        23.7273866313       12.9640909088        9.5158572471
  C        23.4514365509       15.7711141511       13.6220364011
  C        21.0677003812       11.3189250622       13.1651139274
  C        21.2763465249       23.5760248240       25.4976923332
  C        20.8402327432       26.6679842981       29.8334138932
  C        18.6884826738       27.8031055904       25.4361490756
  C        16.0687472878       26.1087640404       29.3498449457
  C        16.1409504476       23.5691503042       25.2895670956
  C        18.6789871711       22.0411069728       29.6376994609
  C        18.5025631316       15.7728993998       33.7269373656
  C        24.8014633428       28.9082133126       33.5189837165
  C        29.9336652112       28.7911822962       33.6553150436
  C        21.1540329782       23.4802228240        5.2385066677
  C        14.9378335366       10.2444048721        5.4907592501
  C         9.8284717775       10.0776648924        5.1844700315
  C        26.3557839685       17.6276329105       16.2385354492
  C        24.4346818425       16.3794471182       14.5670009030
  C        25.1413709493       18.2927028014       15.8669110652
  C        25.6025700411       15.6732655456       14.9494567743
  C        24.2285786705       17.6881386992       15.0055471671
  C        26.4498260398       16.3503949973       15.7596008790
  C        13.4091958372       21.8047051619       22.5412942946
  C        15.2116949187       22.9163593143       24.3566163165
  C        14.5702602587       22.4581956158       22.0748329987
  C        14.0503889820       22.2884875893       24.8340010468
  C        15.4539977468       23.0379824706       22.9803412030
  C        13.1678970081       21.7242061396       23.9236856324
  C        14.9506998646       18.4189142895       16.2273779370
  C        16.1002156889       15.3847432927       14.6238473585
  C        13.7991223960       17.7798515300       16.6714948428
  C        17.2512573671       16.0497261972       14.2095690145
  C        15.2634055459       16.2437491849       15.3633106393
  C        15.7808403637       17.5507211285       15.4819317126
  C        25.6991800174       21.3661865514       23.6948767834
  C        22.4748655000       22.9424069172       23.3549991611
  C        25.8353058275       21.3342857232       22.3077426479
  C        22.3571492860       22.9716652958       24.7307990814
  C        23.6891496870       22.3408772407       22.9716316606
  C        24.4705861263       21.9382661109       24.0741407466
  C         9.9956102747       15.2365883065       23.7261474305
  C        10.1527950390       11.7384575207       23.6250811474
  C        10.0168656732       15.3651190127       22.3412341432
  C        10.1095062425       11.4576273454       24.8498041725
  C        10.1168525565       12.9747413700       23.0245972815
  C        10.0443261145       13.8839713629       24.1114178106
  C        28.4923058096       24.6151522673       16.1557611099
  C        30.7505095749       26.9589816717       14.5995348174
  C        29.6562785950       23.8891215533       16.6828087012
  C        29.6582559119       27.6629021807       14.0846456150
  C        30.3394978172       25.8511090212       15.3609054876
  C        28.9119913564       25.6914599396       15.4250246360
  H        25.7573884171       14.6478805862       14.6085233888
  H        23.3347315895       18.2326534000       14.7152734335
  H         7.7981495260       15.7610412977       16.1557562209
  H        13.8946243904       22.2080415492       25.9100574295
  H        16.3546737949       23.5215804340       22.6048228844
  H        12.2840104398       21.1885559504       24.2680982460
  H        15.9183684842       14.3370737609       14.3950572985
  H        21.7043455810       23.3379577589       22.6992977268
  H        18.7957414926       28.7048832686       23.4283769909
  H        31.7780922876       27.2735006000       14.4385888857
  H        14.9526116825       10.1685347451        8.1944310496
  H        17.1092914626       11.6908535876        4.7863331947
  H        16.6620332528       11.1973617940        9.7202636524
  H        20.9875667929       22.9788591037        8.0485045715
  H         7.3377384651       11.4029593185        4.5543103405
  H        24.6090941998       26.4099809305       32.4895025858
  H        13.5808068779       12.7420122178       32.0845939712
  H        22.8691553542       25.4750790640       30.9821300863
  H        16.4896603648       17.2076817556       32.3147496942
  H        22.5710105610       12.7755637479       33.3891881632
  H        26.6495038281       20.4768920217       16.2371666320
  H        13.0873276641       23.0020173086       19.8628528399
  H        20.6582276621       12.3147031371        7.1849508471
  H        19.1009048651       28.3016756252       30.9120275752
  O        10.0571595318       19.6266926460       19.4160475738
  O        10.1272231193       16.2895507617       20.1746005379
  O        11.7007199645       20.1947907075       22.0009747307
  O        12.8522860730       19.4262129597       18.0883207799
  O         9.7992677228       17.7204640695       21.8430327188
  O        11.7250741258       17.4686729989       17.6833616494
  O        12.1979466897       21.6979178681       20.4412096093
  O        11.1587533931       22.1544963906       17.6994709793
  O        27.6019583062       19.4764565910       17.1977841633
  O        28.6318131439       22.0556300866       18.0247361764
  O        28.1211537534       17.3710019217       17.8494116282
  O        28.0402073576       20.5232317771       22.1347552639
  O        26.8482185859       20.8398735414       20.2236197425
  O        21.1150622489       14.1623122204       11.4054131000
  O        19.3004110495       16.2818950392       13.1000737439
  O        18.3742972672       12.7819659286       10.2897092412
  O        21.0810298790       16.0376407996        8.7547339732
  O        18.2857742557       14.2442213946       13.1103148465
  O        20.9939968929       17.3385423686       10.6054558089
  O        20.0377647625       12.7487977125        8.7558817149
  O        22.9360137611       13.4179149388        8.7152815300
  O        23.6426289301       14.5286571992       13.3542737569
  O        24.0694307630       12.6344397160       10.6688982900
  O        22.4718856307       16.4952864808       13.2753004158
  O        19.8957177870       11.5144822983       12.8781320602
  O        22.2640852133       11.5797996209       13.1262363824
  O        18.6349917078       25.0443477306       27.6449462628
  O        20.2978765558       24.0746021139       24.8418219799
  O        21.2871565395       25.7683643271       29.0658590928
  O        18.5890969766       28.4137057706       26.5748739396
  O        21.3699924223       23.4616008454       26.7612065039
  O        18.7559199874       26.6921224907       24.9176956611
  O        19.6041319844       27.0751662086       29.8180511268
  O        16.6541369770       27.1970081587       29.2246232265
  O        15.9710488343       23.3812491162       26.5568880251
  O        15.7440436174       24.8860466695       29.3620903612
  O        17.1765453776       24.1430927306       24.8043792715
  O        19.6528433597       22.8550253427       29.7039476072
  O        17.5525775916       22.2352110936       29.0161020902
  O        18.7978216060       12.6505669609       35.7418516789
  O        19.5558935897       15.2498059477       34.1884095810
  O        24.8747602191       30.0605091213       33.9420908133
  O        28.9328473963       28.2859165301       34.1764434788
  O        17.2938754657       15.2714259785       33.8817345444
  O        21.9000948561       12.3909957553       33.8213869448
  O        25.7271359300       27.9733946375       33.7759439348
  O        21.2321593469       23.6048936220        3.9978665234
  O        13.9185896525        9.6815197593        5.9794648232
  O        21.0704610261       24.5735794331        6.0014982340
  O        15.0200897902       10.4041643149        4.2382081586
  O         9.7141978647       10.2477760587        3.9370535100
  O        10.7458032031        9.4892810690        5.8159697413
  O        25.8072861742       20.8556957935       15.8140999688
  O        23.4383128466       20.2945528852       15.8061519785
  O        24.7833698058       19.9255420505       17.9053912260
  O        13.9405019504       23.5437439161       19.7361347716
  O        16.2947080895       23.3179477769       20.2986061716
  O        14.9635620312       21.2455466568       19.7662570118
  O        20.6059149061       12.3321037929        6.1896234364
  O        19.0898885448       13.0228250238        4.4431076821
  O        19.3125823982       14.4203151404        6.5175954181
  O        19.1508465321       29.2349837727       31.2714031232
  O        12.6267117114       13.1811537903       31.6433317922
  O        20.4444934960       29.6966979780       29.1290328573
  S        13.7313092274       16.1011652544       16.1651439527
  S        17.2993289375       17.7326752404       14.6870816374
  S        24.4458108648       21.9804010759       21.4615490173
  S        23.7094063699       22.2665285626       25.5882503742
  S        10.1588154932       13.8227968986       21.5337324323
  S        10.0092339337       12.9597418610       25.6644442150
  S        31.2083320004       24.6119299832       16.2163294518
  S        28.1774552745       27.0084507693       14.4873760817
  S        20.9917607087       19.9327305458        9.3330946124
  S        21.2291667192       20.6786726531        5.1917077451
  S         5.1629092993       12.4330095326        7.0127014102
  S         8.8833229198       10.5629672912        7.7567822674
  S        17.1668992968       19.9668285731       30.6317521197
  S        20.0847366616       17.8262051066       32.7153080401
  S        34.4685252337       28.3202403601       30.8214380274
  S        30.8983471829       26.7636545708       32.4261776374
  S        24.6712024266       19.9288908324       16.4616767233
  S        15.0528728146       22.5751310697       20.3371964448
  S        19.2325432007       13.1222033715        5.8732810362
  S        20.4691240904       30.0072879818       30.6054847948
 Zn        10.4787332686       17.8856118864       19.1863760893
 Zn        29.5432043879       19.5322796103       20.8107456326
 Zn        18.5174751586       26.9713406203       28.1598310872
 Zn        17.1053662690       23.8135852598       28.0314300769
 Zn        20.3337856652       13.1408161837       34.5649562818
 Zn        17.6615673694       13.7478719826       34.9632521551
 Zn        27.0690203802       28.8220501642       34.8080565728
 Zn        21.0432669898       26.2680610551        5.0779455060
 Zn        11.3987819577       20.7637361077       18.8325362415
 Zn        28.2061748923       20.1402603739       18.9646864648
 Zn        20.9486297319       16.0812296566       12.0746757177
 Zn        19.3711023706       13.3012362218       11.8550052701
 Zn        21.0945763170       14.2512894290        9.3981697074
 Zn        22.7453576729       13.3681950292       12.1336497051
 Zn        18.7345548112       24.8244411359       25.6435567908
 Zn        20.4142545232       24.0685901907       28.3495552086
  O        22.3560184902       23.1477797285       29.2750906095
  C        23.3885960849       23.8369183983       29.1083483906
  O        24.9545620649       22.6504736455       29.3115500612
  H        23.7582684506       24.0922880354       28.0549044216
  H        25.7263668590       23.2340380161       28.9919800538
  H        23.5001430414       24.5461325859       30.0059065451
  H        25.1077217749       23.0232246270       30.2941262139
     235
 i =      120, E =     -2904.3389861137
 Br        15.4370665466       20.2126530130       16.5395824845
 Br        26.9333506649       20.7574499262       24.9974276169
 Br         9.8733355041       16.6425881351       24.9686800179
 Br        26.7125376234       24.0985613371       16.4405596602
 Br        21.2821611776       17.1255766268        5.8349623004
 Br         6.9065322489       11.3070398303       10.8396390774
 Br        21.5252113422       20.7507995895       31.2123414655
 Br        32.7508324641       24.2324338589       30.5610245383
  C        17.8609362893       11.9969176877        8.1179125637
  C        15.9508875676       10.8662121313        6.4183623871
  C        17.9886611699       12.1234909039        6.7052987688
  C        15.8065954150       10.7256043655        7.8018276690
  C        17.0276143499       11.5739610475        5.8638432637
  C        16.7565245688       11.2941093132        8.6385040784
  C        21.1736891621       18.5060468749        7.1140620517
  C        21.0542106058       22.1028757746        7.3974897344
  C        21.0872058064       18.3795690226        8.5056789224
  C        21.1413852054       22.2242101026        6.0181070684
  C        21.0663722686       20.7504065768        7.8033373457
  C        21.1627190156       19.8585088520        6.7162037249
  C         6.5043597743       11.6906840089        9.0269687582
  C         7.5310028903       11.2664394983        5.6107390276
  C         5.3499203665       12.4546455844        8.6499477191
  C         8.7205484552       10.6316180976        6.0500125629
  C         6.7220861218       11.5759807512        6.6917330076
  C         7.3388203143       11.3504273954        7.9582381236
  C        21.7892313234       27.3356135420       30.7745924681
  C        23.7401746525       28.4017772937       32.5395505949
  C        21.7330259092       28.7006473489       31.1830832658
  C        23.7871931450       27.0474329387       32.1258398611
  C        22.7108587277       29.1264374041       32.0154570454
  C        22.8214419633       26.5328074092       31.2735267736
  C        19.7278629649       20.2123919370       31.1395058212
  C        17.5032344059       17.6074288004       32.2865555034
  C        18.6782035396       20.8465846876       30.4747149386
  C        18.5656667912       16.9890090743       32.9270939718
  C        17.9235534213       18.7706625425       31.6147390549
  C        19.3003922118       19.0306200012       31.7724631090
  C        33.2176124907       26.0798855262       30.8564242786
  C        32.1833314135       29.2000075106       32.4261215443
  C        34.3515157025       26.7134992492       30.4001146942
  C        31.0385128215       28.5688839976       32.9240310049
  C        32.9004388588       28.2827709683       31.7174460683
  C        32.3921012132       26.9421953608       31.6025497574
  C        10.0103054500       16.5634824461       21.4517355373
  C        12.3456472544       21.1685303891       21.6105483901
  C        12.7092508297       18.2965317078       17.5491444715
  C        29.3532757915       22.8138484812       17.4364797877
  C        27.4470457263       18.1406245203       17.1875769817
  C        26.9973157936       20.8537374003       21.5291152887
  C        18.3302770167       15.4985865078       13.4142327580
  C        18.8003043094       12.5509513192        9.0997615964
  C        21.0518916223       17.1853348715        9.3343240931
  C        23.7341445131       12.9538140618        9.5202680761
  C        23.4433855967       15.7676821678       13.6488061102
  C        21.0663058303       11.3151812670       13.1571865382
  C        21.2688245718       23.5540845060       25.4929777165
  C        20.8378892916       26.6823908663       29.8249856588
  C        18.6875088346       27.8429002583       25.3212475436
  C        16.0802524629       26.1036810366       29.3589070364
  C        16.1568075326       23.5369920803       25.2903464032
  C        18.6639373618       22.0579220670       29.6682336903
  C        18.4932336596       15.7646075974       33.7163643310
  C        24.8231438299       28.8943264693       33.5087668301
  C        29.9431079520       28.7468896282       33.6550393048
  C        21.1539167118       23.5062395279        5.2502241020
  C        14.9186762369       10.2741416159        5.4894117158
  C         9.8227827773       10.0619620520        5.1851573921
  C        26.3521321592       17.6338526215       16.2464009074
  C        24.4473274103       16.3874357197       14.5595266010
  C        25.1440685024       18.2993516265       15.8610550068
  C        25.6028779048       15.6696069118       14.9525689513
  C        24.2238999276       17.6868800146       15.0146653121
  C        26.4585782543       16.3586160719       15.7548211963
  C        13.3963275607       21.8061191695       22.5319952727
  C        15.1949301017       22.9406647954       24.3582855259
  C        14.5640287009       22.4538160180       22.0752178784
  C        14.0502125775       22.2788539268       24.8289385785
  C        15.4512732318       23.0249318680       22.9818668476
  C        13.1657386059       21.7200585414       23.9162765790
  C        14.9503523268       18.4215968915       16.2261940749
  C        16.1003786337       15.3858506661       14.6290473199
  C        13.7979831101       17.7863899424       16.6705408207
  C        17.2472060838       16.0527953734       14.2046321809
  C        15.2609892645       16.2460637957       15.3629659169
  C        15.7800272038       17.5528801395       15.4803842303
  C        25.7002917657       21.3662252888       23.6915173313
  C        22.4727877608       22.9410209493       23.3508475415
  C        25.8405589196       21.3304818036       22.3053860780
  C        22.3611114846       22.9803951471       24.7264522671
  C        23.6868054747       22.3392899181       22.9693109472
  C        24.4711387225       21.9370649296       24.0701496126
  C         9.9878142320       15.2338805323       23.7211132328
  C        10.1514724194       11.7404597752       23.6240788453
  C        10.0292638006       15.3733671924       22.3382730967
  C        10.1107309460       11.4520606354       24.8505250079
  C        10.1210699216       12.9743615479       23.0251138519
  C        10.0437038528       13.8829149288       24.1143038477
  C        28.4891452992       24.6176655684       16.1546544118
  C        30.7494939405       26.9590971245       14.6035194627
  C        29.6559854294       23.8841477243       16.6863199103
  C        29.6574073324       27.6708820078       14.0796938824
  C        30.3439425922       25.8501036115       15.3556543270
  C        28.9140464868       25.6896815100       15.4267673488
  H        25.7598519747       14.6460742395       14.6085981356
  H        23.3348817225       18.2372200810       14.7207274391
  H         7.8036900497       15.7654996475       16.1619582218
  H        13.8888609853       22.2082093850       25.9048903094
  H        16.3471017223       23.5190212038       22.6087101179
  H        12.2789430245       21.1901748524       24.2626293296
  H        15.9174154511       14.3394420547       14.3961711348
  H        21.7005393091       23.3412492101       22.6996882856
  H        18.7818100177       28.7347530787       23.6783769909
  H        31.7799639488       27.2647541850       14.4418872567
  H        14.9539842514       10.1690746151        8.1923529725
  H        17.1079499434       11.6894009549        4.7840512604
  H        16.6630795637       11.1988159640        9.7191200726
  H        20.9872646666       22.9762340036        8.0412353251
  H         7.3294859380       11.3994949349        4.5528820547
  H        24.6044778383       26.4241445149       32.4944686697
  H        13.5712590469       12.7497825380       32.0910734528
  H        22.8626400381       25.4812563982       31.0085536689
  H        16.4911084051       17.2095423193       32.3138712611
  H        22.5756458657       12.9912322235       33.3694069281
  H        26.6502785814       20.4728935133       16.2477673614
  H        13.0884613259       22.9974963560       19.8642053064
  H        20.6634981260       12.3093732968        7.1816920595
  H        19.1071528386       28.3031665088       30.9296823388
  O        10.0495015530       19.6296852867       19.4175119993
  O        10.1593095756       16.2736980405       20.1668315336
  O        11.7053267722       20.1887681217       21.9858452888
  O        12.8510010461       19.4272588714       18.1012405199
  O         9.8142368664       17.7176339933       21.8392520893
  O        11.7291075931       17.4694859451       17.6971032170
  O        12.1833652785       21.7181845990       20.4344805630
  O        11.1617875521       22.1693373829       17.6747792566
  O        27.5886287250       19.4804627885       17.2027679658
  O        28.6498469528       22.0579019074       18.0455336267
  O        28.1130338993       17.3650535530       17.8609839961
  O        28.0427191283       20.5154372702       22.1498242558
  O        26.8638422248       20.8393530159       20.2233653236
  O        21.1216482556       14.1669603530       11.4018891760
  O        19.2953486929       16.2772164115       13.0900650705
  O        18.3713466344       12.7828980458       10.2846936940
  O        21.0772612884       16.0404664311        8.7476827134
  O        18.2748938609       14.2440074752       13.1056183968
  O        20.9927273923       17.3470470979       10.6082369424
  O        20.0359693217       12.7529865165        8.7550165074
  O        22.9392635719       13.4188470660        8.7299199281
  O        23.6520452183       14.5340796949       13.3522906759
  O        24.0926521511       12.6249914637       10.6642231521
  O        22.4777165725       16.4935621411       13.2712268133
  O        19.8958704333       11.5159437711       12.8751292789
  O        22.2622994673       11.5698234891       13.1328735039
  O        18.6339066685       25.0444519515       27.6656185055
  O        20.2996146764       24.0780538200       24.8423634720
  O        21.2900425180       25.7784166419       29.0700933348
  O        18.5938984847       28.4253466979       26.4625714574
  O        21.3689257505       23.4640725645       26.7551959086
  O        18.7522013567       26.6558157667       24.9157986526
  O        19.5954888555       27.0782644591       29.8239523838
  O        16.6506907203       27.1776012324       29.2172391664
  O        15.9526712292       23.3923013458       26.5571972557
  O        15.7451100174       24.9046459344       29.3536730964
  O        17.1673787976       24.1488615981       24.8045557913
  O        19.6569254393       22.8450321209       29.6932183054
  O        17.5486284406       22.2316116025       29.0206832551
  O        18.8799077538       12.6132205654       35.6815672275
  O        19.5390066107       15.2467141246       34.1966140048
  O        24.9001772141       30.0367980814       33.9555776126
  O        28.9381912293       28.2879688664       34.2074239496
  O        17.2850708388       15.2600819779       33.8782234288
  O        21.7130254279       12.1687893212       33.9212361015
  O        25.7226813354       27.9350769429       33.7751848681
  O        21.2325173484       23.6273666733        4.0121741582
  O        13.9217692005        9.6688998651        5.9747454314
  O        21.0706646235       24.5818550857        6.0393806450
  O        15.0208070981       10.4024304291        4.2358592300
  O         9.7118073145       10.2602600827        3.9409640460
  O        10.7414965482        9.4782516120        5.8204936530
  O        25.8100564925       20.8472716737       15.8128868613
  O        23.4344982569       20.2939155386       15.8056331048
  O        24.7804892234       19.9250956269       17.9058987532
  O        13.9433902808       23.5394572636       19.7399429969
  O        16.2954283707       23.3189229064       20.2988251739
  O        14.9644902409       21.2427179813       19.7667390496
  O        20.6080813981       12.3191335670        6.1888079376
  O        19.0867940416       13.0216389243        4.4365881349
  O        19.3056266661       14.4171230869        6.5159686769
  O        19.1284435677       29.2452650125       31.2732674600
  O        12.6409537528       13.1734901519       31.6538097427
  O        20.4397996314       29.6986981736       29.1159190708
  S        13.7281720960       16.1070162593       16.1658893338
  S        17.3011763879       17.7340990931       14.6905444827
  S        24.4499793713       21.9780722021       21.4625463511
  S        23.7093908548       22.2682288444       25.5827555296
  S        10.1555972395       13.8263252698       21.5368460633
  S        10.0100846648       12.9549045545       25.6701539907
  S        31.2096382504       24.6098066052       16.2199187848
  S        28.1841253982       27.0143318706       14.4835730275
  S        20.9926878904       19.9330922308        9.3258048219
  S        21.2296303111       20.6845145435        5.1971546047
  S         5.1477711790       12.4232219651        7.0143226090
  S         8.8982531659       10.5831017356        7.7545647432
  S        17.1651976747       19.9681086515       30.6318518935
  S        20.0828667318       17.8232724262       32.7217295585
  S        34.4694010223       28.3174218657       30.8211575505
  S        30.8975194533       26.7438043421       32.4178423649
  S        24.6680673582       19.9298466517       16.4625825170
  S        15.0557070251       22.5719974464       20.3384975055
  S        19.2418685590       13.1214089556        5.8647624850
  S        20.4637347554       29.9802212438       30.5939938715
 Zn        10.5055960332       17.8827987916       19.2250448879
 Zn        29.5257960145       19.5484343148       20.7048474734
 Zn        18.5666137363       27.0058173704       28.1202604958
 Zn        17.1233233641       23.7873432748       28.0070849501
 Zn        20.3720105384       13.1179244254       34.5536003885
 Zn        17.7423300150       13.7653104701       34.9656076444
 Zn        27.0411665393       28.8958581425       34.7839596450
 Zn        21.0453828286       26.2455728097        5.0527572026
 Zn        11.3700516834       20.7890736026       18.8304837047
 Zn        28.2313839871       20.0850486122       18.9819074072
 Zn        20.9491416192       16.0887390188       12.0774166696
 Zn        19.3645386620       13.3292463089       11.8439349986
 Zn        21.0630427951       14.2637116427        9.3966086799
 Zn        22.7539572598       13.3820098583       12.1380965392
 Zn        18.7354946637       24.7901830770       25.6640792920
 Zn        20.4464612680       24.0578554646       28.3564928397
  O        22.3380718467       23.2092667697       29.2915771229
  C        23.3367324598       23.9093134381       29.1530209994
  O        24.9928509272       22.6262124041       29.2690963876
  H        23.7395259032       24.1082888490       28.0779939219
  H        25.7535218782       23.1799175380       28.9466256150
  H        23.5449857698       24.5377457456       30.0028308604
  H        25.1370820284       22.9373470502       30.2564909971
     235
 i =      121, E =     -2904.4498419081
 Br        15.4373498997       20.2173468826       16.5405275549
 Br        26.9286829874       20.7593981445       24.9981062652
 Br         9.8736714787       16.6393033077       24.9656484934
 Br        26.7174842145       24.1035073870       16.4372696121
 Br        21.2821139894       17.1239774957        5.8391764186
 Br         6.8990187761       11.2951520764       10.8391639239
 Br        21.5254832081       20.7523539290       31.2119646069
 Br        32.7540182030       24.2379652100       30.5614038184
  C        17.8614097619       11.9971331715        8.1144523519
  C        15.9479400620       10.8633658516        6.4111879899
  C        17.9904798820       12.1324916432        6.7027702696
  C        15.8106462328       10.7243201762        7.7950735248
  C        17.0314007601       11.5691163120        5.8695307504
  C        16.7559371247       11.2955647959        8.6350279918
  C        21.1733752578       18.5085505148        7.1138133206
  C        21.0553611942       22.1115247502        7.3934925345
  C        21.0875581292       18.3751569584        8.5049021067
  C        21.1397073192       22.2341871458        6.0156813857
  C        21.0667996983       20.7595987320        7.7967146220
  C        21.1616444683       19.8618250590        6.7146701903
  C         6.5177633968       11.7104666181        9.0291989336
  C         7.5232794598       11.2581510126        5.6094830669
  C         5.3618009784       12.4558743998        8.6465601826
  C         8.7198847581       10.6410718431        6.0491244740
  C         6.7207786336       11.5753873016        6.6935795488
  C         7.3344864780       11.3397307532        7.9565825253
  C        21.7805774707       27.3386243534       30.7773612225
  C        23.7382207921       28.3976118244       32.5384557466
  C        21.7424100369       28.6965485296       31.2026487068
  C        23.7907585265       27.0464969711       32.1306113207
  C        22.7141673073       29.1453903744       32.0347248280
  C        22.8187192968       26.5446941758       31.2811247968
  C        19.7265676776       20.2072287273       31.1428092810
  C        17.4994645583       17.6084162466       32.2833472930
  C        18.6788346074       20.8394512065       30.4734917172
  C        18.5617212646       16.9943954750       32.9268028212
  C        17.9259127511       18.7708220870       31.6137711959
  C        19.3035918051       19.0247922900       31.7792366564
  C        33.2214374735       26.0827139159       30.8562355059
  C        32.1832924336       29.2026572241       32.4289549767
  C        34.3552324973       26.7114009133       30.3930186857
  C        31.0389063785       28.5701013019       32.9195174306
  C        32.8996817568       28.2843867328       31.7219762932
  C        32.3916719024       26.9436189799       31.6008212487
  C         9.9805246494       16.5639595471       21.4446730972
  C        12.3431483128       21.1584287062       21.6008025851
  C        12.7114479998       18.2956284001       17.5536078919
  C        29.3585686566       22.8146256466       17.4479558451
  C        27.4439907594       18.1424664626       17.1818239165
  C        27.0135879349       20.8520405309       21.5263260269
  C        18.3363512613       15.4958826312       13.4240735756
  C        18.8011196913       12.5456001577        9.1005653506
  C        21.0519280130       17.1849643526        9.3376025433
  C        23.7598030117       12.9333912311        9.5117796676
  C        23.4404045346       15.7671473055       13.6588482579
  C        21.0631499959       11.2962044117       13.1695494875
  C        21.2653813770       23.5439634176       25.4940325219
  C        20.8335095907       26.6915271914       29.8212048487
  C        18.6950397545       27.9035266500       25.2167830478
  C        16.0749161186       26.1058091667       29.3838899547
  C        16.1631164858       23.5303437612       25.2940133065
  C        18.6559198121       22.0615369889       29.6845070277
  C        18.4953044101       15.7601815453       33.7033432819
  C        24.8244029658       28.8810853245       33.4975549506
  C        29.9447711610       28.7264696362       33.6634369246
  C        21.1518358352       23.5207203266        5.2595116401
  C        14.9067769398       10.2833036305        5.4854272409
  C         9.8189943852       10.0465541291        5.1899114483
  C        26.3519190494       17.6337197518       16.2518174496
  C        24.4500819971       16.3908122060       14.5595001215
  C        25.1523048896       18.3055128380       15.8639979826
  C        25.6031530051       15.6706052718       14.9502528832
  C        24.2320750973       17.6893892213       15.0219084906
  C        26.4617217225       16.3584907407       15.7543262308
  C        13.3842440687       21.8059704698       22.5229021419
  C        15.1917916333       22.9479589675       24.3597394219
  C        14.5577391112       22.4510286088       22.0741072819
  C        14.0501837806       22.2763009576       24.8227607069
  C        15.4461751685       23.0172850769       22.9826538609
  C        13.1650118281       21.7172815278       23.9096592662
  C        14.9529883986       18.4252686044       16.2250096372
  C        16.0996991341       15.3867994667       14.6298861181
  C        13.8019418304       17.7894617940       16.6737641272
  C        17.2455832739       16.0527368922       14.2018060835
  C        15.2587700308       16.2468299601       15.3619175116
  C        15.7799103186       17.5530569896       15.4796840625
  C        25.7032355763       21.3663910181       23.6853690598
  C        22.4723147759       22.9413897966       23.3476173940
  C        25.8519150741       21.3244738084       22.3006507454
  C        22.3627137345       22.9832122505       24.7242073104
  C        23.6859740700       22.3371363251       22.9662656316
  C        24.4734691454       21.9356990170       24.0655273022
  C         9.9847733112       15.2336402930       23.7127314592
  C        10.1515734172       11.7458939051       23.6271283074
  C        10.0347443939       15.3725730637       22.3284055848
  C        10.1097660830       11.4532329205       24.8519714489
  C        10.1245815030       12.9869843854       23.0212881393
  C        10.0388218984       13.8855708637       24.1198971785
  C        28.4946418934       24.6215551092       16.1484127933
  C        30.7455368623       26.9653404963       14.6058470542
  C        29.6440586329       23.8739814762       16.6912345462
  C        29.6551364510       27.6769813213       14.0709907586
  C        30.3491540274       25.8517669901       15.3513613229
  C        28.9191806252       25.6962074257       15.4232910311
  H        25.7575098890       14.6470613299       14.6062091751
  H        23.3388838062       18.2316806474       14.7244031344
  H         7.8060124989       15.7672729410       16.1644790384
  H        13.8828194859       22.2069900088       25.8975761499
  H        16.3402407280       23.5169316517       22.6138799536
  H        12.2771098104       21.1900850687       24.2567315110
  H        15.9158715467       14.3403572900       14.3980450087
  H        21.7004202445       23.3416083104       22.6951074917
  H        18.7662523257       28.6945881536       23.9283769909
  H        31.7817729824       27.2543637488       14.4469964312
  H        14.9566180831       10.1722163297        8.1887681334
  H        17.1032587127       11.6866734982        4.7889673773
  H        16.6639657644       11.2000634123        9.7161292338
  H        20.9869437346       22.9779901817        8.0434965397
  H         7.3230759073       11.3950903457        4.5518915295
  H        24.6052923785       26.4229559889       32.5003467649
  H        13.5571255843       12.7586011649       32.0982103433
  H        22.8458367798       25.4932381152       31.0221508552
  H        16.4893016321       17.2086527262       32.3143377027
  H        22.5563442771       12.8948103423       33.3691638910
  H        26.6546938635       20.4756384798       16.2547224240
  H        13.0852658715       22.9951254236       19.8632893127
  H        20.6633486487       12.3104677522        7.1821671028
  H        19.1082954669       28.3142440075       30.9333276267
  O        10.0441875927       19.6260503391       19.4178604635
  O        10.1728363972       16.2496933215       20.1685837745
  O        11.7162826640       20.1856541851       22.0122977896
  O        12.8464280902       19.4292639051       18.1003728947
  O         9.8271532812       17.7086858529       21.8717093130
  O        11.7278516458       17.4726921117       17.7050527022
  O        12.1832749427       21.7307393541       20.4351212965
  O        11.1645495663       22.1723871674       17.6599780149
  O        27.5756340475       19.4768212469       17.1968077860
  O        28.6629943282       22.0726593744       18.0577528940
  O        28.1024547619       17.3644918372       17.8653444277
  O        28.0564936148       20.5094257688       22.1516530614
  O        26.8647706982       20.8434569005       20.2261942826
  O        21.1260788607       14.1709806629       11.3916345835
  O        19.2938429855       16.2787939699       13.0892993570
  O        18.3628258705       12.7784918139       10.2814963116
  O        21.0734155103       16.0467398196        8.7384769706
  O        18.2679843254       14.2449632039       13.1036779933
  O        20.9943051919       17.3591755732       10.6095446014
  O        20.0364574133       12.7588003761        8.7603920302
  O        22.9488297885       13.4091920745        8.7551087560
  O        23.6572106846       14.5382101759       13.3500510972
  O        24.0824283514       12.6486172866       10.6507622806
  O        22.4775401131       16.4872849552       13.2596119360
  O        19.9177205696       11.5271318033       12.8669781142
  O        22.2458222955       11.5616269631       13.1267218588
  O        18.6310598669       25.0448170284       27.6707748932
  O        20.2993496925       24.0806311943       24.8499827437
  O        21.2952944118       25.7947231507       29.0620538927
  O        18.5923951894       28.3936447612       26.3721432392
  O        21.3695134638       23.4713724450       26.7614113812
  O        18.7514483541       26.6662850842       24.9023086184
  O        19.5866175635       27.0708404895       29.8230300017
  O        16.6472669383       27.1409695510       29.2051746093
  O        15.9406404308       23.3947174959       26.5595301442
  O        15.7685387072       24.9463000396       29.3207131388
  O        17.1649311407       24.1489912447       24.8007475208
  O        19.6577037052       22.8398145743       29.6802125350
  O        17.5500968405       22.2354279748       29.0245822944
  O        18.9011512155       12.5988469339       35.6381311720
  O        19.5461786887       15.2533486694       34.1840874846
  O        24.9015337883       30.0231826188       33.9558987191
  O        28.9336694937       28.2939078441       34.2063888772
  O        17.2920750138       15.2532072410       33.8783111655
  O        21.6610662466       12.2528236909       33.9374616591
  O        25.7192615809       27.9321295791       33.7744820748
  O        21.2286535519       23.5912787758        4.0277612135
  O        13.9232176946        9.6632718405        5.9789807538
  O        21.0723952659       24.5725467938        6.0826165851
  O        15.0330855461       10.3985101276        4.2344216933
  O         9.7054085482       10.2712177330        3.9512995206
  O        10.7444681665        9.4682531052        5.8203569652
  O        25.8148558097       20.8379485525       15.8111893415
  O        23.4300103063       20.3019697141       15.8062683646
  O        24.7815438312       19.9203111084       17.9046297310
  O        13.9407729068       23.5381954701       19.7506964062
  O        16.2951229281       23.3208205874       20.2967156015
  O        14.9646211154       21.2429606608       19.7632505924
  O        20.6084424241       12.3071447170        6.1903847303
  O        19.0712007224       13.0151375401        4.4365194220
  O        19.2927630070       14.4155536819        6.5167795392
  O        19.1209325936       29.2527580032       31.2830284779
  O        12.6518094021       13.1635483813       31.6502309151
  O        20.4357663204       29.7208835612       29.1008840499
  S        13.7268825995       16.1104622635       16.1675610953
  S        17.3021749612       17.7333410840       14.6911842089
  S        24.4588460716       21.9754069024       21.4639184636
  S        23.7121826210       22.2692503978       25.5774262953
  S        10.1541392717       13.8255484562       21.5230617736
  S        10.0122111890       12.9562595419       25.6732987049
  S        31.1941161887       24.6013743691       16.2250133828
  S        28.1821954394       27.0185553831       14.4833791030
  S        20.9938984185       19.9335419957        9.3138875711
  S        21.2316984526       20.6924490144        5.1972683565
  S         5.1442761844       12.4181420540        7.0070417495
  S         8.9061287553       10.5966179078        7.7553287632
  S        17.1628302862       19.9676915454       30.6334061528
  S        20.0870851312       17.8173814260       32.7291422156
  S        34.4671234090       28.3166430881       30.8232464855
  S        30.8996788364       26.7332659634       32.4127109071
  S        24.6636254627       19.9322073880       16.4615610949
  S        15.0577854645       22.5701172613       20.3396238226
  S        19.2499780879       13.1207708456        5.8614579020
  S        20.4663326794       29.9382535331       30.5800067766
 Zn        10.5001408719       17.8674508071       19.2334294723
 Zn        29.5501058873       19.5439118774       20.7350092384
 Zn        18.5956351890       27.0241294198       28.0856477109
 Zn        17.1419220496       23.7798052805       27.9870297188
 Zn        20.3515924756       13.1361599611       34.5994427209
 Zn        17.7506187394       13.7659242563       34.9677777960
 Zn        27.0312941302       28.9252863437       34.7766160256
 Zn        21.0475424475       26.2135361975        5.0329570709
 Zn        11.3603238741       20.7971739934       18.8369863159
 Zn        28.1853046841       20.0810817496       18.9499085734
 Zn        20.9442167949       16.0896226854       12.0734985543
 Zn        19.3651370841       13.3422206789       11.8380887210
 Zn        21.0625439882       14.2776474175        9.3911323010
 Zn        22.7500473065       13.3867078447       12.1415095541
 Zn        18.7334032744       24.8091807141       25.6687980576
 Zn        20.4484094209       24.0707646166       28.3659409940
  O        22.3415987371       23.1959055278       29.3046976036
  C        23.3247830318       23.9240398283       29.1444581347
  O        25.0260467246       22.6981750387       29.2806674972
  H        23.7279659802       24.1509105827       28.1067013335
  H        25.7803858738       23.1538340144       28.8978354653
  H        23.5653652492       24.5338910721       29.9963353484
  H        25.1358537515       22.8558154965       30.2533777040
     235
 i =      122, E =     -2904.5062070540
 Br        15.4367019815       20.2205756599       16.5416210949
 Br        26.9259359886       20.7606223884       24.9994362019
 Br         9.8736858642       16.6396985093       24.9632292150
 Br        26.7182139914       24.1049222708       16.4358835904
 Br        21.2821216202       17.1225423827        5.8412928044
 Br         6.8911349063       11.2858359750       10.8395594770
 Br        21.5259003617       20.7538421023       31.2120461563
 Br        32.7566005950       24.2408864240       30.5612164016
  C        17.8619344099       11.9974812695        8.1122008791
  C        15.9466945402       10.8608762868        6.4070513188
  C        17.9917782991       12.1333976209        6.7004718803
  C        15.8114018199       10.7251828739        7.7913382996
  C        17.0314803757       11.5680910055        5.8705070233
  C        16.7566069891       11.2950613250        8.6322165204
  C        21.1733125183       18.5099783127        7.1129532738
  C        21.0554975262       22.1142266921        7.3932784180
  C        21.0879532465       18.3752363121        8.5042289536
  C        21.1393021616       22.2366840648        6.0162362239
  C        21.0669094591       20.7624207880        7.7940702617
  C        21.1611970601       19.8635994209        6.7128792468
  C         6.5246555569       11.7210321853        9.0313874969
  C         7.5208023972       11.2556060526        5.6086846271
  C         5.3720452972       12.4630500477        8.6442600125
  C         8.7192115666       10.6438118512        6.0481784856
  C         6.7179322112       11.5688879558        6.6945047860
  C         7.3336939462       11.3377829178        7.9566934489
  C        21.7744204930       27.3410188618       30.7826142154
  C        23.7338942442       28.3980071880       32.5405186703
  C        21.7448962583       28.6970148103       31.2107971378
  C        23.7901164831       27.0488569065       32.1337317533
  C        22.7126620205       29.1588444153       32.0454540280
  C        22.8150115741       26.5498452815       31.2877024650
  C        19.7266161748       20.2051711747       31.1448362945
  C        17.4960581803       17.6095300754       32.2810569061
  C        18.6791492536       20.8366186549       30.4743867288
  C        18.5579183104       16.9971093557       32.9248985506
  C        17.9266239103       18.7710283747       31.6130939941
  C        19.3047097466       19.0224243781       31.7819215853
  C        33.2233356102       26.0846675853       30.8558865150
  C        32.1834871011       29.2050960048       32.4304995826
  C        34.3565375779       26.7131203907       30.3895723607
  C        31.0401293617       28.5697454595       32.9180817269
  C        32.8988224501       28.2857766095       31.7250985567
  C        32.3912428498       26.9438796529       31.5999902605
  C         9.9705774494       16.5607229675       21.4407985334
  C        12.3409524658       21.1567115372       21.5943392573
  C        12.7138892693       18.2959368841       17.5603014461
  C        29.3521342543       22.8237556296       17.4497396710
  C        27.4411474659       18.1434869007       17.1772292648
  C        27.0221133290       20.8508583677       21.5250453542
  C        18.3380885569       15.4947020766       13.4289853366
  C        18.8013462420       12.5442168239        9.0995497221
  C        21.0521586026       17.1861672319        9.3378504849
  C        23.7682954139       12.9252004986        9.5096213577
  C        23.4389007917       15.7673076322       13.6640225890
  C        21.0602780639       11.2880731950       13.1716789340
  C        21.2640191230       23.5398872878       25.4936066263
  C        20.8311577757       26.6989302239       29.8194073657
  C        18.6981526547       27.9387925779       25.1255041218
  C        16.0847473101       26.1028377971       29.3792661601
  C        16.1652715499       23.5250601027       25.2946581302
  C        18.6526209892       22.0626428014       29.6931124888
  C        18.4923757886       15.7607240155       33.6978135737
  C        24.8294256691       28.8686982213       33.4914344325
  C        29.9476887261       28.7063024860       33.6661519033
  C        21.1511707237       23.5280368120        5.2701062157
  C        14.9009013456       10.2867391842        5.4823123309
  C         9.8175569133       10.0373511370        5.1902121927
  C        26.3512829642       17.6307853126       16.2533359232
  C        24.4513824389       16.3928555651       14.5594031289
  C        25.1564991181       18.3079666108       15.8649170214
  C        25.6036878083       15.6731656146       14.9497999951
  C        24.2349041124       17.6906394864       15.0259436935
  C        26.4689378339       16.3555538213       15.7534395997
  C        13.3792922298       21.8048090332       22.5179873163
  C        15.1875952452       22.9512847100       24.3599348433
  C        14.5548709926       22.4498751652       22.0730433170
  C        14.0477844061       22.2740585047       24.8194756242
  C        15.4434578976       23.0136006518       22.9828277890
  C        13.1620182505       21.7159793084       23.9055623339
  C        14.9535107592       18.4279596773       16.2251238212
  C        16.0986564396       15.3879550532       14.6309218719
  C        13.8030690998       17.7922273516       16.6757669587
  C        17.2449917333       16.0527526755       14.2019614291
  C        15.2571650878       16.2484987668       15.3614931381
  C        15.7793008794       17.5545728116       15.4794254611
  C        25.7045785748       21.3662739061       23.6829465543
  C        22.4725850611       22.9410236343       23.3450822416
  C        25.8584877270       21.3221068745       22.2990814566
  C        22.3633733186       22.9839729407       24.7224355820
  C        23.6861427705       22.3359103636       22.9626529952
  C        24.4740328172       21.9350374481       24.0621354552
  C         9.9820731791       15.2336757364       23.7093747307
  C        10.1516930869       11.7465937570       23.6272074869
  C        10.0334147830       15.3698733135       22.3242247994
  C        10.1099945577       11.4535133845       24.8528796710
  C        10.1261861310       12.9908001194       23.0203917813
  C        10.0373140155       13.8867074128       24.1217811757
  C        28.4948113576       24.6244760630       16.1443801408
  C        30.7446913713       26.9655283051       14.6074670716
  C        29.6405881641       23.8736984101       16.6901227741
  C        29.6558025432       27.6810365930       14.0669700830
  C        30.3504414955       25.8524180931       15.3501736750
  C        28.9198047289       25.6990357858       15.4213097154
  H        25.7570149859       14.6495778621       14.6060809362
  H        23.3399573575       18.2300858100       14.7276652294
  H         7.8087327763       15.7694238799       16.1674806468
  H        13.8770348310       22.2051482783       25.8937011606
  H        16.3368420747       23.5154240177       22.6159070725
  H        12.2739239597       21.1890744248       24.2524701751
  H        15.9147221052       14.3414018627       14.3996214796
  H        21.7002683615       23.3418213397       22.6928250737
  H        18.7513411903       28.6443047679       24.1783769909
  H        31.7829464996       27.2487257327       14.4497805381
  H        14.9578884464       10.1736659247        8.1867227544
  H        17.1014683264       11.6849945039        4.7896322469
  H        16.6647998306       11.2013302212        9.7136689504
  H        20.9867134540       22.9791302181        8.0442523900
  H         7.3172041555       11.3907838910        4.5514696916
  H        24.6031318320       26.4247473372       32.5037310604
  H        13.5477734302       12.7641764395       32.1020590919
  H        22.8350743460       25.4979765507       31.0342093600
  H        16.4871302030       17.2081671323       32.3138918107
  H        22.5203321420       12.8709785394       33.3825006557
  H        26.6546994751       20.4753732881       16.2594783497
  H        13.0843195713       22.9925853103       19.8640346430
  H        20.6642305659       12.3099240350        7.1810044382
  H        19.1081855606       28.3200742932       30.9400593162
  O        10.0413724509       19.6252895368       19.4199464309
  O        10.1794815744       16.2393873913       20.1679724269
  O        11.7209753251       20.1804724955       22.0110488300
  O        12.8460049513       19.4310161212       18.1034110951
  O         9.8309934338       17.7043963853       21.8768292793
  O        11.7299062547       17.4735490674       17.7138642553
  O        12.1779350066       21.7433230532       20.4358863366
  O        11.1650507156       22.1734835221       17.6476400875
  O        27.5744859351       19.4746914672       17.1968687572
  O        28.6773745572       22.0727120955       18.0704089202
  O        28.0958624217       17.3674142047       17.8700926372
  O        28.0618470143       20.5054832668       22.1543680695
  O        26.8685402743       20.8450577239       20.2269500892
  O        21.1302482169       14.1717037181       11.3882084777
  O        19.2930925542       16.2782304091       13.0889813438
  O        18.3592335379       12.7774560947       10.2789300223
  O        21.0719265907       16.0497541526        8.7347075242
  O        18.2638360065       14.2451436994       13.1028720416
  O        20.9946378829       17.3623865170       10.6092310976
  O        20.0365662461       12.7629324015        8.7612414296
  O        22.9507859085       13.4048275795        8.7649890824
  O        23.6611071158       14.5402824427       13.3494112705
  O        24.0884476668       12.6469421641       10.6442716456
  O        22.4779272630       16.4851843137       13.2535804432
  O        19.9242146560       11.5322933848       12.8636794962
  O        22.2391452729       11.5520126880       13.1235042871
  O        18.6284570085       25.0474125162       27.6753048722
  O        20.2973320074       24.0823533387       24.8552266680
  O        21.2982908506       25.8063560377       29.0578769447
  O        18.5939851269       28.3958114786       26.2925021376
  O        21.3707490638       23.4737241807       26.7633128313
  O        18.7530187486       26.6683981106       24.8727333598
  O        19.5801895733       27.0676941536       29.8176669835
  O        16.6523296201       27.1262795286       29.2026061387
  O        15.9329762385       23.3966319096       26.5602806268
  O        15.7751286709       24.9603772451       29.3127630142
  O        17.1632020909       24.1485848037       24.8009464674
  O        19.6573609624       22.8376958350       29.6753073095
  O        17.5468281217       22.2382582476       29.0335520139
  O        18.9167032804       12.5831538316       35.6157302579
  O        19.5451345102       15.2578622986       34.1763378987
  O        24.9137418369       30.0111315066       33.9566489944
  O        28.9349976907       28.2992894170       34.2178745408
  O        17.2921679951       15.2482543930       33.8775468902
  O        21.6542584980       12.2673127759       33.9442858928
  O        25.7168018712       27.9203841164       33.7745290248
  O        21.2275205972       23.5907355091        4.0389698572
  O        13.9239588541        9.6607494473        5.9813032092
  O        21.0728162333       24.5704784591        6.1030021601
  O        15.0385254336       10.3971610243        4.2326921574
  O         9.6976632447       10.2823402504        3.9557902930
  O        10.7438188483        9.4587919292        5.8189844028
  O        25.8159610344       20.8368008198       15.8120447577
  O        23.4276086857       20.3052678489       15.8070294489
  O        24.7826888593       19.9187524646       17.9036988065
  O        13.9396200612       23.5372275394       19.7546569487
  O        16.2954320944       23.3210792488       20.2955996941
  O        14.9644798935       21.2426000129       19.7617830017
  O        20.6091140529       12.3039903247        6.1896396779
  O        19.0631541462       13.0125241793        4.4351535641
  O        19.2892426607       14.4146700144        6.5155377408
  O        19.1193982222       29.2584243062       31.2882525451
  O        12.6593774492       13.1601452329       31.6517696791
  O        20.4325974452       29.7310119333       29.0932866093
  S        13.7256846067       16.1133874848       16.1687707253
  S        17.3025919336       17.7335180795       14.6922434578
  S        24.4648601699       21.9730575015       21.4627816619
  S        23.7141050354       22.2702725611       25.5740651510
  S        10.1532761944       13.8227291803       21.5178653203
  S        10.0130181500       12.9573186349       25.6747349202
  S        31.1916833391       24.5986085527       16.2264418178
  S        28.1829718051       27.0228841458       14.4815795868
  S        20.9945013573       19.9348942851        9.3100916934
  S        21.2328703374       20.6956044811        5.1953568577
  S         5.1404577480       12.4124559652        7.0042353411
  S         8.9123216904       10.6085930628        7.7550146703
  S        17.1618090550       19.9675467271       30.6341705565
  S        20.0872701380       17.8150539998       32.7334062815
  S        34.4675109792       28.3178873476       30.8245522316
  S        30.9004294067       26.7213798064       32.4069796279
  S        24.6619962816       19.9330068764       16.4607174759
  S        15.0587165113       22.5692079803       20.3393911480
  S        19.2522358627       13.1201045463        5.8588795887
  S        20.4687329583       29.9245343492       30.5725044186
 Zn        10.5042790105       17.8627742687       19.2454288845
 Zn        29.5568002742       19.5516681493       20.7222698551
 Zn        18.6240265263       27.0470862793       28.0461281864
 Zn        17.1563064924       23.7702359371       27.9716341652
 Zn        20.3402381177       13.1290740063       34.6079688306
 Zn        17.7708879937       13.7699221005       34.9686440798
 Zn        27.0178234440       28.9599520684       34.7668684667
 Zn        21.0480100278       26.1958758575        5.0127891890
 Zn        11.3502785183       20.8068864805       18.8412023866
 Zn        28.1730969134       20.0611644825       18.9451513539
 Zn        20.9418349156       16.0897686407       12.0726468931
 Zn        19.3634868981       13.3542130690       11.8323712034
 Zn        21.0549524861       14.2863282255        9.3911609960
 Zn        22.7522618877       13.3891896427       12.1416781054
 Zn        18.7323204772       24.8233681395       25.6724560016
 Zn        20.4551582939       24.0754616771       28.3723547832
  O        22.3394300759       23.2023291237       29.3118771513
  C        23.3075345836       23.9359975469       29.1451210927
  O        25.0485384734       22.7051573402       29.2722494716
  H        23.7123328930       24.1755013131       28.1278580221
  H        25.8001026373       23.1358037362       28.8736159412
  H        23.5899475310       24.5455229839       29.9867932989
  H        25.1477426168       22.8048312391       30.2391773881
     235
 i =      123, E =     -2904.5514044559
 Br        15.4382196816       20.2264417294       16.5416339767
 Br        26.9230481236       20.7620974227       25.0028493048
 Br         9.8726342536       16.6402585253       24.9608394313
 Br        26.7195171269       24.1149376526       16.4284299439
 Br        21.2823673783       17.1211717114        5.8435739508
 Br         6.8825303709       11.2747095840       10.8375626957
 Br        21.5286568300       20.7571055216       31.2122172872
 Br        32.7606277782       24.2461096407       30.5614857429
  C        17.8630755456       11.9967634402        8.1091983546
  C        15.9408774806       10.8578997866        6.3986736855
  C        17.9915311431       12.1325743680        6.6975965617
  C        15.8109690547       10.7266902756        7.7837207283
  C        17.0283681294       11.5664272237        5.8717357452
  C        16.7569737081       11.2932819470        8.6262556935
  C        21.1732774550       18.5140178270        7.1099854245
  C        21.0546958042       22.1188859696        7.3970043218
  C        21.0881160071       18.3788730516        8.5015747115
  C        21.1382364786       22.2388664317        6.0212808466
  C        21.0678769696       20.7667788210        7.7918715601
  C        21.1612243580       19.8686790631        6.7096468626
  C         6.5331276937       11.7361171684        9.0337332729
  C         7.5195256366       11.2481911212        5.6084555945
  C         5.3869358987       12.4648610877        8.6401116734
  C         8.7186768180       10.6437594353        6.0472747650
  C         6.7178399328       11.5627934766        6.6964593690
  C         7.3341115488       11.3379506541        7.9564429518
  C        21.7583423052       27.3430564350       30.7922011798
  C        23.7274624768       28.3975520699       32.5405916544
  C        21.7482220997       28.6977685782       31.2203447588
  C        23.7871781941       27.0513859931       32.1369022710
  C        22.7065497973       29.1758201135       32.0635991031
  C        22.8039937698       26.5551583270       31.2992538773
  C        19.7289358189       20.2013721796       31.1490601172
  C        17.4866263606       17.6117547656       32.2753675591
  C        18.6823919549       20.8327559107       30.4773572285
  C        18.5475920381       17.0012150483       32.9174985707
  C        17.9254092440       18.7724243060       31.6126181857
  C        19.3042070849       19.0195515775       31.7861466878
  C        33.2286920466       26.0877779521       30.8533193980
  C        32.1768227575       29.1969134433       32.4354802798
  C        34.3611233931       26.7160528114       30.3812834895
  C        31.0337600193       28.5668358866       32.9204359013
  C        32.8997372517       28.2860908687       31.7284455968
  C        32.3926665580       26.9433157831       31.5986163295
  C         9.9655116827       16.5505466488       21.4388853712
  C        12.3383916475       21.1568074911       21.5856555153
  C        12.7166043837       18.2983047233       17.5686684951
  C        29.3487911661       22.8332650717       17.4622423693
  C        27.4298394466       18.1447125011       17.1707264095
  C        27.0340701189       20.8493966507       21.5170277354
  C        18.3397862761       15.4948457096       13.4339243053
  C        18.8030183858       12.5455079851        9.0980037359
  C        21.0524824558       17.1881410806        9.3337386344
  C        23.7789444110       12.9121291889        9.4958206989
  C        23.4380651334       15.7673089073       13.6639151559
  C        21.0531791889       11.2738035826       13.1766832442
  C        21.2603959604       23.5418478326       25.4975404910
  C        20.8261823157       26.7054563532       29.8137532092
  C        18.7009491679       27.8958751577       25.1179897112
  C        16.1184212190       26.0859516480       29.3480440148
  C        16.1666447096       23.5215194158       25.2979966046
  C        18.6470986300       22.0631261427       29.7041790724
  C        18.4894767307       15.7633144077       33.6891085745
  C        24.8382586129       28.8412885907       33.4796436157
  C        29.9472168386       28.6832351945       33.6749344965
  C        21.1501408627       23.5348009145        5.2890745731
  C        14.8951850503       10.2821810424        5.4760162629
  C         9.8173151452       10.0290621232        5.1870016494
  C        26.3497287606       17.6206607354       16.2552805243
  C        24.4506358608       16.3940389056       14.5587220386
  C        25.1634501226       18.3089515643       15.8666851629
  C        25.6038598198       15.6789652135       14.9485480353
  C        24.2397057655       17.6920720663       15.0305857898
  C        26.4815079124       16.3446546612       15.7536567894
  C        13.3729932408       21.8030880207       22.5114948754
  C        15.1844913590       22.9513068901       24.3593954198
  C        14.5505836614       22.4487933049       22.0697377157
  C        14.0431225532       22.2727061294       24.8131213414
  C        15.4385510384       23.0091555212       22.9823545757
  C        13.1554697060       21.7146946127       23.8995013556
  C        14.9552151375       18.4327172387       16.2271689154
  C        16.0959636512       15.3900107164       14.6316849522
  C        13.8053043587       17.7960328466       16.6812634256
  C        17.2438981415       16.0527409975       14.2038072978
  C        15.2542584387       16.2521007314       15.3607538496
  C        15.7784790491       17.5577695420       15.4793291977
  C        25.7086057062       21.3655167914       23.6795941052
  C        22.4745430556       22.9391522665       23.3416014809
  C        25.8716517471       21.3191371338       22.2968173434
  C        22.3606841780       22.9841370449       24.7210834115
  C        23.6892255652       22.3338455387       22.9547193127
  C        24.4760057629       21.9342413082       24.0558768421
  C         9.9758064988       15.2335585755       23.7050646414
  C        10.1532978145       11.7415015493       23.6270310559
  C        10.0301769802       15.3605640193       22.3185153957
  C        10.1107234528       11.4619097778       24.8547513851
  C        10.1261378371       12.9945851925       23.0189063780
  C        10.0364205730       13.8879921038       24.1223679697
  C        28.4988228464       24.6290957195       16.1361548762
  C        30.7439727283       26.9665984163       14.6070662656
  C        29.6308489560       23.8715278866       16.6878020754
  C        29.6601590081       27.6892818598       14.0595453786
  C        30.3485476837       25.8564687929       15.3491593298
  C        28.9183100788       25.7071733411       15.4153100747
  H        25.7541046748       14.6554462265       14.6030783597
  H        23.3409814516       18.2259304532       14.7322567316
  H         7.8124733124       15.7722300036       16.1715510869
  H        13.8644136044       22.2000851385       25.8852042197
  H        16.3312781422       23.5126490837       22.6182213599
  H        12.2682196895       21.1853950488       24.2442498669
  H        15.9115179008       14.3426947643       14.4030995960
  H        21.7035888108       23.3396147791       22.6867835089
  H        18.7344987388       28.5657672389       24.4283769909
  H        31.7854014534       27.2410690073       14.4541747843
  H        14.9593559814       10.1759127064        8.1832679855
  H        17.0988583561       11.6815708140        4.7906682360
  H        16.6657856226       11.2025193219        9.7082470960
  H        20.9864440839       22.9816253405        8.0503707098
  H         7.3082624316       11.3815227094        4.5523165233
  H        24.5969758909       26.4238388144       32.5083846157
  H        13.5307007851       12.7737505418       32.1072732504
  H        22.8127892649       25.5043599530       31.0489098451
  H        16.4800970738       17.2069321567       32.3120038736
  H        22.4697162604       12.7838032333       33.4073360843
  H        26.6541837771       20.4793076708       16.2626385251
  H        13.0823000972       22.9915377822       19.8654036507
  H        20.6633722040       12.3130603088        7.1792075982
  H        19.1049475231       28.3356066285       30.9464925896
  O        10.0397170332       19.6210764236       19.4300438677
  O        10.1925831861       16.2248299214       20.1697374611
  O        11.7355608500       20.1722780551       22.0151028985
  O        12.8465477818       19.4368530011       18.1024076815
  O         9.8324033407       17.6882462744       21.8950995994
  O        11.7345788385       17.4750382227       17.7361596983
  O        12.1720400825       21.7797987676       20.4433068314
  O        11.1668835063       22.1661977925       17.6462378534
  O        27.5779828358       19.4682332063       17.1970052283
  O        28.6903916174       22.0718194159       18.0794856241
  O        28.0774260741       17.3747421739       17.8806168110
  O        28.0713860314       20.4979276608       22.1461838405
  O        26.8670533598       20.8448530837       20.2245757382
  O        21.1340679362       14.1711672556       11.3865642394
  O        19.2927540217       16.2798798856       13.0893433125
  O        18.3547280387       12.7778979396       10.2741259199
  O        21.0717073363       16.0525867188        8.7282126792
  O        18.2542724938       14.2479196860       13.1007166336
  O        20.9941738132       17.3653536158       10.6045834151
  O        20.0374006903       12.7709250783        8.7622931444
  O        22.9537732559       13.3977864984        8.7648762497
  O        23.6704370623       14.5423566177       13.3470891746
  O        24.0845676640       12.6402552457       10.6281317589
  O        22.4767567708       16.4829002490       13.2439721817
  O        19.9299603607       11.5429098247       12.8600447620
  O        22.2280455579       11.5332843601       13.1065094342
  O        18.6204074354       25.0634968692       27.6625896745
  O        20.2908591261       24.0914570761       24.8700729227
  O        21.3015127308       25.8135042977       29.0508983621
  O        18.5926748145       28.4164162102       26.2882773570
  O        21.3767807165       23.4798797090       26.7721354495
  O        18.7565541007       26.7000013053       24.7770042565
  O        19.5702740785       27.0585675462       29.7989649669
  O        16.6648070752       27.1144549531       29.2053822488
  O        15.9165707267       23.4029591154       26.5640565201
  O        15.7822853776       24.9666219955       29.2962978003
  O        17.1620396738       24.1473525337       24.8039650358
  O        19.6541465272       22.8375994057       29.6694590667
  O        17.5367408405       22.2466700059       29.0550047290
  O        18.8831851786       12.5643601409       35.6286368837
  O        19.5512265575       15.2670328399       34.1580895162
  O        24.9447618793       29.9908836892       33.9473969409
  O        28.9379292318       28.3108945599       34.2386052216
  O        17.2972216581       15.2408354674       33.8865531895
  O        21.7430408535       12.3371915526       33.9004163189
  O        25.7093338920       27.8932579625       33.7756647796
  O        21.2245799666       23.5848783204        4.0554005031
  O        13.9242050616        9.6577196667        5.9861680940
  O        21.0721257557       24.5633200646        6.1323147940
  O        15.0472932698       10.3908672315        4.2284623543
  O         9.6781728646       10.3137361299        3.9618206507
  O        10.7415795152        9.4467407515        5.8117146397
  O        25.8162671753       20.8388330689       15.8132845061
  O        23.4262706173       20.3090644320       15.8086479053
  O        24.7868939741       19.9141882232       17.9029050404
  O        13.9364374099       23.5377003166       19.7569378779
  O        16.2948478710       23.3210200030       20.2934377594
  O        14.9626113589       21.2434259729       19.7592703516
  O        20.6078227714       12.3006007240        6.1877118236
  O        19.0541904252       13.0100999922        4.4346877739
  O        19.2880390599       14.4141420310        6.5146538349
  O        19.1303632251       29.2708433318       31.2960036943
  O        12.6748672305       13.1580669071       31.6495356222
  O        20.4259735104       29.7544773130       29.0807052814
  S        13.7246754918       16.1176705984       16.1723243423
  S        17.3031855218       17.7339834942       14.6932709480
  S        24.4777020207       21.9687608703       21.4579736285
  S        23.7168540801       22.2722282347       25.5675662037
  S        10.1505400857       13.8144523783       21.5085337375
  S        10.0135997602       12.9672445612       25.6741907933
  S        31.1806780496       24.5940252262       16.2269154442
  S        28.1834450061       27.0308140348       14.4778291445
  S        20.9956486879       19.9381243228        9.3061967438
  S        21.2347096711       20.7018480127        5.1914045242
  S         5.1430416700       12.4054642557        6.9962620438
  S         8.9180676931       10.6239244201        7.7564864638
  S        17.1618299574       19.9697297886       30.6351570817
  S        20.0846545717       17.8105451461       32.7386314447
  S        34.4671404678       28.3242191379       30.8284551966
  S        30.9015216064       26.7043884471       32.3973274048
  S        24.6618262174       19.9327538428       16.4594796561
  S        15.0581209971       22.5693236952       20.3379890914
  S        19.2523981282       13.1190396083        5.8581186329
  S        20.4820424230       29.9090610897       30.5600961243
 Zn        10.4843175795       17.8546685815       19.2429767937
 Zn        29.5874518410       19.5633717511       20.7642018028
 Zn        18.6583581257       27.0654789350       27.9951266836
 Zn        17.1865230689       23.7602154548       27.9449244741
 Zn        20.3083322976       13.1009721141       34.6131726452
 Zn        17.7566909733       13.7580394762       34.9735713520
 Zn        26.9933763543       29.0030880503       34.7531493128
 Zn        21.0455868673       26.1706170641        4.9790067047
 Zn        11.3470503418       20.8139634292       18.8600738997
 Zn        28.1421528532       20.0445243170       18.9296139162
 Zn        20.9381928136       16.0877652351       12.0684649862
 Zn        19.3600000588       13.3693462259       11.8250486809
 Zn        21.0579288550       14.2955779981        9.3983786761
 Zn        22.7522853540       13.3868744711       12.1387467972
 Zn        18.7263104486       24.8906078515       25.6593073526
 Zn        20.4437701636       24.0905616367       28.3763482507
  O        22.3453350840       23.1850729623       29.3144433417
  C        23.2979479789       23.9481108685       29.1337379020
  O        25.0714704439       22.7264444869       29.2726489638
  H        23.6813794151       24.2150790184       28.1489639902
  H        25.8336049007       23.1182802089       28.8468855983
  H        23.6254809450       24.5684615602       29.9710529166
  H        25.1602251784       22.7227653381       30.2266791478
     235
 i =      124, E =     -2904.4847224258
 Br        15.4407231737       20.2311878221       16.5406506467
 Br        26.9223828101       20.7628624110       25.0063091541
 Br         9.8702413480       16.6409889470       24.9588395612
 Br        26.7131098586       24.1260298741       16.4195735326
 Br        21.2827245827       17.1209224410        5.8440867779
 Br         6.8761486115       11.2674638906       10.8349726664
 Br        21.5311957086       20.7595174805       31.2134169873
 Br        32.7646863237       24.2496456832       30.5615653893
  C        17.8645015184       11.9961387049        8.1071025313
  C        15.9329018440       10.8607791242        6.3925533129
  C        17.9899477310       12.1269941875        6.6953133121
  C        15.8094300071       10.7272674061        7.7776611492
  C        17.0235319499       11.5655394747        5.8697931975
  C        16.7580438452       11.2904494417        8.6200786984
  C        21.1734060170       18.5195228910        7.1048625553
  C        21.0531935498       22.1199681768        7.4079274387
  C        21.0886023336       18.3858385652        8.4969463071
  C        21.1376522204       22.2323011275        6.0331698105
  C        21.0689318837       20.7665744679        7.7937574013
  C        21.1620536657       19.8751188671        6.7052820348
  C         6.5352365406       11.7410367021        9.0347739555
  C         7.5243736408       11.2492216839        5.6094930115
  C         5.4005762763       12.4681464187        8.6371513701
  C         8.7158009433       10.6350164085        6.0456897227
  C         6.7159267352       11.5519114881        6.6982624013
  C         7.3396640591       11.3467578410        7.9566535432
  C        21.7471115505       27.3445238559       30.7979811372
  C        23.7205166079       28.3975628967       32.5412463490
  C        21.7387516568       28.7013031704       31.2182399332
  C        23.7792688136       27.0527435465       32.1395954568
  C        22.6950578518       29.1814675420       32.0704287806
  C        22.7902967104       26.5528257585       31.3107174197
  C        19.7310153762       20.1997079156       31.1510182649
  C        17.4769381507       17.6120747317       32.2713917931
  C        18.6844291682       20.8365951597       30.4841681361
  C        18.5363376050       16.9981144613       32.9089632345
  C        17.9225798144       18.7729852750       31.6137310885
  C        19.3017615518       19.0192750671       31.7880604798
  C        33.2336060109       26.0894496057       30.8506960345
  C        32.1680750974       29.1843498929       32.4409811646
  C        34.3602954746       26.7241341456       30.3759733371
  C        31.0272122917       28.5583751464       32.9227465759
  C        32.9009466850       28.2858688302       31.7314291138
  C        32.3946154183       26.9425660917       31.5969135576
  C         9.9917092897       16.5381539060       21.4457531161
  C        12.3340020967       21.1676266622       21.5909154803
  C        12.7211891613       18.3011186928       17.5777838731
  C        29.3427469321       22.8569722426       17.4607718215
  C        27.4100022717       18.1461237298       17.1727126508
  C        27.0410588207       20.8451033404       21.5127510761
  C        18.3337231793       15.4984413152       13.4282378305
  C        18.8045306801       12.5515376132        9.0957819114
  C        21.0516871178       17.1924225980        9.3272506388
  C        23.7775909009       12.9050769317        9.4842389435
  C        23.4428037494       15.7674644343       13.6536217595
  C        21.0468621574       11.2655487230       13.1757606127
  C        21.2615581643       23.5547767588       25.5042383330
  C        20.8209805339       26.7072139713       29.8134407252
  C        18.6877048675       27.7559967951       25.2312344433
  C        16.1535224174       26.0724136190       29.3050166216
  C        16.1578114504       23.5319471773       25.2999687961
  C        18.6459646338       22.0597082551       29.6993633070
  C        18.4911236095       15.7679176829       33.6940470320
  C        24.8452386554       28.8166977601       33.4728961028
  C        29.9500498355       28.6656537645       33.6795801703
  C        21.1495208359       23.5254286315        5.3054914984
  C        14.8996237390       10.2663568007        5.4700635761
  C         9.8214082439       10.0282196137        5.1810557037
  C        26.3508691695       17.6098460886       16.2508120768
  C        24.4464970161       16.3923358915       14.5609317836
  C        25.1670499267       18.3048978796       15.8691677372
  C        25.6045591699       15.6854082521       14.9459240811
  C        24.2428519024       17.6932533319       15.0306259168
  C        26.4910973401       16.3313856909       15.7548945373
  C        13.3771302244       21.8015958650       22.5107669407
  C        15.1859186315       22.9410714492       24.3586862660
  C        14.5518563655       22.4522680020       22.0673523981
  C        14.0368641814       22.2739970969       24.8104668192
  C        15.4375434327       23.0116489548       22.9826852727
  C        13.1483480448       21.7158331107       23.8970557091
  C        14.9551512934       18.4373489729       16.2309494332
  C        16.0924427737       15.3929216099       14.6317556449
  C        13.8064009535       17.7989899048       16.6872525449
  C        17.2445104739       16.0525688023       14.2105762602
  C        15.2517458726       16.2566401915       15.3607349112
  C        15.7764951766       17.5621473234       15.4807637739
  C        25.7130631000       21.3648168322       23.6780037420
  C        22.4766834916       22.9376467653       23.3385565158
  C        25.8822481963       21.3195528518       22.2961185971
  C        22.3545243160       22.9811791023       24.7199594264
  C        23.6932138372       22.3326099533       22.9472224551
  C        24.4779083909       21.9338779282       24.0502803246
  C         9.9732716593       15.2333130642       23.7026591165
  C        10.1554180619       11.7330241922       23.6258141310
  C        10.0165399931       15.3448595224       22.3142771421
  C        10.1118987034       11.4720917328       24.8576825182
  C        10.1246442002       12.9936061815       23.0195031623
  C        10.0350160799       13.8884769686       24.1202078655
  C        28.4954016719       24.6350292315       16.1274509384
  C        30.7472491833       26.9640215737       14.6060334746
  C        29.6258422456       23.8868340584       16.6750545103
  C        29.6674262862       27.6929966801       14.0571475476
  C        30.3438648822       25.8596785164       15.3506675048
  C        28.9143074824       25.7144865100       15.4087688837
  H        25.7511244592       14.6617174390       14.5993830338
  H        23.3401652249       18.2228579362       14.7363483852
  H         7.8160264862       15.7749234280       16.1754475780
  H        13.8506517138       22.1938322944       25.8799547305
  H        16.3306044896       23.5110913591       22.6167022133
  H        12.2621993698       21.1805846755       24.2360659579
  H        15.9080820760       14.3444882440       14.4070193846
  H        21.7081855385       23.3359001714       22.6796006760
  H        18.7333774958       28.7866425919       24.3727579094
  H        31.7888543233       27.2373239268       14.4566758939
  H        14.9592123815       10.1774711296        8.1805393357
  H        17.0977549861       11.6789084548        4.7890663292
  H        16.6661228670       11.2030710720        9.7022621187
  H        20.9861145461       22.9849365694        8.0589597539
  H         7.2999797132       11.3696858477        4.5539973633
  H        24.5878937409       26.4218560578       32.5102575100
  H        13.5156773191       12.7812006757       32.1095607357
  H        22.7905760911       25.5040511499       31.0591422053
  H        16.4707136245       17.2066305906       32.3081025795
  H        22.4198565379       12.7239839762       33.4305872506
  H        26.6510891476       20.4840675112       16.2611273142
  H        13.0800172125       22.9916183120       19.8688979051
  H        20.6624164442       12.3173356562        7.1783254652
  H        19.0990135932       28.3504130063       30.9494181729
  O        10.0392162562       19.6197223041       19.4434045532
  O        10.1939415600       16.2144205551       20.1745309258
  O        11.7505794979       20.1570537979       21.9996101676
  O        12.8535356789       19.4430522684       18.0990513079
  O         9.8254971911       17.6689657010       21.9095585247
  O        11.7430346730       17.4732808103       17.7468937649
  O        12.1629169539       21.7866567529       20.4504049783
  O        11.1646195558       22.1505974682       17.6424367274
  O        27.5889270506       19.4625534133       17.1985766347
  O        28.7158481468       22.0517806300       18.1018146339
  O        28.0537442136       17.3835947704       17.8928957195
  O        28.0780283488       20.4924863749       22.1399460578
  O        26.8618157511       20.8475080877       20.2257345990
  O        21.1362002389       14.1673576776       11.3861259606
  O        19.2950812219       16.2793998071       13.0943341089
  O        18.3533456598       12.7794333095       10.2705250666
  O        21.0732900733       16.0550255552        8.7249377037
  O        18.2458896074       14.2504466338       13.1012969944
  O        20.9944315453       17.3621232731       10.5991223791
  O        20.0379499675       12.7761190916        8.7602514849
  O        22.9511729728       13.3940682933        8.7569276440
  O        23.6811849317       14.5420650804       13.3414617411
  O        24.0914008199       12.6220678494       10.6171190903
  O        22.4756275776       16.4806294751       13.2385248300
  O        19.9274398671       11.5502500156       12.8592632653
  O        22.2223987158       11.5173158426       13.0878099329
  O        18.6119512152       25.0775573657       27.6461505498
  O        20.2906749918       24.0953670874       24.8744045627
  O        21.3037842615       25.8197667481       29.0441367534
  O        18.6020634140       28.3685242320       26.3837287355
  O        21.3781317300       23.4833037048       26.7832683886
  O        18.7624757624       26.6724848466       24.7435302546
  O        19.5662259608       27.0557233278       29.7818660569
  O        16.6771091089       27.1114456387       29.2067283416
  O        15.9033750781       23.4050476955       26.5662183683
  O        15.7916088261       24.9662344468       29.2897098737
  O        17.1634112269       24.1435211595       24.8101608939
  O        19.6471990186       22.8439755343       29.6639362727
  O        17.5249645003       22.2576928781       29.0707588322
  O        18.8435567718       12.5574094606       35.6481963885
  O        19.5599809969       15.2663009385       34.1478232511
  O        24.9719010477       29.9772808021       33.9286172690
  O        28.9400564249       28.3317553975       34.2583165163
  O        17.2993030811       15.2455727937       33.8937968932
  O        21.8826197057       12.3932960333       33.8578642728
  O        25.7093036943       27.8801633718       33.7779221442
  O        21.2238254160       23.5844426495        4.0672487776
  O        13.9236420528        9.6600765628        5.9891528375
  O        21.0711737693       24.5567343752        6.1231576228
  O        15.0526955507       10.3830888670        4.2237551078
  O         9.6709340146       10.3281404716        3.9625132493
  O        10.7367427719        9.4369570255        5.8041158621
  O        25.8133444000       20.8464477681       15.8158905097
  O        23.4278716819       20.3111075473       15.8102641055
  O        24.7916469320       19.9128881599       17.9020792846
  O        13.9330786773       23.5395805029       19.7566154815
  O        16.2949038150       23.3195734181       20.2913729472
  O        14.9600925464       21.2452000739       19.7568779673
  O        20.6067100739       12.3056657373        6.1857605594
  O        19.0459522290       13.0091048016        4.4344299811
  O        19.2889055410       14.4137645581        6.5126084506
  O        19.1531153490       29.2807362934       31.3012906143
  O        12.6907912889       13.1621417597       31.6457596550
  O        20.4231706404       29.7539933048       29.0759168774
  S        13.7244677560       16.1215618485       16.1764296786
  S        17.3018628338       17.7353476547       14.6947735802
  S        24.4885049844       21.9654970447       21.4515711507
  S        23.7177955420       22.2747022218       25.5611588733
  S        10.1486090465       13.8013032865       21.5021427044
  S        10.0139301223       12.9796688588       25.6714164284
  S        31.1818811988       24.5951960375       16.2231460922
  S        28.1828391584       27.0368625977       14.4743798720
  S        20.9964188867       19.9403947536        9.3080898892
  S        21.2361781642       20.7053763095        5.1843732328
  S         5.1486031001       12.3991007634        6.9891548201
  S         8.9219492669       10.6361440219        7.7577479908
  S        17.1642879896       19.9722887617       30.6361200588
  S        20.0765208997       17.8061038767       32.7414417627
  S        34.4668334235       28.3344147928       30.8344870375
  S        30.9023118213       26.6838828900       32.3859291348
  S        24.6639459929       19.9298852583       16.4580092774
  S        15.0566361472       22.5707600277       20.3359583250
  S        19.2475428468       13.1175665160        5.8584184177
  S        20.4956514364       29.9234526913       30.5528344986
 Zn        10.4826594503       17.8539297791       19.2434179079
 Zn        29.6131693736       19.5818409996       20.8084740378
 Zn        18.6887797050       27.0394048808       27.9854467513
 Zn        17.2149176833       23.7551853809       27.9165112430
 Zn        20.2884552478       13.0564598118       34.6180183262
 Zn        17.7422263141       13.7539684296       34.9765135582
 Zn        26.9711302144       29.0593535292       34.7427431463
 Zn        21.0409201510       26.1508001572        4.9493954691
 Zn        11.3468720445       20.8102487549       18.8678932327
 Zn        28.1156446964       20.0231808447       18.9349928143
 Zn        20.9363517879       16.0824956287       12.0648480020
 Zn        19.3554578337       13.3806208566       11.8209032270
 Zn        21.0612947492       14.3004109008        9.4055374459
 Zn        22.7534403763       13.3788749041       12.1293926745
 Zn        18.7286522301       24.9227059106       25.6595405480
 Zn        20.4225286906       24.1124183459       28.3770409532
  O        22.3541385854       23.1658011750       29.3121153023
  C        23.2968691960       23.9283473234       29.1094452906
  O        25.0864070363       22.7238233693       29.2679710444
  H        23.6506383932       24.2446153689       28.1594887390
  H        25.8678281770       23.1144927730       28.8431805858
  H        23.6610611450       24.6037593960       29.9478064311
  H        25.1836040172       22.6594554875       30.2138034373
     235
 i =      125, E =     -2904.5519562665
 Br        15.4410656352       20.2317207548       16.5405953365
 Br        26.9240903473       20.7624866379       25.0079175103
 Br         9.8684303026       16.6432144578       24.9573056052
 Br        26.7101745253       24.1279791547       16.4167476224
 Br        21.2828560429       17.1216621988        5.8421408286
 Br         6.8734359562       11.2669594277       10.8347010147
 Br        21.5310457341       20.7594021981       31.2151546632
 Br        32.7674047801       24.2490009086       30.5602532374
  C        17.8664131935       11.9915628266        8.1071413212
  C        15.9246245777       10.8798395373        6.3959635655
  C        17.9861982094       12.1224140442        6.6951786121
  C        15.8111470671       10.7200674908        7.7795129869
  C        17.0259859167       11.5605822732        5.8625484507
  C        16.7561973948       11.2922035489        8.6199107686
  C        21.1737816840       18.5206071280        7.1023739296
  C        21.0527649013       22.1156450900        7.4122885071
  C        21.0898818170       18.3900267323        8.4948000194
  C        21.1389977540       22.2292872673        6.0378509005
  C        21.0686597079       20.7620047927        7.7972633727
  C        21.1627445123       19.8761209050        6.7041775207
  C         6.5300570464       11.7317746821        9.0340622396
  C         7.5292620886       11.2536602877        5.6098597019
  C         5.4046773002       12.4758507317        8.6361978886
  C         8.7124304478       10.6229379762        6.0439928793
  C         6.7142939379       11.5430440505        6.6984200240
  C         7.3486057820       11.3597949747        7.9577904544
  C        21.7546357682       27.3500732165       30.7962680257
  C        23.7225472833       28.4016621397       32.5343079471
  C        21.7204718822       28.7101058508       31.2063753138
  C        23.7656522990       27.0508267701       32.1428497117
  C        22.6866658370       29.1718286937       32.0613315491
  C        22.7824895104       26.5412382073       31.3125337676
  C        19.7310351473       20.2032257030       31.1479066836
  C        17.4769450304       17.6099464840       32.2727114410
  C        18.6797673335       20.8472058110       30.4938762977
  C        18.5352569339       16.9912166345       32.9084945300
  C        17.9198563858       18.7721738484       31.6150356639
  C        19.2986769122       19.0235788655       31.7842773903
  C        33.2327812514       26.0904967043       30.8491568408
  C        32.1655401252       29.1817256971       32.4434671674
  C        34.3580900363       26.7300432978       30.3774045280
  C        31.0254365600       28.5545872808       32.9243979711
  C        32.8999526660       28.2858218251       31.7320828105
  C        32.3945279937       26.9412451976       31.5978566251
  C        10.0388884732       16.5326525861       21.4558124458
  C        12.3328900296       21.1755040537       21.5991491272
  C        12.7206056578       18.3076460584       17.5736790747
  C        29.3483802245       22.8512713547       17.4651372769
  C        27.3950835083       18.1435274235       17.1930332507
  C        27.0390971680       20.8403331063       21.5175377618
  C        18.3201054680       15.5041202093       13.4105459526
  C        18.8032207844       12.5589576826        9.0918628603
  C        21.0490924703       17.1963705397        9.3255477931
  C        23.7682117890       12.9046226906        9.4852485064
  C        23.4594279983       15.7728735994       13.6308140793
  C        21.0471877588       11.2725785882       13.1639663950
  C        21.2744262907       23.5702886835       25.5033362819
  C        20.8220131476       26.7000562165       29.8279592997
  C        18.6851208712       27.8087723272       25.2443054115
  C        16.1747213680       26.0668360306       29.2829682552
  C        16.1268519978       23.5648846843       25.2977276091
  C        18.6555036384       22.0486154621       29.6761474439
  C        18.4913008584       15.7689956949       33.7044899658
  C        24.8382775319       28.8085786921       33.4904184806
  C        29.9540183725       28.6623182314       33.6812405680
  C        21.1501349104       23.5203069178        5.3107881687
  C        14.9198746211       10.2414071155        5.4691991094
  C         9.8265234503       10.0352497709        5.1745765864
  C        26.3596735827       17.6177171316       16.2354989517
  C        24.4385101605       16.3853797748       14.5733336998
  C        25.1594387054       18.2986504550       15.8729288032
  C        25.6072054580       15.6857620436       14.9404258172
  C        24.2424967432       17.6943809993       15.0216576478
  C        26.4864620500       16.3314431635       15.7573053257
  C        13.3838906184       21.8028755364       22.5122444823
  C        15.1936600539       22.9138853322       24.3563045181
  C        14.5571555032       22.4522400031       22.0663527279
  C        14.0269535036       22.2799783215       24.8130223527
  C        15.4356525843       23.0232779066       22.9806921007
  C        13.1469529539       21.7152048983       23.8964363804
  C        14.9529737375       18.4388072409       16.2319368191
  C        16.0904783213       15.3952130919       14.6311776187
  C        13.8077595361       17.7983938214       16.6920529725
  C        17.2480344487       16.0524450931       14.2201814525
  C        15.2515322371       16.2588513665       15.3622707671
  C        15.7751618005       17.5647263492       15.4819306409
  C        25.7132189202       21.3655990523       23.6805123454
  C        22.4764384223       22.9388309195       23.3359071229
  C        25.8792185731       21.3239884737       22.2977750258
  C        22.3545878193       22.9726460746       24.7180997685
  C        23.6937327238       22.3330530215       22.9471488485
  C        24.4769728240       21.9345278643       24.0511598134
  C         9.9755673005       15.2321406339       23.7051959784
  C        10.1561177062       11.7254279855       23.6248884351
  C         9.9987313814       15.3366371723       22.3170342900
  C        10.1133952546       11.4755678874       24.8588515708
  C        10.1225641666       12.9839277451       23.0222797164
  C        10.0356036961       13.8861345075       24.1161518586
  C        28.4937096656       24.6342595456       16.1293685990
  C        30.7522206359       26.9612801660       14.6039442515
  C        29.6250029626       23.8849935956       16.6783290274
  C        29.6716098626       27.6934402006       14.0608175102
  C        30.3399433825       25.8612518094       15.3509259267
  C        28.9104733455       25.7131574818       15.4073958717
  H        25.7511397357       14.6603927784       14.5977357781
  H        23.3374267586       18.2253095484       14.7388145145
  H         7.8178685225       15.7763990544       16.1775339794
  H        13.8477922352       22.1909167905       25.8831256438
  H        16.3353497254       23.5101748925       22.6134149334
  H        12.2606064626       21.1795774171       24.2346343712
  H        15.9072061749       14.3460448566       14.4086702802
  H        21.7075670013       23.3350312719       22.6761559972
  H        18.7341435326       28.8327976228       24.2977141370
  H        31.7921767556       27.2396906272       14.4550811839
  H        14.9558711893       10.1774330597        8.1813144571
  H        17.0989176979       11.6806361772        4.7827461874
  H        16.6658537883       11.2024301136        9.7015540607
  H        20.9860328044       22.9842377304        8.0594089967
  H         7.2980680526       11.3647340859        4.5547763590
  H        24.5821302764       26.4252450003       32.5078595361
  H        13.5146176371       12.7813767347       32.1068326262
  H        22.7889973306       25.4918234961       31.0603844846
  H        16.4677222766       17.2092805002       32.3042155682
  H        22.4819086541       12.8629487029       33.3066593207
  H        26.6495471519       20.4860447598       16.2587267290
  H        13.0800951742       22.9931496903       19.8720375083
  H        20.6631094448       12.3177155460        7.1770069590
  H        19.0940873677       28.3485261305       30.9513167781
  O        10.0398620913       19.6224132661       19.4472387582
  O        10.1765401039       16.2197435220       20.1747634941
  O        11.7619299184       20.1492678991       21.9910404383
  O        12.8616467666       19.4420973968       18.1097844093
  O         9.8175327580       17.6632074105       21.9059647330
  O        11.7547193815       17.4685327804       17.7535544789
  O        12.1553916688       21.7680253989       20.4497918455
  O        11.1629739096       22.1452015678       17.6360475053
  O        27.5856930877       19.4612433741       17.1828643187
  O        28.7217118535       22.0635626304       18.1001444700
  O        28.0513803139       17.3831566147       17.9002008030
  O        28.0854469736       20.4872888469       22.1287152820
  O        26.8694536827       20.8442593906       20.2279065076
  O        21.1324349763       14.1670647836       11.3879031629
  O        19.2988602747       16.2758177648       13.1024942960
  O        18.3578261637       12.7802651069       10.2701586556
  O        21.0755379780       16.0553746631        8.7299517150
  O        18.2486892018       14.2492019965       13.1053466460
  O        20.9958117958       17.3565137939       10.5991484244
  O        20.0380985475       12.7733089275        8.7571165215
  O        22.9498026556       13.4000575617        8.7506590479
  O        23.6865527114       14.5391651619       13.3410038161
  O        24.0917846954       12.6260140094       10.6201026363
  O        22.4729749686       16.4793033718       13.2534987214
  O        19.9112945738       11.5423005746       12.8643973424
  O        22.2322142646       11.5164695756       13.0954139670
  O        18.6112469440       25.0807404927       27.6409106564
  O        20.2955645754       24.0850220615       24.8632084270
  O        21.3014622986       25.8198730968       29.0475614017
  O        18.6116185967       28.2940723051       26.4052837211
  O        21.3724354550       23.4737820362       26.7821707148
  O        18.7559394309       26.6783783360       24.8000326084
  O        19.5739066951       27.0675237086       29.7769127728
  O        16.6709668161       27.1433940648       29.2124375796
  O        15.9135482123       23.3916083752       26.5670212704
  O        15.7796039171       24.9486642571       29.3066893505
  O        17.1650517329       24.1296775365       24.8126937937
  O        19.6422476445       22.8503184928       29.6695472039
  O        17.5173481663       22.2591763455       29.0746760693
  O        18.8268790454       12.5682511040       35.6719721603
  O        19.5582877807       15.2620448383       34.1597332087
  O        24.9932512517       29.9802860224       33.9264343317
  O        28.9475398969       28.3400131812       34.2686070231
  O        17.2967095419       15.2524186203       33.9013079080
  O        21.8681316780       12.2506519565       33.9679605559
  O        25.7217645302       27.8914562895       33.7705951162
  O        21.2241247883       23.5945112181        4.0703993944
  O        13.9197921675        9.6720220948        5.9858887967
  O        21.0713896981       24.5591485909        6.1095445037
  O        15.0411437946       10.3914039029        4.2203625984
  O         9.6750524243       10.3288656126        3.9563677433
  O        10.7242850098        9.4394793326        5.8153499177
  O        25.8115210106       20.8473305780       15.8145924996
  O        23.4310777663       20.3062053890       15.8090269624
  O        24.7891322097       19.9156920554       17.9035976690
  O        13.9335780542       23.5409126631       19.7521828430
  O        16.2957803201       23.3182443215       20.2944118839
  O        14.9595640369       21.2447552375       19.7597246548
  O        20.6059872551       12.3146017898        6.1838197223
  O        19.0579172724       13.0119450963        4.4325451716
  O        19.2922704264       14.4137712885        6.5115820538
  O        19.1633822860       29.2813226629       31.2929967284
  O        12.6961902807       13.1690885561       31.6549881169
  O        20.4285311559       29.7205281147       29.0851293695
  S        13.7240648658       16.1226206166       16.1772900154
  S        17.3003535326       17.7377266624       14.6960924246
  S        24.4854771741       21.9672341570       21.4486645844
  S        23.7194027748       22.2743881749       25.5638569887
  S        10.1488480740       13.7940965023       21.5079444429
  S        10.0133516321       12.9843741555       25.6697036320
  S        31.1797354544       24.5966341923       16.2220313432
  S        28.1844945321       27.0381384722       14.4716723116
  S        20.9962386967       19.9403700015        9.3136475315
  S        21.2356217223       20.7061863480        5.1832023675
  S         5.1502187421       12.3955538576        6.9901297630
  S         8.9248842772       10.6395696285        7.7562010002
  S        17.1649241416       19.9716772646       30.6360882432
  S        20.0694250568       17.8084764205       32.7382030842
  S        34.4673494820       28.3390341693       30.8364759044
  S        30.9004369400       26.6751544475       32.3818297747
  S        24.6662363388       19.9273355834       16.4591163279
  S        15.0555806408       22.5723189117       20.3342627094
  S        19.2404563783       13.1169819013        5.8594142827
  S        20.4960262506       29.9652857953       30.5584704357
 Zn        10.4955379859       17.8625980429       19.2463050530
 Zn        29.6387813399       19.5718305839       20.8354387838
 Zn        18.6908797628       27.0176366797       28.0071042359
 Zn        17.2200447330       23.7515075288       27.9174480123
 Zn        20.2873039728       13.0347633705       34.6118438722
 Zn        17.7380892069       13.7597885600       34.9744152452
 Zn        26.9669336382       29.0901539507       34.7365362177
 Zn        21.0393142893       26.1461143961        4.9459811330
 Zn        11.3435852149       20.8072213370       18.8589134507
 Zn        28.1013699515       20.0262188371       18.9217684616
 Zn        20.9404988948       16.0823644076       12.0698688796
 Zn        19.3523314603       13.3795812121       11.8215982913
 Zn        21.0555675965       14.2977433648        9.4076716622
 Zn        22.7486899880       13.3774443693       12.1332632822
 Zn        18.7351806836       24.9048599548       25.6611231836
 Zn        20.4221338478       24.1121205779       28.3771066072
  O        22.3526807138       23.1799421196       29.3067282394
  C        23.2951670543       23.9318639968       29.1149753991
  O        25.0822327296       22.6738193269       29.2484465918
  H        23.6463567920       24.2376130432       28.1430611214
  H        25.8727202739       23.1142290255       28.8659850890
  H        23.6755252740       24.6088488242       29.9431759820
  H        25.2108536835       22.6547713061       30.2052109656
