199
07c07d3 s2_to_s3 B (s3 augmented)
  Zn        3.8365963782        3.8114881697        6.8634852062
  Zn        2.2094903097        4.9369097730        8.9273164275
  Zn        8.3130835130       -1.2999500000       15.4051771172
  Zn       -2.1154583858        9.8755377706        0.0868220367
  Zn       -8.1919926337       12.5463086107        8.5996837814
  Zn        8.4661432301       13.5886607103        6.7604534448
  H        -2.8833725933        6.9807693727        4.3235786795
  H         5.0750995573        6.7443354579        4.3843744383
  H         6.2583798832        6.2091765750        5.6271705129
  H         6.5521209529        7.7233509116        4.6937225548
  H         2.2000301735        1.5692970549       10.2457495335
  H         2.5340775443        0.0971185442       11.2248691710
  H         3.6486067146        0.5829285246        9.9041823630
  H         4.7161401898        0.1048602303       15.1289209025
  H         5.0734675572       -0.4803302395       13.4821000385
  H         3.5494341572        0.4363717487       13.7916742478
  H         9.7209074287        3.4759100516       10.9506960446
  H         7.0111938048        3.7524874467        8.2899439271
  H        -2.5180644896        3.9318310667        7.3725857827
  H        -1.8985199339        2.7771151445        6.1587822889
  H        -0.7614188303        3.8483907629        7.0563021020
  H        13.6276173813       -0.0323178840        7.5173753608
  H        -3.4894075666       -0.2967529957        6.2649369609
  H        -3.6879116783        1.3318558376        7.0242753943
  H         2.5818882317       -3.7636294905        8.3803248431
  H         1.3826024882       -3.0841871718        9.5295771593
  H         2.8086882000       -2.0977607888        9.0109451208
  H         4.3048410618       -0.0872604803        6.4374222137
  H         2.8552407730        0.5667189783        5.6061778967
  H         2.9694061887       -1.2010599664        5.9692055236
  H        -6.0816840302       13.9514975509        1.0523316727
  H        10.9573998231       12.8054892326        0.7020286655
  H        12.3503380510       12.9250406781       -0.4256487854
  H        -0.7798514319        6.6523498353        6.8358454277
  H        -4.9946203060       13.9228895518        3.4271151024
  H        -5.8700161343       13.8602139736        4.9968786369
  H        -0.3639855697       -2.3675958715        3.8275436022
  H         9.9381874306        9.8121324763        6.3364805718
  H        12.4445937516        6.0068720709        3.8226562422
  H        11.6415270100        6.9135251284        2.4963022318
  H        10.9217950504        6.8796398531        4.1635993201
  H        -5.5551566316        0.4521228333       13.3579525091
  H        -3.8741036294       -0.1965488601       13.2812552714
  H        -4.7048200610       -0.0001675648       14.8639396658
  H        -2.5196528642       -0.8080480032       11.6394826166
  H        -3.3107962133       -1.2763738994       10.1103382822
  H        -2.0124033994       -2.3021221644       10.7807632888
  H        11.0652875828       -1.3992862026        7.7487644964
  H         9.5345228517       -1.2801000277        8.6996060841
  H         9.6493119673       -2.4073578074        7.3029278108
  H         7.3385234880       -3.2653890147       10.8958939171
  H         8.5001178588       -3.9461843371       12.0848271121
  H         8.7798392768       -4.1626985333       10.3117342630
  H         2.8381148580        9.4068873644        4.6062647772
  H         1.4829169994        9.7771736863        5.7335145065
  H         2.0056614139       10.9911188419        4.5133948758
  H         2.8664648638        8.9607065156        2.0223189763
  H         3.0951739033        7.4419352931        1.0859824309
  H         4.4827922016        8.1825786418        1.9507545227
  H         2.0091788017        5.2605253058        0.8611336969
  H        -0.1751048370        3.4240678029        4.4887352435
  H         6.2935795947        7.6143077183       11.7831462446
  H        -9.0592369220        9.0377087346       11.9777832394
  H        -8.6767185888        8.7640324764       10.2434237837
  H         8.7766487810        7.5223844013       11.1744993179
  H         7.8121473588       10.1508905045        5.5756851373
  C         4.5237230194        6.3476583154        8.3700648326
  C         0.8146901945        6.2863929919        2.4238389387
  C         0.3381673967        5.3869007751        3.6279040881
  C         1.3262646946        6.1482094303        4.6209185110
  C         6.1916668902        7.8248281101        9.6021630486
  C         7.1092439781        8.8976132616        9.5702859177
  C         7.3148145300        9.6077510155        8.3730164338
  C         6.5848093808        9.2770344740        7.2100919064
  C         5.7020779592        8.1853090197        7.2319711369
  C         5.5050564535        7.4763792461        8.4258447571
  C         5.0388129549        1.9879563121       11.4858002657
  C         2.1379923534        5.4667208396        5.6740993903
  C         5.8540337912        1.8069318669       12.6178041231
  C         7.2507700294        1.9324351342       12.5124295271
  C         7.8336847825        2.3506891125       11.3088986827
  C         7.0061970267        2.6374416182       10.2013113352
  C         5.6057974423        2.4429237100       10.2813938529
  C        -0.8576832511        1.1761190793        7.9847553696
  C        -1.5104406726       -0.0701264916        8.0108312351
  C        -0.7635236816       -1.2570159323        7.9083755997
  C         0.6280936214       -1.2181309884        7.7530436715
  C         1.2839928337        0.0211801593        7.6890494718
  C         1.2854230331        2.5110598469        7.8033329419
  C         0.5416346472        1.2181734418        7.8118177929
  C        13.6265449626        9.3322121156        1.6699178228
  C        -1.1963972386        8.0101368505        1.8118599526
  C        10.1917081405       -1.4944425424       13.5869671756
  C         8.0492810007        1.4161719705       13.6755717918
  C        10.3006923901       12.0538351559        5.5284602680
  C         8.2091495137       10.7951391229        8.2884279910
  C        13.4964617420       -3.2310722287        9.1566349673
  C        -1.4853226062       -2.5632075331        7.8989249574
  C        12.2957176440       11.3298532093        2.3919488076
  C         4.7040656368        2.8792147108        9.1664728196
  C        11.5275033808       11.9999268352        3.3739395771
  C        11.0146696418       11.2797343543        4.4551015455
  C        11.2938224143        9.8997961117        4.6386693942
  C        12.1686185121        9.2720340198        3.7167865043
  C        12.6471559931        9.9761355265        2.6025282632
  C        -5.9415287034       -1.9492139567       12.5840815062
  C        -5.1231979033       -2.3608960583       11.5185714001
  C        12.6624245818       -2.7069641516       10.2702774423
  C        11.2539616899       -2.6570830601       10.1294366061
  C        10.4424193016       -2.3107422231       11.2230252469
  C         0.2076972776        7.2006724553        4.9638273865
  C        11.0313428042       -1.9592976387       12.4473170605
  C        -0.7798526535        6.4211348066        3.9698097782
  C        -0.2863931584        7.3678765589        2.8055599387
  C         0.7197651165        8.1035277792        3.7581517226
  C         1.8311774251        7.0064173139        3.4106271541
  C        -2.1984565635        6.1037152614        4.2650321871
  C         5.7835188259        7.0767021797        5.1476415632
  C         2.9819604884        0.9475138224       10.6934288252
  C         4.6073085919        0.3273771235       14.0619713589
  C         9.3318230147        2.4691795402       11.2148237912
  C         7.6547590065        3.1807566315        8.9851046169
  C        -1.6883298213        3.2611932929        7.1238241320
  C        -3.7376534115        0.2475220138        7.1875711241
  C         2.0689257100       -2.8507186535        8.7023095155
  C         3.2207065531       -0.1885696113        6.3159300028
  C        12.0389876656       12.9747391671        0.6227867184
  C        -0.2480776709        7.5058239638        6.3496707631
  C        -5.9568092716       14.1137755984        3.9292373835
  C        10.6898572465        9.2011918238        5.7899566225
  C        11.8477721895        6.8916111663        3.5754676939
  C        -4.8402701722       -0.2529653832       13.8049934330
  C        -2.8637697075       -1.6609129426       11.0326233768
  C        10.1970303487       -1.9528942777        8.1363439027
  C         8.3941714034       -3.4885659938       11.0901590942
  C         1.8746011043        9.9237574369        4.7175812284
  C         3.4032650673        8.0021192680        1.9834943964
  C         0.9822149906        5.6257956410        1.0902928655
  C         0.3088796372        3.9030421945        3.6089567349
  C         6.0114261172        7.0597781615       10.8628108949
  C        -9.4162531522        8.6016815435       11.0388202208
  C         6.7613909069       10.0496555680        5.9298243793
  O         4.8749762274        5.3844414793        7.6219215596
  O        -3.6436156522        9.9330166042        1.5181348177
  O        -2.2531159225        7.3753170148        1.5191311443
  O        -0.8218359931        9.1498787764        1.3520038094
  O         9.2081373222       -2.2333741347       13.9719974604
  O        -7.8624695764       -0.3872374122       14.1052117970
  O         7.7456479839        0.2424649339       14.0297894001
  O         8.9541188373        2.1528331526       14.2206940030
  O        -7.5490504568       12.0079969521        6.6836545181
  O         9.2438300254       12.7031592519        5.2035469569
  O        -9.0715713953       10.8322957941        8.9645214721
  O         3.4334803052        6.4792846330        9.0097342664
  O         7.8261379462       11.6962737200        7.4800563848
  O        -3.8595097321       -3.9277424222        9.4670175766
  O        13.1472082338       -2.9726210147        7.9378985992
  O        -1.1273669611       -3.4558216455        8.7563686145
  O        -2.4100668223       -2.6858782848        7.0444994669
  O         3.1435580909        4.7751025493        5.2736822769
  O         1.7409014438        5.6055934102        6.8688480104
  O         2.1695625559        2.6526456668        6.9095075956
  O         0.9875136607        3.3741412073        8.7013193785
  O         5.0045151982        2.5872898203        7.9500616502
  O         3.7003752402        3.5591060732        9.5278818314
  O        13.2838558552        8.2269454544        1.0992121778
  O        -2.6087772834        4.9632270933        4.4469955867
  O         4.9969848217        7.8107658756        6.1145589484
  O         3.7013071692        1.7316866487       11.6811876944
  O         5.3250711005        1.5704198666       13.8511076860
  O        10.0746930118        1.5432157272       11.4961380662
  O         8.8575062022        3.0504169336        8.7650482418
  O        -1.6347058519        2.2873024778        8.1885571209
  O        -2.8549084677       -0.1611500842        8.2549889805
  O         1.3192930323       -2.3918988509        7.5548010615
  O         2.6599783576        0.0546133826        7.6281168651
  O        12.7736445477       11.9103001834        1.2707772215
  O        -0.1242897029        8.5742214678        6.9237016461
  O        11.3461708664       13.3653530325        3.3006105979
  O        10.9184192790        8.0566182351        6.1625830799
  O        12.6757699528        8.0218191583        3.9348315052
  O        -5.3626648408       -1.5961253298       13.7797266341
  O        -3.7925252548       -2.4370487645       11.8099184269
  O        10.6389016348       -3.0513962357        8.9638840918
  O         9.0788770301       -2.2164732610       11.0546856281
  O         0.9003129400        9.4559163953        3.7425552607
  O         3.1636444409        7.2250851517        3.1771388823
  O         0.0517880998        5.4538846303        0.3222588008
  O         0.8408191388        3.2433956255        2.7295112861
  O         5.6060187653        5.9036756870       10.9176476871
  O         7.7208235270        9.2905162807       10.7329997381
  O         5.8298209987       10.4757526160        5.2703677010
  O         1.2717328730        5.4226193127       10.7348363844
  O         1.6702516357        3.1919829083       12.9524935660
  C         0.5204766598        4.6484839406       11.3420109680
  H         0.0353527963        4.9856915950       12.2722144824
  H         0.2359937580        3.6711428141       10.9249171817
  H         2.0170518404        3.7512212652       13.6692826817
  H         2.4791523216        2.8148228320       12.5289209474
