101
74ace65 s1 final converged frame
Zn        -1.3790919322       0.8581884337      10.9068488065
Zn         1.3848706199      -1.1219779460      10.2195111751
Zn         6.6791294164       6.3029837907       0.9700783060
Zn         3.5252165240       7.8510234836       2.0203593037
H         -5.1260316705       7.3389779467      10.3905947924
H         -1.0501454457      12.7209614567       0.0977259631
H          7.8166656492       1.1638184198       0.2858309910
H         -2.4958710300       6.3081097868      10.6590247504
H          4.8566617865      10.5161859866       2.9262073098
H          5.4113296600       4.6006493453       5.0049185863
C          0.9692641577       2.7205859834      10.9081648788
C          1.2528636892       4.8978670908       0.0829199403
C          5.3046393369      -2.3660496060      11.4646333766
C          1.7262770489      11.3195493186       0.3405032263
C          5.2337051771       2.5998427768      -0.0800758883
C          6.4202069914      -0.4182519173       1.3429105216
C          4.9576013054       0.1458890746       1.1921382732
C          0.1605874333      -0.8380492561       7.5035377601
C          6.9143512508       0.5483855135       0.2279879860
C         -0.1362694779      13.3201111531       0.1177166994
C          5.4448880925       1.1517409972       0.0670772247
C          1.3272232540      12.7250359066       0.2727016435
C         -4.6073808412       7.1578369700      11.3347992821
C         -3.1545214920       6.5902426603      11.4841335880
C         -2.6120854152      -1.2353549871       5.2418661266
C          3.5955380314       3.4406522003       8.6817516348
C         -1.4152472993      -0.6538758572       5.4990664043
C          3.1380065682       3.6893080954       9.9325530147
C         11.9408814297      -2.0459913218       4.0862397390
C          4.0699418086       4.3946824704       7.6954935154
C          7.5826208149       8.7706769658       2.4412558613
C          3.0573565955       6.8731201337       4.9515995909
C          7.6495506149      10.9596998765       3.8334779544
C          7.0372209761       9.9591374972       2.9757782747
C          3.2834404048       5.2133789061       6.9436263527
C         12.4158254558       4.0075232821       0.2059735368
C         -1.1757473669       4.5259324100       0.5863478911
C          6.7403250379      -2.5062694189      11.5691461447
C         -0.0110676400       4.1968253979      -0.0063013548
C          3.6630507115       5.8383235850       5.6993779335
C          4.3993642988      -2.1792668716      10.3959359646
C         -3.0225579106      -1.6351600786      11.3525840396
C          2.1326809376      10.4915184843       1.3978972650
C          5.3562285972       3.5902927269       0.9066148032
C          9.4813686053       5.1079028949       0.2257278757
C          1.9069502625       5.4510151212       1.1918867238
C         -3.0378270044       3.3310413825      11.5965933058
C          0.2401051169      -3.7364632159      11.1047856391
C          5.6632027272       9.8338206873       2.6799389760
C          4.7064457973       5.4063920234       4.8327117873
C          2.6897868877       1.4073671141      11.0284590933
C         -1.5171485719       0.5084692989       7.8398628027
C          2.3607392266       2.7093008813      10.6862172363
C         -0.9453397722      -0.2787493821       6.8301445393
N          0.5149181031       1.5230498498      11.3074945480
N         -2.0831325479      -0.7859092887      11.8017996793
N          3.1918596902      -1.7920603742      10.8518232842
N          2.5473130170       9.2902855354       0.9867968130
N          5.4412679182       4.8324614581       0.4066360050
N          3.2720759435      -1.6836929206      12.2380381454
N          2.8617811271       6.3179276603       0.8417698271
N          0.2152456372      -0.4270437119       8.7807657755
N         -2.5463730604       2.1391130199      11.9404510483
N          0.3707612703      -2.4314442542      11.3682126505
N          5.4161626903       8.6733171870       2.0564708176
N          4.7225088979       6.0960933492       3.6940161578
N          1.6084263021       0.6570655780      11.3664005779
N         -0.8547867052       0.4247004738       8.9969626348
N          6.6019101596       8.0023367697       1.9233590691
N          3.6978897038       7.0119296424       3.7769027876
Cl        -0.0664457161       4.0507489511      10.6451958061
Cl         3.2969203795       5.2753432549      10.6229830987
Cl        -0.2531460208      -0.5070093293       4.2118686641
Cl        -5.9006237923      10.4158323158       4.7853682906
Cl         1.6178079048       5.3731631210       7.4479703266
Cl        11.7018078513       2.7641182604       1.1978873382
Cl        -1.2423048221       5.8269117111       1.7536960442
Cl         1.3344833250      -1.9420357224       6.9373044331
Cl         9.2108716329       8.2673392859       2.2921110998
Cl         1.7393134110       7.9169712922       5.3078229985
Cl         4.6881096806      -2.3692340202       8.7267168555
Cl        -3.2839075484      -1.8649063775       9.6809046881
Cl        11.0308384900      -1.2475962481       6.4566406192
Cl         3.5047392333       1.7986228845       8.0277829096
F          7.0876185432      -0.6421900936       2.5226804849
F         -5.0249704222      -3.9309346798      11.4089979311
F          7.4358940777      -1.6756954483      10.7338370078
F          2.1545624972      10.7537236522       2.7120744028
F          5.3854881823       3.3917417263       2.2239048707
F          9.8902338251       5.1590803922       1.4872655296
F          1.6840690648       5.1791918210       2.4717875076
F          4.1197406109       0.4291069321       2.2272728269
F         -3.2422300483       3.6189854887      10.3036701189
F          0.1106341070      -4.1129669575       9.8193589159
F          3.9116813047       0.8894052074      11.0447878196
F         -2.5869476784       1.2967416040       7.7732859695
F         10.8524055925      -1.5938455041       3.3901549612
F          5.3879375819       4.2187892463       7.3418564892
O          7.7217736580       5.3775957245       3.1549221946
C          8.1885210957       4.5335524349       3.8278047120
O          8.6530853546       3.7016115458       4.5061479928
