104
74ace65 s4 final converged frame
Zn        -1.3591684532       0.8757176571      10.8732393382
Zn         1.3810849177      -1.1324066953      10.1359526543
Zn         6.8103631201       6.1909251423       1.0174962343
Zn         3.5591906653       7.8633455468       1.9862499574
H         -5.1776275362       7.3518054801      10.4216869097
H         -1.1349939500      12.7805542539       0.1537946902
H          7.8446075412       1.0761645650       0.2385926871
H         -2.5880522435       6.2181474002      10.6479420074
H          4.8518419899      10.4798421430       2.8908253672
H          5.1423165499       4.5046104874       5.0806772492
C          1.0257298815       2.7469576275      10.9238798199
C          1.3018628185       4.8669740465       0.0600041507
C          5.3390799566      -2.3465286433      11.4008095917
C          1.6673282705      11.2988954973       0.3470694112
C          5.3040849053       2.5871944836      -0.0790369018
C          6.3951393455      -0.4360403880       1.3370490045
C          4.9646660744       0.1778924406       1.2103771718
C          0.0643197492      -0.8713808149       7.4395192603
C          6.9200816007       0.4929855958       0.2066310634
C         -0.1986772010      13.3445393296       0.1581300131
C          5.4714509496       1.1427828920       0.0730734354
C          1.2551906422      12.7020678937       0.2885643025
C         -4.6490490118       7.1542436927      11.3570911753
C         -3.2155880768       6.5381293169      11.4831271617
C         -2.6725786991      -1.2538655737       5.1391635676
C          3.5726573712       3.5607431049       8.7006510223
C         -1.4928623259      -0.6483629711       5.4252523787
C          3.1766353273       3.7478045732       9.9825996465
C         11.9122573702      -2.0573507252       3.9675345981
C          3.9863044764       4.5526298428       7.7248746867
C          7.5941038212       8.8312569858       2.2136346788
C          3.0433210735       7.0038351742       4.9592857767
C          7.6645692893      10.9737791440       3.6815298822
C          7.0462040904       9.9847406183       2.8164234800
C          3.1599707585       5.3628303457       7.0095546661
C         12.4501047062       4.0195182047       0.1285394427
C         -1.1353516639       4.5187288741       0.5099030354
C          6.7730731225      -2.4806858936      11.5030052231
C          0.0351832917       4.1681706790      -0.0604303254
C          3.5286435527       5.9266242084       5.7320055122
C          4.4328952844      -2.2033211574      10.3239644591
C         -2.9637037271      -1.6567105286      11.3397928531
C          2.1071040780      10.4815754579       1.3989046535
C          5.3233090909       3.6085482258       0.8809416725
C          9.5080337784       5.1446713549       0.1503370080
C          1.9249681022       5.4409793834       1.1799391284
C         -3.0566990388       3.3254995045      11.5971024562
C          0.4328235803      -3.7959812966      11.0834465166
C          5.6645940069       9.8313113044       2.5831531876
C          4.5262777145       5.3756333175       4.8989103734
C          2.7222612304       1.3887872036      10.9234285002
C         -1.5838255017       0.5107886891       7.7818649105
C          2.4198228828       2.7302519376      10.7066489677
C         -1.0360095601      -0.2935239705       6.7702454243
N          0.5506464574       1.5221996865      11.1956430132
N         -2.0477128350      -0.7854318503      11.7974456043
N          3.2173478988      -1.8273374063      10.7612909742
N          2.5544017503       9.2948458512       0.9818930824
N          5.4264149339       4.8364118125       0.3453911460
N          3.2955962294      -1.6881844330      12.1421306517
N          2.8701971694       6.3231899253       0.8391024794
N          0.1381072970      -0.4604268632       8.7147421366
N         -2.5315023272       2.1463758780      11.9349999410
N          0.4806621596      -2.4819478379      11.3089022261
N          5.4223529843       8.6855423115       1.9285059143
N          4.6514373145       6.0621712484       3.7671511454
N          1.6259890708       0.6443532849      11.1790309570
N         -0.9132261188       0.4157842576       8.9364450836
N          6.6161853138       8.0577134548       1.7024224300
N          3.7267871814       7.0822801917       3.7982593117
Cl         0.0070144900       4.1139076459      10.8185960324
Cl         3.3707526678       5.3033367341      10.7310448348
Cl        -0.3245617235      -0.4337424094       4.1510135823
Cl        -5.8478684834      10.4497946613       4.5821983917
Cl         1.5286397176       5.5777728165       7.5739248426
Cl        11.7173847219       2.7902355789       1.1264817079
Cl        -1.1995446586       5.8312743624       1.6670073838
Cl         1.2260480001      -1.9847933411       6.8627634378
Cl         9.2274190491       8.3675030565       2.0075912897
Cl         1.7940160735       8.1316504501       5.2818757902
Cl         4.7313944295      -2.4345668543       8.6599597572
Cl        -3.2082596781      -1.9005129201       9.6662844087
Cl        10.9690705041      -1.3164034737       6.3558287776
Cl         3.4471946808       1.9586097096       7.9636867682
F          7.0194925331      -0.6458459319       2.5328389967
F         -4.9741625130      -3.9638952593      11.3533742861
F          7.4621800712      -1.6404446886      10.6720875963
F          2.1527383675      10.7525326245       2.7112555593
F          5.2764457750       3.4641538628       2.2131806624
F          9.8895504412       5.2657374728       1.4200051738
F          1.6853611940       5.1805946760       2.4652918475
F          4.2008086041       0.5376547200       2.2839847893
F         -3.2430500899       3.6188915435      10.3029790034
F          0.5417680153      -4.2565361036       9.8206304191
F          3.9282654869       0.8206652210      10.9171600444
F         -2.6367597345       1.3283609716       7.7122854827
F         10.7975505322      -1.6657086966       3.2712312890
F          5.2852809104       4.4008003329       7.2874809885
O          7.1441627379       5.6369603001       2.9650442171
C          7.7797651349       4.5170504799       3.6143670358
H          8.8627420226       4.6624198325       3.5501742516
H          7.4877042150       4.4947076821       4.6730137033
H          7.5071131402       3.5642513970       3.1400309437
H          6.1933958949       5.8067148262       3.3121560586
