 DBCSR| CPU Multiplication driver                                           XSMM (U)
 DBCSR| Multrec recursion limit                                              512 (U)
 DBCSR| Multiplication stack size                                          30000 (D)
 DBCSR| Maximum elements for images                                    UNLIMITED (U)
 DBCSR| Multiplicative factor virtual images                                   1 (U)
 DBCSR| Use multiplication densification                                       F (D)
 DBCSR| Multiplication size stacks                                             3 (U)
 DBCSR| Use memory pool for CPU allocation                                     F (U)
 DBCSR| Number of 3D layers                                               SINGLE (U)
 DBCSR| Use MPI memory allocation                                              F (U)
 DBCSR| Use RMA algorithm                                                      F (U)
 DBCSR| Use Communication thread                                               T (U)
 DBCSR| Communication thread load                                             83 (D)
 DBCSR| MPI: My process id                                                     0
 DBCSR| MPI: Number of processes                                               4
 DBCSR| OMP: Current number of threads                                         2
 DBCSR| OMP: Max number of threads                                             2
 DBCSR| ACC: Number of devices/node                                            4
 DBCSR| ACC: Number of stack-buffers per thread                                8 (U)
 DBCSR| ACC: Avoid driver after busy                                           F (U)
 DBCSR| ACC: Process inhomogeneous stacks                                      T (U)
 DBCSR| ACC: Min. flop for processing                                          0 (U)
 DBCSR| ACC: Min. flop for sorting                                          4000 (U)
 DBCSR| ACC: Number of binning bins                                         4096 (U)
 DBCSR| ACC: Size of binning bins                                             16 (U)
 DBCSR| Split modifier for TAS multiplication algorithm                  1.0E+00 (U)


  **** **** ******  **  PROGRAM STARTED AT               2025-04-26 06:14:44.231
 ***** ** ***  *** **   PROGRAM STARTED ON                                 r12n6
 **    ****   ******    PROGRAM STARTED BY                               uh03203
 ***** **    ** ** **   PROGRAM PROCESS ID                                627036
  **** **  *******  **  PROGRAM STARTED IN /home/3/uh03203/Documents/cp2k/dft_hy
                                           dro/dft_input/molecules

 CP2K| version string:                                       CP2K version 2024.1
 CP2K| source code revision number:                                  git:b4a17a5
 CP2K| cp2kflags: omp libint fftw3 libxc libgrpp elpa elpa_nvidia_gpu parallel m
 CP2K|            pi_f08 scalapack cosma xsmm dbcsr_acc plumed2 spglib mkl siriu
 CP2K|            us libvori libbqb offload_cuda spla_gemm_offloading libvdwxc h
 CP2K|            hdf5
 CP2K| is freely available from                            https://www.cp2k.org/
 CP2K| Program compiled at                       Fri Mar 22 01:50:50 PM JST 2024
 CP2K| Program compiled on                                                 r1n10
 CP2K| Program compiled for                                           local_cuda
 CP2K| Data directory path      /gs/fs/hpe/fukuoka/builds/cp2k/v2024.1/cp2k/data
 CP2K| Input file name                                                   co2.inp

 GLOBAL| Force Environment number                                              1
 GLOBAL| Basis set file name            /home/3/uh03203/Documents/cp2k/data/BASI
 GLOBAL| Potential file name            /home/3/uh03203/Documents/cp2k/data/GTH_
 GLOBAL| MM Potential file name                                     MM_POTENTIAL
 GLOBAL| Coordinate file name                                            co2.cif
 GLOBAL| Method name                                                        CP2K
 GLOBAL| Project name                                                        co2
 GLOBAL| Run type                                                        GEO_OPT
 GLOBAL| FFT library                                                       FFTW3
 GLOBAL| Diagonalization library                                            ELPA
 GLOBAL| DGEMM library                                                      SPLA
 GLOBAL| Minimum number of eigenvectors for ELPA usage                        16
 GLOBAL| Orthonormality check for eigenvectors                          DISABLED
 GLOBAL| Matrix multiplication library                                     COSMA
 GLOBAL| All-to-all communication in single precision                          F
 GLOBAL| FFTs using library dependent lengths                                  F
 GLOBAL| Grid backend                                                       AUTO
 GLOBAL| Global print level                                               MEDIUM
 GLOBAL| MPI I/O enabled                                                       T
 GLOBAL| Total number of message passing processes                             4
 GLOBAL| Number of threads for this process                                    2
 GLOBAL| This output is from process                                           0
 GLOBAL| Stack size for threads created by OpenMP (OMP_STACKSIZE)        default
 GLOBAL| CPU model name                          AMD EPYC 9654 96-Core Processor
 GLOBAL| CPUID                                                              1003
 GLOBAL| Compiled for CPUID                                                 1000

 *** HINT in environment.F:920 :: The compiler target flags (x86_sse4)     ***
 *** used to build this binary cannot exploit all extensions of this CPU   ***
 *** model (x86_avx512). Consider compiler target flags as part of FCFLAGS ***
 *** and CFLAGS (ARCH file).                                               ***


 MEMORY| system memory details [Kb]
 MEMORY|                        rank 0           min           max       average
 MEMORY| MemTotal            791707348     791707348     791707348     791707348
 MEMORY| MemFree             724625912     724625912     724625912     724625912
 MEMORY| Buffers                  1708          1708          1708          1708
 MEMORY| Cached               41698604      41698604      41698604      41698604
 MEMORY| Slab                  7461340       7461340       7461340       7461340
 MEMORY| SReclaimable          1332432       1332432       1332432       1332432
 MEMORY| MemLikelyFree       767658656     767658656     767658656     767658656


 *** Fundamental physical constants (SI units) ***

 *** Literature: B. J. Mohr and B. N. Taylor,
 ***             CODATA recommended values of the fundamental physical
 ***             constants: 2006, Web Version 5.1
 ***             http://physics.nist.gov/constants

 Speed of light in vacuum [m/s]                             2.99792458000000E+08
 Magnetic constant or permeability of vacuum [N/A**2]       1.25663706143592E-06
 Electric constant or permittivity of vacuum [F/m]          8.85418781762039E-12
 Planck constant (h) [J*s]                                  6.62606896000000E-34
 Planck constant (h-bar) [J*s]                              1.05457162825177E-34
 Elementary charge [C]                                      1.60217648700000E-19
 Electron mass [kg]                                         9.10938215000000E-31
 Electron g factor [ ]                                     -2.00231930436220E+00
 Proton mass [kg]                                           1.67262163700000E-27
 Fine-structure constant                                    7.29735253760000E-03
 Rydberg constant [1/m]                                     1.09737315685270E+07
 Avogadro constant [1/mol]                                  6.02214179000000E+23
 Boltzmann constant [J/K]                                   1.38065040000000E-23
 Atomic mass unit [kg]                                      1.66053878200000E-27
 Bohr radius [m]                                            5.29177208590000E-11

 *** Conversion factors ***

 [u] -> [a.u.]                                              1.82288848426455E+03
 [Angstrom] -> [Bohr] = [a.u.]                              1.88972613288564E+00
 [a.u.] = [Bohr] -> [Angstrom]                              5.29177208590000E-01
 [a.u.] -> [s]                                              2.41888432650478E-17
 [a.u.] -> [fs]                                             2.41888432650478E-02
 [a.u.] -> [J]                                              4.35974393937059E-18
 [a.u.] -> [N]                                              8.23872205491840E-08
 [a.u.] -> [K]                                              3.15774647902944E+05
 [a.u.] -> [kJ/mol]                                         2.62549961709828E+03
 [a.u.] -> [kcal/mol]                                       6.27509468713739E+02
 [a.u.] -> [Pa]                                             2.94210107994716E+13
 [a.u.] -> [bar]                                            2.94210107994716E+08
 [a.u.] -> [atm]                                            2.90362800883016E+08
 [a.u.] -> [eV]                                             2.72113838565563E+01
 [a.u.] -> [Hz]                                             6.57968392072181E+15
 [a.u.] -> [1/cm] (wave numbers)                            2.19474631370540E+05
 [a.u./Bohr**2] -> [1/cm]                                   5.14048714338585E+03
 

 CELL_TOP| Volume [angstrom^3]:                                      2197.699725
 CELL_TOP| Vector a [angstrom     6.379     0.000     0.000   |a| =     6.379011
 CELL_TOP| Vector b [angstrom    -0.034    10.789     0.000   |b| =    10.789341
 CELL_TOP| Vector c [angstrom   -15.577    -0.326    31.932   |c| =    35.530106
 CELL_TOP| Angle (b,c), alpha [degree]:                                90.446854
 CELL_TOP| Angle (a,c), beta  [degree]:                               116.003212
 CELL_TOP| Angle (a,b), gamma [degree]:                                90.179199
 CELL_TOP| Numerically orthorhombic:                                          NO
 CELL_TOP| Periodicity                                                       XYZ

 CELL_CIF| Volume [angstrom^3]:                                      2197.699725
 CELL_CIF| Vector a [angstrom     6.379     0.000     0.000   |a| =     6.379011
 CELL_CIF| Vector b [angstrom    -0.034    10.789     0.000   |b| =    10.789341
 CELL_CIF| Vector c [angstrom   -15.577    -0.326    31.932   |c| =    35.530106
 CELL_CIF| Angle (b,c), alpha [degree]:                                90.446854
 CELL_CIF| Angle (a,c), beta  [degree]:                               116.003212
 CELL_CIF| Angle (a,b), gamma [degree]:                                90.179199
 CELL_CIF| Numerically orthorhombic:                                          NO
 CELL_CIF| Periodicity                                                       XYZ

 GENERATE|  Preliminary Number of Bonds generated:                             0
 GENERATE|  Achieved consistency in connectivity generation.

 CELL| Volume [angstrom^3]:                                          2197.699725
 CELL| Vector a [angstrom]:       6.379     0.000     0.000   |a| =     6.379011
 CELL| Vector b [angstrom]:      -0.034    10.789     0.000   |b| =    10.789341
 CELL| Vector c [angstrom]:     -15.577    -0.326    31.932   |c| =    35.530106
 CELL| Angle (b,c), alpha [degree]:                                    90.446854
 CELL| Angle (a,c), beta  [degree]:                                   116.003212
 CELL| Angle (a,b), gamma [degree]:                                    90.179199
 CELL| Numerically orthorhombic:                                              NO
 CELL| Periodicity                                                           XYZ

 CELL_REF| Volume [angstrom^3]:                                      2197.699725
 CELL_REF| Vector a [angstrom     6.379     0.000     0.000   |a| =     6.379011
 CELL_REF| Vector b [angstrom    -0.034    10.789     0.000   |b| =    10.789341
 CELL_REF| Vector c [angstrom   -15.577    -0.326    31.932   |c| =    35.530106
 CELL_REF| Angle (b,c), alpha [degree]:                                90.446854
 CELL_REF| Angle (a,c), beta  [degree]:                               116.003212
 CELL_REF| Angle (a,b), gamma [degree]:                                90.179199
 CELL_REF| Numerically orthorhombic:                                          NO
 CELL_REF| Periodicity                                                       XYZ

 *******************************************************************************
 *******************************************************************************
 **                                                                           **
 **     #####                         ##              ##                      **
 **    ##   ##            ##          ##              ##                      **
 **   ##     ##                       ##            ######                    **
 **   ##     ##  ##   ##  ##   #####  ##  ##   ####   ##    #####    #####    **
 **   ##     ##  ##   ##  ##  ##      ## ##   ##      ##   ##   ##  ##   ##   **
 **   ##  ## ##  ##   ##  ##  ##      ####     ###    ##   ######   ######    **
 **    ##  ###   ##   ##  ##  ##      ## ##      ##   ##   ##       ##        **
 **     #######   #####   ##   #####  ##  ##  ####    ##    #####   ##        **
 **           ##                                                    ##        **
 **                                                                           **
 **                                                ... make the atoms dance   **
 **                                                                           **
 **            Copyright (C) by CP2K developers group (2000-2024)             **
 **                      J. Chem. Phys. 152, 194103 (2020)                    **
 **                                                                           **
 *******************************************************************************

 DFT| Spin restricted Kohn-Sham (RKS) calculation                            RKS
 DFT| Multiplicity                                                             1
 DFT| Number of spin states                                                    1
 DFT| Charge                                                                   0
 DFT| Self-interaction correction (SIC)                                       NO
 DFT| Cutoffs: density                                              1.000000E-10
 DFT|          gradient                                             1.000000E-10
 DFT|          tau                                                  1.000000E-10
 DFT|          cutoff_smoothing_range                               0.000000E+00
 DFT| XC density smoothing                                                  NONE
 DFT| XC derivatives                                                          PW

 FUNCTIONAL| PBE:
 FUNCTIONAL| J.P.Perdew, K.Burke, M.Ernzerhof, Phys. Rev. Letter, vol. 77, n 18,
 FUNCTIONAL|  pp. 3865-3868, (1996) {spin unpolarized}                          

 vdW POTENTIAL|                                                   Pair Potential
 vdW POTENTIAL|          DFT-D3 (Version 3.1)
 vdW POTENTIAL|          Potential Form: S. Grimme et al, JCP 132: 154104 (2010)
 vdW POTENTIAL|          Zero Damping
 vdW POTENTIAL|          Cutoff Radius [Bohr]:                             18.90
 vdW POTENTIAL|          s6 Scaling Factor:                               1.0000
 vdW POTENTIAL|          sr6 Scaling Factor:                              1.2170
 vdW POTENTIAL|          s8 Scaling Factor:                               0.7220
 vdW POTENTIAL|          Cutoff for CN calculation:                   0.1000E-05

 QS| Method:                                                                 GPW
 QS| Density plane wave grid type                        NON-SPHERICAL FULLSPACE
 QS| Number of grid levels:                                                    4
 QS| Density cutoff [a.u.]:                                                225.0
 QS| Multi grid cutoff [a.u.]: 1) grid level                               225.0
 QS|                           2) grid level                                75.0
 QS|                           3) grid level                                25.0
 QS|                           4) grid level                                 8.3
 QS| Grid level progression factor:                                          3.0
 QS| Relative density cutoff [a.u.]:                                        30.0
 QS| Interaction thresholds: eps_pgf_orb:                                1.0E-05
 QS|                         eps_filter_matrix:                          0.0E+00
 QS|                         eps_core_charge:                            1.0E-12
 QS|                         eps_rho_gspace:                             1.0E-10
 QS|                         eps_rho_rspace:                             1.0E-10
 QS|                         eps_gvg_rspace:                             1.0E-05
 QS|                         eps_ppl:                                    1.0E-02
 QS|                         eps_ppnl:                                   1.0E-07


 ATOMIC KIND INFORMATION

  1. Atomic kind: C                                     Number of atoms:       1

     Orbital Basis Set                                           DZVP-MOLOPT-GTH

       Number of orbital shell sets:                                           1
       Number of orbital shells:                                               5
       Number of primitive Cartesian functions:                                7
       Number of Cartesian basis functions:                                   14
       Number of spherical basis functions:                                   13
       Norm type:                                                              2

       Normalised Cartesian orbitals:

                        Set   Shell   Orbital            Exponent    Coefficient

                          1       1    2s                6.132625      -0.263661
                                                         2.625196      -0.231112
                                                         1.045457       0.042712
                                                         0.478316       0.306085
                                                         0.178617       0.065483
                                                         0.075145       0.000568
                                                         0.030287       0.000417

                          1       2    3s                6.132625       0.131937
                                                         2.625196       0.414269
                                                         1.045457      -0.593590
                                                         0.478316       0.644922
                                                         0.178617       0.069203
                                                         0.075145      -0.145101
                                                         0.030287       0.008247

                          1       3    3px               6.132625       0.562677
                                                         2.625196       0.633910
                                                         1.045457       0.379157
                                                         0.478316       0.235193
                                                         0.178617       0.052379
                                                         0.075145       0.003677
                                                         0.030287       0.000105
                          1       3    3py               6.132625       0.562677
                                                         2.625196       0.633910
                                                         1.045457       0.379157
                                                         0.478316       0.235193
                                                         0.178617       0.052379
                                                         0.075145       0.003677
                                                         0.030287       0.000105
                          1       3    3pz               6.132625       0.562677
                                                         2.625196       0.633910
                                                         1.045457       0.379157
                                                         0.478316       0.235193
                                                         0.178617       0.052379
                                                         0.075145       0.003677
                                                         0.030287       0.000105

                          1       4    4px               6.132625      -0.472364
                                                         2.625196      -0.221326
                                                         1.045457      -0.481781
                                                         0.478316       0.135466
                                                         0.178617       0.072281
                                                         0.075145       0.024920
                                                         0.030287       0.002706
                          1       4    4py               6.132625      -0.472364
                                                         2.625196      -0.221326
                                                         1.045457      -0.481781
                                                         0.478316       0.135466
                                                         0.178617       0.072281
                                                         0.075145       0.024920
                                                         0.030287       0.002706
                          1       4    4pz               6.132625      -0.472364
                                                         2.625196      -0.221326
                                                         1.045457      -0.481781
                                                         0.478316       0.135466
                                                         0.178617       0.072281
                                                         0.075145       0.024920
                                                         0.030287       0.002706

                          1       5    4dx2              6.132625       0.874783
                                                         2.625196       0.375772
                                                         1.045457       0.653959
                                                         0.478316       0.191007
                                                         0.178617       0.018656
                                                         0.075145       0.003649
                                                         0.030287      -0.000011
                          1       5    4dxy              6.132625       1.515169
                                                         2.625196       0.650856
                                                         1.045457       1.132690
                                                         0.478316       0.330834
                                                         0.178617       0.032314
                                                         0.075145       0.006321
                                                         0.030287      -0.000019
                          1       5    4dxz              6.132625       1.515169
                                                         2.625196       0.650856
                                                         1.045457       1.132690
                                                         0.478316       0.330834
                                                         0.178617       0.032314
                                                         0.075145       0.006321
                                                         0.030287      -0.000019
                          1       5    4dy2              6.132625       0.874783
                                                         2.625196       0.375772
                                                         1.045457       0.653959
                                                         0.478316       0.191007
                                                         0.178617       0.018656
                                                         0.075145       0.003649
                                                         0.030287      -0.000011
                          1       5    4dyz              6.132625       1.515169
                                                         2.625196       0.650856
                                                         1.045457       1.132690
                                                         0.478316       0.330834
                                                         0.178617       0.032314
                                                         0.075145       0.006321
                                                         0.030287      -0.000019
                          1       5    4dz2              6.132625       0.874783
                                                         2.625196       0.375772
                                                         1.045457       0.653959
                                                         0.478316       0.191007
                                                         0.178617       0.018656
                                                         0.075145       0.003649
                                                         0.030287      -0.000011

       Atomic covalent radius [Angstrom]:                                  0.770

       Atomic van der Waals radius [Angstrom]:                             1.700

     GTH Potential information for                                    GTH-PBE-q4

       Description:                       Goedecker-Teter-Hutter pseudopotential
                                           Goedecker et al., PRB 54, 1703 (1996)
                                          Hartwigsen et al., PRB 58, 3641 (1998)
                                                      Krack, TCA 114, 145 (2005)

       Gaussian exponent of the core charge distribution:               4.364419
       Electronic configuration (s p d ...):                               2   2

       Parameters of the local part of the GTH pseudopotential:

                          rloc        C1          C2          C3          C4
                        0.338471   -8.803674    1.339211

       Parameters of the non-local part of the GTH pseudopotential:

                   l      r(l)      h(i,j,l)

                   0    0.302576    9.622487
                   1    0.291507

  2. Atomic kind: O                                     Number of atoms:       2

     Orbital Basis Set                                           DZVP-MOLOPT-GTH

       Number of orbital shell sets:                                           1
       Number of orbital shells:                                               5
       Number of primitive Cartesian functions:                                7
       Number of Cartesian basis functions:                                   14
       Number of spherical basis functions:                                   13
       Norm type:                                                              2

       Normalised Cartesian orbitals:

                        Set   Shell   Orbital            Exponent    Coefficient

                          1       1    2s               12.015955      -0.284499
                                                         5.108150      -0.322498
                                                         2.048398       0.148191
                                                         0.832382       0.295475
                                                         0.352316       0.150829
                                                         0.142977       0.015788
                                                         0.046761      -0.000019

                          1       2    3s               12.015955       0.725622
                                                         5.108150       0.644384
                                                         2.048398      -0.157350
                                                         0.832382      -0.853528
                                                         0.352316       0.146068
                                                         0.142977       0.153978
                                                         0.046761       0.000658

                          1       3    3px              12.015955       1.192141
                                                         5.108150       1.354170
                                                         2.048398       0.897267
                                                         0.832382       0.408839
                                                         0.352316       0.116648
                                                         0.142977       0.022184
                                                         0.046761       0.000308
                          1       3    3py              12.015955       1.192141
                                                         5.108150       1.354170
                                                         2.048398       0.897267
                                                         0.832382       0.408839
                                                         0.352316       0.116648
                                                         0.142977       0.022184
                                                         0.046761       0.000308
                          1       3    3pz              12.015955       1.192141
                                                         5.108150       1.354170
                                                         2.048398       0.897267
                                                         0.832382       0.408839
                                                         0.352316       0.116648
                                                         0.142977       0.022184
                                                         0.046761       0.000308

                          1       4    4px              12.015955      -1.062381
                                                         5.108150      -1.285791
                                                         2.048398      -0.727000
                                                         0.832382      -0.522764
                                                         0.352316       0.182681
                                                         0.142977       0.087560
                                                         0.046761       0.000981
                          1       4    4py              12.015955      -1.062381
                                                         5.108150      -1.285791
                                                         2.048398      -0.727000
                                                         0.832382      -0.522764
                                                         0.352316       0.182681
                                                         0.142977       0.087560
                                                         0.046761       0.000981
                          1       4    4pz              12.015955      -1.062381
                                                         5.108150      -1.285791
                                                         2.048398      -0.727000
                                                         0.832382      -0.522764
                                                         0.352316       0.182681
                                                         0.142977       0.087560
                                                         0.046761       0.000981

                          1       5    4dx2             12.015955       1.125955
                                                         5.108150       1.160468
                                                         2.048398       0.999335
                                                         0.832382       0.756334
                                                         0.352316       0.048604
                                                         0.142977       0.010378
                                                         0.046761      -0.000027
                          1       5    4dxy             12.015955       1.950212
                                                         5.108150       2.009990
                                                         2.048398       1.730899
                                                         0.832382       1.310009
                                                         0.352316       0.084185
                                                         0.142977       0.017974
                                                         0.046761      -0.000046
                          1       5    4dxz             12.015955       1.950212
                                                         5.108150       2.009990
                                                         2.048398       1.730899
                                                         0.832382       1.310009
                                                         0.352316       0.084185
                                                         0.142977       0.017974
                                                         0.046761      -0.000046
                          1       5    4dy2             12.015955       1.125955
                                                         5.108150       1.160468
                                                         2.048398       0.999335
                                                         0.832382       0.756334
                                                         0.352316       0.048604
                                                         0.142977       0.010378
                                                         0.046761      -0.000027
                          1       5    4dyz             12.015955       1.950212
                                                         5.108150       2.009990
                                                         2.048398       1.730899
                                                         0.832382       1.310009
                                                         0.352316       0.084185
                                                         0.142977       0.017974
                                                         0.046761      -0.000046
                          1       5    4dz2             12.015955       1.125955
                                                         5.108150       1.160468
                                                         2.048398       0.999335
                                                         0.832382       0.756334
                                                         0.352316       0.048604
                                                         0.142977       0.010378
                                                         0.046761      -0.000027

       Atomic covalent radius [Angstrom]:                                  0.730

       Atomic van der Waals radius [Angstrom]:                             1.520

     GTH Potential information for                                    GTH-PBE-q6

       Description:                       Goedecker-Teter-Hutter pseudopotential
                                           Goedecker et al., PRB 54, 1703 (1996)
                                          Hartwigsen et al., PRB 58, 3641 (1998)
                                                      Krack, TCA 114, 145 (2005)

       Gaussian exponent of the core charge distribution:               8.360253
       Electronic configuration (s p d ...):                               2   4

       Parameters of the local part of the GTH pseudopotential:

                          rloc        C1          C2          C3          C4
                        0.244554  -16.667215    2.487311

       Parameters of the non-local part of the GTH pseudopotential:

                   l      r(l)      h(i,j,l)

                   0    0.220956   18.337458
                   1    0.211332


 MOLECULE KIND INFORMATION


 All atoms are their own molecule, skipping detailed information


 TOTAL NUMBERS AND MAXIMUM NUMBERS

  Total number of            - Atomic kinds:                                   2
                             - Atoms:                                          3
                             - Shell sets:                                     3
                             - Shells:                                        15
                             - Primitive Cartesian functions:                 21
                             - Cartesian basis functions:                     42
                             - Spherical basis functions:                     39

  Maximum angular momentum of- Orbital basis functions:                        2
                             - Local part of the GTH pseudopotential:          2
                             - Non-local part of the GTH pseudopotential:      0


 MODULE QUICKSTEP: ATOMIC COORDINATES IN ANGSTROM

   Atom Kind Element         X             Y             Z       Z(eff)     Mass
      1    1 C     6     -4.615949      5.231734     15.965856   4.0000  12.0107
      2    2 O     8     -4.619323      6.310663     15.965856   6.0000  15.9994
      3    2 O     8     -4.612574      4.152805     15.965856   6.0000  15.9994



 SCF PARAMETERS         Density guess:                                   RESTART
                        --------------------------------------------------------
                        max_scf:                                             100
                        max_scf_history:                                       0
                        max_diis:                                              4
                        --------------------------------------------------------
                        eps_scf:                                        1.00E-05
                        eps_scf_history:                                0.00E+00
                        eps_diis:                                       1.00E-01
                        eps_eigval:                                     1.00E-05
                        --------------------------------------------------------
                        level_shift [a.u.]:                             0.000000
                        --------------------------------------------------------
                        Outer loop SCF in use 
                        No variables optimised in outer loop
                        eps_scf                                         1.00E-04
                        max_scf                                              100
                        DIIS optimization
                        DIIS buffer length                                     3
                        step_size                                       5.00E-01

 PW_GRID| Information for grid number                                          1
 PW_GRID| Grid distributed over                                     4 processors
 PW_GRID| Real space group dimensions                                     4    1
 PW_GRID| the grid is blocked:                                                NO
 PW_GRID| Cutoff [a.u.]                                                    225.0
 PW_GRID| spherical cutoff:                                                   NO
 PW_GRID|   Bounds   1            -40      40                Points:          81
 PW_GRID|   Bounds   2            -72      71                Points:         144
 PW_GRID|   Bounds   3           -240     239                Points:         480
 PW_GRID| Volume element (a.u.^3)  0.2649E-02     Volume (a.u.^3)     14830.8131
 PW_GRID| Grid span                                                    FULLSPACE
 PW_GRID|   Distribution                         Average         Max         Min
 PW_GRID|   G-Vectors                          1399680.0     1399680     1399680
 PW_GRID|   G-Rays                               17280.0       17280       17280
 PW_GRID|   Real Space Points                  1399680.0     1451520     1382400

 PW_GRID| Information for grid number                                          2
 PW_GRID| Number of the reference grid                                         1
 PW_GRID| Grid distributed over                                     4 processors
 PW_GRID| Real space group dimensions                                     4    1
 PW_GRID| the grid is blocked:                                                NO
 PW_GRID| Cutoff [a.u.]                                                     75.0
 PW_GRID| spherical cutoff:                                                   NO
 PW_GRID|   Bounds   1            -24      23                Points:          48
 PW_GRID|   Bounds   2            -40      39                Points:          80
 PW_GRID|   Bounds   3           -135     134                Points:         270
 PW_GRID| Volume element (a.u.^3)  0.1430E-01     Volume (a.u.^3)     14830.8131
 PW_GRID| Grid span                                                    FULLSPACE
 PW_GRID|   Distribution                         Average         Max         Min
 PW_GRID|   G-Vectors                           259200.0      259248      259152
 PW_GRID|   G-Rays                                5400.0        5401        5399
 PW_GRID|   Real Space Points                   259200.0      259200      259200

 PW_GRID| Information for grid number                                          3
 PW_GRID| Number of the reference grid                                         1
 PW_GRID| Grid distributed over                                     4 processors
 PW_GRID| Real space group dimensions                                     4    1
 PW_GRID| the grid is blocked:                                                NO
 PW_GRID| Cutoff [a.u.]                                                     25.0
 PW_GRID| spherical cutoff:                                                   NO
 PW_GRID|   Bounds   1            -13      13                Points:          27
 PW_GRID|   Bounds   2            -22      22                Points:          45
 PW_GRID|   Bounds   3            -80      79                Points:         160
 PW_GRID| Volume element (a.u.^3)  0.7629E-01     Volume (a.u.^3)     14830.8131
 PW_GRID| Grid span                                                    FULLSPACE
 PW_GRID|   Distribution                         Average         Max         Min
 PW_GRID|   G-Vectors                            48600.0       48870       48168
 PW_GRID|   G-Rays                                1800.0        1810        1784
 PW_GRID|   Real Space Points                    48600.0       50400       43200

 PW_GRID| Information for grid number                                          4
 PW_GRID| Number of the reference grid                                         1
 PW_GRID| Grid distributed over                                     4 processors
 PW_GRID| Real space group dimensions                                     4    1
 PW_GRID| the grid is blocked:                                                NO
 PW_GRID| Cutoff [a.u.]                                                      8.3
 PW_GRID| spherical cutoff:                                                   NO
 PW_GRID|   Bounds   1             -7       7                Points:          15
 PW_GRID|   Bounds   2            -13      13                Points:          27
 PW_GRID|   Bounds   3            -45      44                Points:          90
 PW_GRID| Volume element (a.u.^3)  0.4069         Volume (a.u.^3)     14830.8131
 PW_GRID| Grid span                                                    FULLSPACE
 PW_GRID|   Distribution                         Average         Max         Min
 PW_GRID|   G-Vectors                             9112.5        9135        9090
 PW_GRID|   G-Rays                                 607.5         609         606
 PW_GRID|   Real Space Points                     9112.5        9720        7290

 POISSON| Solver                                                        PERIODIC
 POISSON| Periodicity                                                        XYZ

 RS_GRID| Information for grid number                                          1
 RS_GRID|   Bounds   1            -40      40                Points:          81
 RS_GRID|   Bounds   2            -72      71                Points:         144
 RS_GRID|   Bounds   3           -240     239                Points:         480
 RS_GRID| Real space distribution over                                  4 groups
 RS_GRID| Real space distribution along direction                              3
 RS_GRID| Border size                                                         36
 RS_GRID|   Distribution                         Average         Max         Min
 RS_GRID|   Planes                                 192.0         192         192

 RS_GRID| Information for grid number                                          2
 RS_GRID|   Bounds   1            -24      23                Points:          48
 RS_GRID|   Bounds   2            -40      39                Points:          80
 RS_GRID|   Bounds   3           -135     134                Points:         270
 RS_GRID| Real space fully replicated
 RS_GRID| Group size                                                           1

 RS_GRID| Information for grid number                                          3
 RS_GRID|   Bounds   1            -13      13                Points:          27
 RS_GRID|   Bounds   2            -22      22                Points:          45
 RS_GRID|   Bounds   3            -80      79                Points:         160
 RS_GRID| Real space fully replicated
 RS_GRID| Group size                                                           1

 RS_GRID| Information for grid number                                          4
 RS_GRID|   Bounds   1             -7       7                Points:          15
 RS_GRID|   Bounds   2            -13      13                Points:          27
 RS_GRID|   Bounds   3            -45      44                Points:          90
 RS_GRID| Real space fully replicated
 RS_GRID| Group size                                                           1

 BFGS| Use rational function optimization for step estimation:                NO
 BFGS| Use model Hessian for initial guess:                                  YES
 BFGS| Restart Hessian:                                                       NO
 BFGS| Trust radius:                                                       0.472

 *******************************************************************************
 ***                     STARTING GEOMETRY OPTIMIZATION                      ***
 ***                                   BFGS                                  ***
 *******************************************************************************

 Number of electrons:                                                         16
 Number of occupied orbitals:                                                  8
 Number of molecular orbitals:                                                 8

 Number of orbital functions:                                                 39
 Number of independent orbital functions:                                     39

 Extrapolation method: initial_guess

 *** WARNING in qs_initial_guess.F:306 :: User requested to restart the    ***
 *** wavefunction from the file named: co2-RESTART.wfn. This file does not ***
 *** exist. Please check the existence of the file or change properly the  ***
 *** value of the keyword WFN_RESTART_FILE_NAME. Calculation continues     ***
 *** using ATOMIC GUESS.                                                   ***


 Atomic guess: The first density matrix is obtained in terms of atomic orbitals
               and electronic configurations assigned to each atomic kind

 Guess for atomic kind: C

 Electronic structure
    Total number of core electrons                                          2.00
    Total number of valence electrons                                       4.00
    Total number of electrons                                               6.00
    Multiplicity                                                   not specified
    S   [  2.00] 2.00
    P      2.00


 *******************************************************************************
                  Iteration          Convergence                     Energy [au]
 *******************************************************************************
                          1        0.427148E-01                  -5.227811253113
                          2        0.218489E-01                  -5.228672519307
                          3        0.666851E-04                  -5.228969180638
                          4        0.102221E-07                  -5.228969183366

 Energy components [Hartree]           Total Energy ::           -5.228969183366
                                        Band Energy ::           -1.112012594120
                                     Kinetic Energy ::            3.667652954033
                                   Potential Energy ::           -8.896622137400
                                      Virial (-V/T) ::            2.425699009394
                                        Core Energy ::           -8.354438099696
                                          XC Energy ::           -1.430507543452
                                     Coulomb Energy ::            4.555976459783
                       Total Pseudopotential Energy ::          -12.054077133824
                       Local Pseudopotential Energy ::          -12.576063923110
                    Nonlocal Pseudopotential Energy ::            0.521986789286
                                        Confinement ::            0.319860800937

 Orbital energies  State     L     Occupation   Energy[a.u.]          Energy[eV]

                       1     0          2.000      -0.418938          -11.399891

                       1     1          2.000      -0.137068           -3.729809


 Total Electron Density at R=0:                                         0.015856

 Guess for atomic kind: O

 Electronic structure
    Total number of core electrons                                          2.00
    Total number of valence electrons                                       6.00
    Total number of electrons                                               8.00
    Multiplicity                                                   not specified
    S   [  2.00] 2.00
    P      4.00


 *******************************************************************************
                  Iteration          Convergence                     Energy [au]
 *******************************************************************************
                          1        0.708315                     -15.576645311500
                          2        0.608879                     -15.587933561584
                          3        0.102828E-01                 -15.656849565404
                          4        0.113889E-02                 -15.656866888140
                          5        0.434197E-03                 -15.656867072159
                          6        0.263771E-03                 -15.656867091904
                          7        0.478536E-06                 -15.656867103452

 Energy components [Hartree]           Total Energy ::          -15.656867103452
                                        Band Energy ::           -3.000198112285
                                     Kinetic Energy ::           11.759971203220
                                   Potential Energy ::          -27.416838306672
                                      Virial (-V/T) ::            2.331369510426
                                        Core Energy ::          -26.140716385623
                                          XC Energy ::           -3.154051012914
                                     Coulomb Energy ::           13.637900295084
                       Total Pseudopotential Energy ::          -37.935781716540
                       Local Pseudopotential Energy ::          -39.218907440693
                    Nonlocal Pseudopotential Energy ::            1.283125724153
                                        Confinement ::            0.350941276976

 Orbital energies  State     L     Occupation   Energy[a.u.]          Energy[eV]

                       1     0          2.000      -0.864471          -23.523463

                       1     1          4.000      -0.317814           -8.648154


 Total Electron Density at R=0:                                         0.000068
 Re-scaling the density matrix to get the right number of electrons
                  # Electrons              Trace(P)               Scaling factor
                           16                15.995                        1.000


 SCF WAVEFUNCTION OPTIMIZATION

  ----------------------------------- OT ---------------------------------------
  Minimizer      : DIIS                : direct inversion
                                         in the iterative subspace
                                         using   7 DIIS vectors
                                         safer DIIS on
  Preconditioner : FULL_SINGLE_INVERSE : inversion of 
                                         H + eS - 2*(Sc)(c^T*H*c+const)(Sc)^T
  Precond_solver : DEFAULT
  stepsize       :    0.08000000                  energy_gap     :    0.08000000
  eps_taylor     :   0.10000E-15                  max_taylor     :             4
  ----------------------------------- OT ---------------------------------------

  Step     Update method      Time    Convergence         Total energy    Change
  ------------------------------------------------------------------------------
     1 OT DIIS     0.80E-01    1.0     0.32657653       -34.7611754884 -3.48E+01
     2 OT DIIS     0.80E-01    0.7     0.21574224       -35.6263755839 -8.65E-01
     3 OT DIIS     0.80E-01    0.7     0.12887130       -36.1781324441 -5.52E-01
     4 OT SD       0.80E-01    0.6     0.14363850       -36.4691685104 -2.91E-01
     5 OT DIIS     0.80E-01    0.7     0.14704425       -36.9933052245 -5.24E-01
     6 OT SD       0.80E-01    0.7     0.18584580       -36.9402564839  5.30E-02
     7 OT DIIS     0.80E-01    0.7     0.14273656       -37.3646851455 -4.24E-01
     8 OT DIIS     0.80E-01    0.7     0.11580017       -37.4463304233 -8.16E-02
     9 OT DIIS     0.80E-01    0.7     0.08833715       -37.5751606297 -1.29E-01
    10 OT DIIS     0.80E-01    0.7     0.10912432       -37.5895560186 -1.44E-02
    11 OT DIIS     0.80E-01    0.6     0.08054272       -37.6592674813 -6.97E-02
    12 OT DIIS     0.80E-01    0.6     0.04282858       -37.7006235416 -4.14E-02
    13 OT DIIS     0.80E-01    0.7     0.00987817       -37.7123615292 -1.17E-02
    14 OT DIIS     0.80E-01    0.7     0.00686185       -37.7147187879 -2.36E-03
    15 OT DIIS     0.80E-01    0.6     0.00399861       -37.7182192787 -3.50E-03
    16 OT DIIS     0.80E-01    0.6     0.00245734       -37.7190203310 -8.01E-04
    17 OT DIIS     0.80E-01    0.6     0.00167120       -37.7194702801 -4.50E-04
    18 OT DIIS     0.80E-01    0.6     0.00107878       -37.7196749227 -2.05E-04
    19 OT DIIS     0.80E-01    0.7     0.00078264       -37.7197547035 -7.98E-05
    20 OT DIIS     0.80E-01    0.7     0.00046826       -37.7198155255 -6.08E-05
    21 OT DIIS     0.80E-01    0.6     0.00032084       -37.7198286770 -1.32E-05
    22 OT DIIS     0.80E-01    0.6     0.00019166       -37.7198371440 -8.47E-06
    23 OT DIIS     0.80E-01    0.6     0.00011751       -37.7198391843 -2.04E-06
    24 OT DIIS     0.80E-01    0.6     0.00008409       -37.7198398045 -6.20E-07
    25 OT DIIS     0.80E-01    0.7     0.00006302       -37.7198400893 -2.85E-07
    26 OT DIIS     0.80E-01    0.7     0.00003907       -37.7198403397 -2.50E-07
    27 OT DIIS     0.80E-01    0.6     0.00003005       -37.7198404114 -7.16E-08
    28 OT DIIS     0.80E-01    0.6     0.00002424       -37.7198404466 -3.53E-08
    29 OT DIIS     0.80E-01    0.6     0.00002080       -37.7198404683 -2.17E-08
    30 OT DIIS     0.80E-01    0.6     0.00001439       -37.7198404997 -3.13E-08
    31 OT DIIS     0.80E-01    0.7     0.00001084       -37.7198405142 -1.45E-08
    32 OT DIIS     0.80E-01    0.7     0.00000907       -37.7198405199 -5.72E-09

  *** SCF run converged in    32 steps ***


  Electronic density on regular grids:        -15.9999999980        0.0000000020
  Core density on regular grids:               15.9999999994       -0.0000000006
  Total charge density on r-space grids:        0.0000000014
  Total charge density g-space grids:           0.0000000014

  Overlap energy of the core charge distribution:               0.00002463756889
  Self energy of the core charge distribution:                -96.38742208476295
  Core Hamiltonian energy:                                     28.48007336061094
  Hartree energy:                                              39.03707934279432
  Exchange-correlation energy:                                 -8.84949039396525
  Dispersion energy:                                           -0.00010538213341

  Total energy:                                               -37.71984051988746

  outer SCF iter =    1 RMS gradient =   0.91E-05 energy =        -37.7198405199
  outer SCF loop converged in   1 iterations or   32 steps


 !-----------------------------------------------------------------------------!
                     Mulliken Population Analysis

 #  Atom  Element  Kind  Atomic population                           Net charge
       1     C        1          3.781429                              0.218571
       2     O        2          6.109245                             -0.109245
       3     O        2          6.109326                             -0.109326
 # Total charge                             16.000000                  0.000000

 !-----------------------------------------------------------------------------!

 !-----------------------------------------------------------------------------!
                           Hirshfeld Charges

  #Atom  Element  Kind  Ref Charge     Population                    Net charge
      1       C      1       4.000          3.398                         0.602
      2       O      2       6.000          6.298                        -0.298
      3       O      2       6.000          6.298                        -0.298

  Total Charge                                                            0.006
 !-----------------------------------------------------------------------------!

 ENERGY| Total FORCE_EVAL ( QS ) energy [a.u.]:              -37.719840525763765

 --------  Informations at step =   111 ------------
  Optimization Method        =                 BFGS
  Total Energy               =       -37.7198405258
  Used time                  =               22.883

 --------------------------
 OPTIMIZATION STEP:    112
 --------------------------

 Number of electrons:                                                         16
 Number of occupied orbitals:                                                  8
 Number of molecular orbitals:                                                 8

 Number of orbital functions:                                                 39
 Number of independent orbital functions:                                     39

 Parameters for the always stable predictor-corrector (ASPC) method:

  ASPC order: 0

  B(1) =   1.000000

 Extrapolation method: ASPC


 SCF WAVEFUNCTION OPTIMIZATION

  ----------------------------------- OT ---------------------------------------
  Minimizer      : DIIS                : direct inversion
                                         in the iterative subspace
                                         using   7 DIIS vectors
                                         safer DIIS on
  Preconditioner : FULL_SINGLE_INVERSE : inversion of 
                                         H + eS - 2*(Sc)(c^T*H*c+const)(Sc)^T
  Precond_solver : DEFAULT
  stepsize       :    0.08000000                  energy_gap     :    0.08000000
  eps_taylor     :   0.10000E-15                  max_taylor     :             4
  ----------------------------------- OT ---------------------------------------

  Step     Update method      Time    Convergence         Total energy    Change
  ------------------------------------------------------------------------------
     1 OT DIIS     0.80E-01    0.6     0.02268692       -37.7496641166 -3.77E+01
     2 OT DIIS     0.80E-01    0.6     0.01220697       -37.7593028121 -9.64E-03
     3 OT DIIS     0.80E-01    0.6     0.00448985       -37.7634947652 -4.19E-03
     4 OT DIIS     0.80E-01    0.6     0.00174259       -37.7641312955 -6.37E-04
     5 OT DIIS     0.80E-01    0.6     0.00045030       -37.7642333894 -1.02E-04
     6 OT DIIS     0.80E-01    0.7     0.00008417       -37.7642395466 -6.16E-06
     7 OT DIIS     0.80E-01    0.7     0.00002797       -37.7642397880 -2.41E-07
     8 OT DIIS     0.80E-01    0.6     0.00001042       -37.7642398094 -2.14E-08
     9 OT DIIS     0.80E-01    0.6     0.00000219       -37.7642398121 -2.69E-09

  *** SCF run converged in     9 steps ***


  Electronic density on regular grids:        -15.9999999980        0.0000000020
  Core density on regular grids:               15.9999999994       -0.0000000006
  Total charge density on r-space grids:        0.0000000015
  Total charge density g-space grids:           0.0000000015

  Overlap energy of the core charge distribution:               0.00000228371427
  Self energy of the core charge distribution:                -96.38742208476295
  Core Hamiltonian energy:                                     27.65176332749824
  Hartree energy:                                              39.62229637660868
  Exchange-correlation energy:                                 -8.65073281810724
  Dispersion energy:                                           -0.00014689702189

  Total energy:                                               -37.76423981207088

  outer SCF iter =    1 RMS gradient =   0.22E-05 energy =        -37.7642398121
  outer SCF loop converged in   1 iterations or    9 steps


 !-----------------------------------------------------------------------------!
                     Mulliken Population Analysis

 #  Atom  Element  Kind  Atomic population                           Net charge
       1     C        1          3.694042                              0.305958
       2     O        2          6.152976                             -0.152976
       3     O        2          6.152982                             -0.152982
 # Total charge                             16.000000                  0.000000

 !-----------------------------------------------------------------------------!

 !-----------------------------------------------------------------------------!
                           Hirshfeld Charges

  #Atom  Element  Kind  Ref Charge     Population                    Net charge
      1       C      1       4.000          3.389                         0.611
      2       O      2       6.000          6.303                        -0.303
      3       O      2       6.000          6.303                        -0.303

  Total Charge                                                            0.006
 !-----------------------------------------------------------------------------!

 ENERGY| Total FORCE_EVAL ( QS ) energy [a.u.]:              -37.764239812192002

 --------  Informations at step =   112 ------------
  Optimization Method        =                 BFGS
  Total Energy               =       -37.7642398122
  Real energy change         =        -0.0443992864
  Predicted change in energy =        -0.0491599762
  Scaling factor             =         0.0000000000
  Step size                  =         0.1812628387
  Trust radius               =         0.4724315332
  Decrease in energy         =                  YES
  Used time                  =                6.727

  Convergence check :
  Max. step size             =         0.1812628387
  Conv. limit for step size  =         0.0030000000
  Convergence in step size   =                   NO
  RMS step size              =         0.0854478525
  Conv. limit for RMS step   =         0.0030000000
  Convergence in RMS step    =                   NO
  Max. gradient              =         0.0026258554
  Conv. limit for gradients  =         0.0030000000
  Conv. in gradients         =                  YES
  RMS gradient               =         0.0012357505
  Conv. limit for RMS grad.  =         0.0030000000
  Conv. in RMS gradients     =                  YES
 ---------------------------------------------------
 Estimated peak process memory after this step [MiB]                        1856

 --------------------------
 OPTIMIZATION STEP:    113
 --------------------------

 Number of electrons:                                                         16
 Number of occupied orbitals:                                                  8
 Number of molecular orbitals:                                                 8

 Number of orbital functions:                                                 39
 Number of independent orbital functions:                                     39

 Parameters for the always stable predictor-corrector (ASPC) method:

  ASPC order: 0

  B(1) =   2.000000
  B(2) =  -1.000000

 Extrapolation method: ASPC


 SCF WAVEFUNCTION OPTIMIZATION

  ----------------------------------- OT ---------------------------------------
  Minimizer      : DIIS                : direct inversion
                                         in the iterative subspace
                                         using   7 DIIS vectors
                                         safer DIIS on
  Preconditioner : FULL_SINGLE_INVERSE : inversion of 
                                         H + eS - 2*(Sc)(c^T*H*c+const)(Sc)^T
  Precond_solver : DEFAULT
  stepsize       :    0.08000000                  energy_gap     :    0.08000000
  eps_taylor     :   0.10000E-15                  max_taylor     :             4
  ----------------------------------- OT ---------------------------------------

  Step     Update method      Time    Convergence         Total energy    Change
  ------------------------------------------------------------------------------
     1 OT DIIS     0.80E-01    0.6     0.02257054       -37.7500110385 -3.78E+01
     2 OT DIIS     0.80E-01    0.6     0.01198185       -37.7594602827 -9.45E-03
     3 OT DIIS     0.80E-01    0.6     0.00463629       -37.7634448213 -3.98E-03
     4 OT DIIS     0.80E-01    0.7     0.00174922       -37.7641357790 -6.91E-04
     5 OT DIIS     0.80E-01    0.7     0.00043235       -37.7642398696 -1.04E-04
     6 OT DIIS     0.80E-01    0.7     0.00008199       -37.7642456006 -5.73E-06
     7 OT DIIS     0.80E-01    0.6     0.00002479       -37.7642458354 -2.35E-07
     8 OT DIIS     0.80E-01    0.6     0.00000966       -37.7642458515 -1.61E-08

  *** SCF run converged in     8 steps ***


  Electronic density on regular grids:        -15.9999999979        0.0000000021
  Core density on regular grids:               15.9999999994       -0.0000000006
  Total charge density on r-space grids:        0.0000000015
  Total charge density g-space grids:           0.0000000015

  Overlap energy of the core charge distribution:               0.00000222938331
  Self energy of the core charge distribution:                -96.38742208476295
  Core Hamiltonian energy:                                     27.64483904522749
  Hartree energy:                                              39.62746081681003
  Exchange-correlation energy:                                 -8.64897846339499
  Dispersion energy:                                           -0.00014739471322

  Total energy:                                               -37.76424585145033

  outer SCF iter =    1 RMS gradient =   0.97E-05 energy =        -37.7642458515
  outer SCF loop converged in   1 iterations or    8 steps


 !-----------------------------------------------------------------------------!
                     Mulliken Population Analysis

 #  Atom  Element  Kind  Atomic population                           Net charge
       1     C        1          3.693262                              0.306738
       2     O        2          6.153369                             -0.153369
       3     O        2          6.153369                             -0.153369
 # Total charge                             16.000000                  0.000000

 !-----------------------------------------------------------------------------!

 !-----------------------------------------------------------------------------!
                           Hirshfeld Charges

  #Atom  Element  Kind  Ref Charge     Population                    Net charge
      1       C      1       4.000          3.389                         0.611
      2       O      2       6.000          6.303                        -0.303
      3       O      2       6.000          6.303                        -0.303

  Total Charge                                                            0.006
 !-----------------------------------------------------------------------------!

 ENERGY| Total FORCE_EVAL ( QS ) energy [a.u.]:              -37.764245854367353

 --------  Informations at step =   113 ------------
  Optimization Method        =                 BFGS
  Total Energy               =       -37.7642458544
  Real energy change         =        -0.0000060422
  Predicted change in energy =        -0.0000046421
  Scaling factor             =         0.0000000000
  Step size                  =         0.0017699337
  Trust radius               =         0.4724315332
  Decrease in energy         =                  YES
  Used time                  =                5.977

  Convergence check :
  Max. step size             =         0.0017699337
  Conv. limit for step size  =         0.0030000000
  Convergence in step size   =                  YES
  RMS step size              =         0.0008402965
  Conv. limit for RMS step   =         0.0030000000
  Convergence in RMS step    =                  YES
  Max. gradient              =         0.0007979636
  Conv. limit for gradients  =         0.0030000000
  Conv. in gradients         =                  YES
  RMS gradient               =         0.0003753402
  Conv. limit for RMS grad.  =         0.0030000000
  Conv. in RMS gradients     =                  YES
 ---------------------------------------------------
 Estimated peak process memory after this step [MiB]                        1856

 *******************************************************************************
 ***                    GEOMETRY OPTIMIZATION COMPLETED                      ***
 *******************************************************************************

                    Reevaluating energy at the minimum

 Number of electrons:                                                         16
 Number of occupied orbitals:                                                  8
 Number of molecular orbitals:                                                 8

 Number of orbital functions:                                                 39
 Number of independent orbital functions:                                     39

 Parameters for the always stable predictor-corrector (ASPC) method:

  ASPC order: 1

  B(1) =   2.500000
  B(2) =  -2.000000
  B(3) =   0.500000

 Extrapolation method: ASPC


 SCF WAVEFUNCTION OPTIMIZATION

  ----------------------------------- OT ---------------------------------------
  Minimizer      : DIIS                : direct inversion
                                         in the iterative subspace
                                         using   7 DIIS vectors
                                         safer DIIS on
  Preconditioner : FULL_SINGLE_INVERSE : inversion of 
                                         H + eS - 2*(Sc)(c^T*H*c+const)(Sc)^T
  Precond_solver : DEFAULT
  stepsize       :    0.08000000                  energy_gap     :    0.08000000
  eps_taylor     :   0.10000E-15                  max_taylor     :             4
  ----------------------------------- OT ---------------------------------------

  Step     Update method      Time    Convergence         Total energy    Change
  ------------------------------------------------------------------------------
     1 OT DIIS     0.80E-01    0.6     0.01105257       -37.7608006234 -3.78E+01
     2 OT DIIS     0.80E-01    0.7     0.00592348       -37.7630815999 -2.28E-03
     3 OT DIIS     0.80E-01    0.6     0.00221369       -37.7640643717 -9.83E-04
     4 OT DIIS     0.80E-01    0.6     0.00085588       -37.7642196458 -1.55E-04
     5 OT DIIS     0.80E-01    0.6     0.00021760       -37.7642443540 -2.47E-05
     6 OT DIIS     0.80E-01    0.6     0.00003992       -37.7642457941 -1.44E-06
     7 OT DIIS     0.80E-01    0.7     0.00001058       -37.7642458507 -5.66E-08
     8 OT DIIS     0.80E-01    0.7     0.00000405       -37.7642458541 -3.45E-09

  *** SCF run converged in     8 steps ***


  Electronic density on regular grids:        -15.9999999979        0.0000000021
  Core density on regular grids:               15.9999999994       -0.0000000006
  Total charge density on r-space grids:        0.0000000015
  Total charge density g-space grids:           0.0000000015

  Overlap energy of the core charge distribution:               0.00000222938331
  Self energy of the core charge distribution:                -96.38742208476295
  Core Hamiltonian energy:                                     27.64477994949078
  Hartree energy:                                              39.62751424105829
  Exchange-correlation energy:                                 -8.64897279456867
  Dispersion energy:                                           -0.00014739471322

  Total energy:                                               -37.76424585411246

  outer SCF iter =    1 RMS gradient =   0.40E-05 energy =        -37.7642458541
  outer SCF loop converged in   1 iterations or    8 steps


 !-----------------------------------------------------------------------------!
                     Mulliken Population Analysis

 #  Atom  Element  Kind  Atomic population                           Net charge
       1     C        1          3.693253                              0.306747
       2     O        2          6.153372                             -0.153372
       3     O        2          6.153375                             -0.153375
 # Total charge                             16.000000                  0.000000

 !-----------------------------------------------------------------------------!

 !-----------------------------------------------------------------------------!
                           Hirshfeld Charges

  #Atom  Element  Kind  Ref Charge     Population                    Net charge
      1       C      1       4.000          3.389                         0.611
      2       O      2       6.000          6.303                        -0.303
      3       O      2       6.000          6.303                        -0.303

  Total Charge                                                            0.006
 !-----------------------------------------------------------------------------!

 ENERGY| Total FORCE_EVAL ( QS ) energy [a.u.]:              -37.764245854112460

 -------------------------------------------------------------------------------
 -                                                                             -
 -                                DBCSR STATISTICS                             -
 -                                                                             -
 -------------------------------------------------------------------------------
 COUNTER                                    TOTAL       BLAS       SMM       ACC
 flops     8 x     8 x     8               540672       0.0%      0.0%    100.0%
 flops    13 x    13 x     8              1103232       0.0%      0.0%    100.0%
 flops     8 x     8 x    13              1138176       0.0%      0.0%    100.0%
 flops    13 x     8 x     8              1422720       0.0%      0.0%    100.0%
 flops    13 x     8 x    13              4842864       0.0%      0.0%    100.0%
 flops inhomo. stacks                           0       0.0%      0.0%      0.0%
 flops total                         9.047664E+06       0.0%      0.0%    100.0%
 flops max/rank                      4.360928E+06       0.0%      0.0%    100.0%
 matmuls inhomo. stacks                         0       0.0%      0.0%      0.0%
 matmuls total                               4266       0.0%      0.0%    100.0%
 number of processed stacks                  2622       0.0%      0.0%    100.0%
 average stack size                                     0.0       0.0       1.6
 marketing flops                     9.619248E+06
 -------------------------------------------------------------------------------
 # multiplications                           1312
 max memory usage/rank               1.945264E+09
 # max total images/rank                        1
 # max 3D layers                                1
 # MPI messages exchanged                   10496
 MPI messages size (bytes):
  total size                         5.793720E+06
  min size                           0.000000E+00
  max size                           5.408000E+03
  average size                     551.993164E+00
 MPI breakdown and total messages size (bytes):
             size <=      128                6207                        0
       128 < size <=     8192                4289                  5793720
      8192 < size <=    32768                   0                        0
     32768 < size <=   131072                   0                        0
    131072 < size <=  4194304                   0                        0
   4194304 < size <= 16777216                   0                        0
  16777216 < size                               0                        0
 -------------------------------------------------------------------------------
 -                                                                             -
 -                      DBCSR MESSAGE PASSING PERFORMANCE                      -
 -                                                                             -
 -------------------------------------------------------------------------------
 ROUTINE             CALLS      AVE VOLUME [Bytes]
 MP_Bcast                6                     12.
 MP_Allreduce         4629                      8.
 MP_Alltoall          4509                    178.
 MP_ISend            10480                    221.
 MP_IRecv            10480                    199.
 -------------------------------------------------------------------------------

 -------------------------------------------------------------------------------
 -                                                                             -
 -                                DBM STATISTICS                               -
 -                                                                             -
 -------------------------------------------------------------------------------
    M  x    N  x    K                                          COUNT     PERCENT
 -------------------------------------------------------------------------------

 -------------------------------------------------------------------------------
 -                                                                             -
 -                                GRID STATISTICS                              -
 -                                                                             -
 -------------------------------------------------------------------------------
 LP    KERNEL             BACKEND                              COUNT     PERCENT
 4     collocate general  GPU                                  44319      50.31%
 4     integrate general  GPU                                  41414      47.01%
 5     integrate general  GPU                                   2179       2.47%
 0     collocate general  CPU                                     96       0.11%
 0     integrate general  CPU                                     48       0.05%
 1     integrate general  CPU                                     36       0.04%
 -------------------------------------------------------------------------------

 MEMORY| Estimated peak process memory [MiB]                                1856

 -------------------------------------------------------------------------------
 ----                             MULTIGRID INFO                            ----
 -------------------------------------------------------------------------------
 count for grid        1:          42388          cutoff [a.u.]          225.00
 count for grid        2:          18788          cutoff [a.u.]           75.00
 count for grid        3:          11552          cutoff [a.u.]           25.00
 count for grid        4:           9697          cutoff [a.u.]            8.33
 total gridlevel count  :          82425

 -------------------------------------------------------------------------------
 -                                                                             -
 -                         MESSAGE PASSING PERFORMANCE                         -
 -                                                                             -
 -------------------------------------------------------------------------------

 ROUTINE             CALLS      AVE VOLUME [Bytes]
 MP_Group                4
 MP_Bcast             1421                 524275.
 MP_Allreduce         3998                    355.
 MP_Sync                39
 MP_Alltoall          1201               51419387.
 MP_SendRecv           585                 799120.
 MP_ISendRecv          540                 851520.
 MP_Wait              1628
 MP_comm_split          35
 MP_ISend              816                2974633.
 MP_IRecv              816                2974295.
 -------------------------------------------------------------------------------


 -------------------------------------------------------------------------------
 -                                                                             -
 -                           R E F E R E N C E S                               -
 -                                                                             -
 -------------------------------------------------------------------------------
 
 CP2K version 2024.1, the CP2K developers group (2024).
 CP2K is freely available from https://www.cp2k.org/ .

 Kuehne,Thomas D.; Iannuzzi,Marcella; Del Ben,Mauro;
 Rybkin,Vladimir V.; Seewald,Patrick; Stein,Frederick; Laino,Teodoro;
 Khaliullin,Rustam Z.; Schuett,Ole; Schiffmann,Florian; Golze,Dorothea;
 Wilhelm,Jan; Chulkov,Sergey; Bani-Hashemian,Mohammad Hossein;
 Weber,Valery; Borstnik,Urban; Taillefumier,Mathieu;
 Jakobovits,Alice Shoshana; Lazzaro,Alfio; Pabst,Hans; Mueller,Tiziano;
 Schade,Robert; Guidon,Manuel; Andermatt,Samuel; Holmberg,Nico;
 Schenter,Gregory K.; Hehn,Anna; Bussy,Augustin; Belleflamme,Fabian;
 Tabacchi,Gloria; Gloess,Andreas; Lass,Michael; Bethune,Iain;
 Mundy,Christopher J.; Plessl,Christian; Watkins,Matt;
 VandeVondele,Joost; Krack,Matthias; Hutter,Juerg. 
 The Journal of Chemical Physics, 152 (19), (2020). 
 CP2K: An electronic structure and molecular dynamics software package -
 Quickstep: Efficient and accurate electronic structure calculations.
 https://doi.org/10.1063/5.0007045

 Goerigk, Lars; Hansen, Andreas; Bauer, Christoph; Ehrlich, Stephan;
 Najibi, Asim; Grimme, Stefan. , 19 (48), (2017). 
 A look at the density functional theory zoo with the advanced GMTKN55 database
 for general main group thermochemistry, kinetics and noncovalent interactions.
 https://doi.org/10.1039/C7CP04913G

 Schuett, Ole; Messmer, Peter; Hutter, Juerg; VandeVondele, Joost. 
 Electronic Structure Calculations on Graphics Processing Units, John
 Wiley & Sons, Ltd, 173-190 (2016). 
 GPU-Accelerated Sparse Matrix-Matrix Multiplication for
 Linear Scaling Density Functional Theory.
 https://doi.org/10.1002/9781118670712.ch8

 Heinecke, A; Henry, G; Hutchinson, M; Pabst, H. 
 Proceedings of Intl. Supercomputing Conference, 981-991 (2016). 
 LIBXSMM: Accelerating Small Matrix Multiplications
 by Runtime Code Generation.
 https://doi.org/10.1109/SC.2016.83

 Borstnik, U; VandeVondele, J; Weber, V; Hutter, J. 
 PARALLEL COMPUTING, 40 (5-6), 47-58 (2014). 
 Sparse matrix multiplication: The distributed block-compressed sparse
 row library.
 https://doi.org/10.1016/j.parco.2014.03.012

 Hutter, J; Iannuzzi, M; Schiffmann, F; VandeVondele, J. 
 WIREs Comput Mol Sci., 4 (1), 15-25 (2014). 
 CP2K: atomistic simulations of condensed matter systems.
 https://doi.org/10.1002/wcms.1159

 Marek, A; Blum, V; Johanni, R; Havu, V; Lang, B; Auckenthaler, T;
 Heinecke, A; Bungartz, H; Lederer, H. 
 Journal of Physics: Condensed Matter, 26 (21), (2014). 
 The ELPA library: scalable parallel eigenvalue solutions for
 electronic structure
 theory and computational science.
 https://doi.org/10.1088/0953-8984/26/21/213201

 Grimme, S; Ehrlich, S; Goerigk, L. 
 JOURNAL OF COMPUTATIONAL CHEMISTRY, 32, 1456 (2011). 
 Effect of the damping function in dispersion corrected density functional theory.
 https://doi.org/10.1002/jcc.21759

 Grimme, S; Antony, J; Ehrlich, S; Krieg, H. 
 JOURNAL OF CHEMICAL PHYSICS, 132 (15), 154104 (2010). 
 A consistent and accurate ab initio parametrization of density
 functional dispersion correction (DFT-D) for the 94 elements H-Pu.
 https://doi.org/10.1063/1.3382344

 VandeVondele, J; Hutter, J. 
 JOURNAL OF CHEMICAL PHYSICS, 127 (11), 114105 (2007). 
 Gaussian basis sets for accurate calculations on molecular systems in
 gas and condensed phases.
 https://doi.org/10.1063/1.2770708

 Kuhne, TD; Krack, M; Mohamed, FR; Parrinello, M. 
 PHYSICAL REVIEW LETTERS, 98 (6), 066401 (2007). 
 Efficient and accurate Car-Parrinello-like approach to
 Born-Oppenheimer molecular dynamics.
 https://doi.org/10.1103/PhysRevLett.98.066401

 Krack, M. 
 THEORETICAL CHEMISTRY ACCOUNTS, 114 (1-3), 145-152 (2005). 
 Pseudopotentials for H to Kr optimized for gradient-corrected
 exchange-correlation functionals.
 https://doi.org/10.1007/s00214-005-0655-y

 VandeVondele, J; Krack, M; Mohamed, F; Parrinello, M; Chassaing, T;
 Hutter, J. COMPUTER PHYSICS COMMUNICATIONS, 167 (2), 103-128 (2005). 
 QUICKSTEP: Fast and accurate density functional calculations using a
 mixed Gaussian and plane waves approach.
 https://doi.org/10.1016/j.cpc.2004.12.014

 Frigo, M; Johnson, SG. 
 PROCEEDINGS OF THE IEEE, 93 (2), 216-231 (2005). 
 The design and implementation of FFTW3.
 https://doi.org/10.1109/JPROC.2004.840301

 Kolafa, J. 
 JOURNAL OF COMPUTATIONAL CHEMISTRY, 25 (3), 335-342 (2004). 
 Time-reversible always stable predictor-corrector method for
 molecular dynamics of polarizable molecules.
 https://doi.org/10.1002/jcc.10385

 VandeVondele, J; Hutter, J. 
 JOURNAL OF CHEMICAL PHYSICS, 118 (10), 4365-4369 (2003). 
 An efficient orbital transformation method for electronic structure
 calculations.
 https://doi.org/10.1063/1.1543154

 Hartwigsen, C; Goedecker, S; Hutter, J. 
 PHYSICAL REVIEW B, 58 (7), 3641-3662 (1998). 
 Relativistic separable dual-space Gaussian pseudopotentials from H to Rn.
 https://doi.org/10.1103/PhysRevB.58.3641

 Lippert, G; Hutter, J; Parrinello, M. 
 MOLECULAR PHYSICS, 92 (3), 477-487 (1997). 
 A hybrid Gaussian and plane wave density functional scheme.
 https://doi.org/10.1080/002689797170220

 Perdew, JP; Burke, K; Ernzerhof, M. 
 PHYSICAL REVIEW LETTERS, 77 (18), 3865-3868 (1996). 
 Generalized gradient approximation made simple.
 https://doi.org/10.1103/PhysRevLett.77.3865

 Goedecker, S; Teter, M; Hutter, J. 
 PHYSICAL REVIEW B, 54 (3), 1703-1710 (1996). 
 Separable dual-space Gaussian pseudopotentials.
 https://doi.org/10.1103/PhysRevB.54.1703


 -------------------------------------------------------------------------------
 -                                                                             -
 -                                T I M I N G                                  -
 -                                                                             -
 -------------------------------------------------------------------------------
 SUBROUTINE                       CALLS  ASD         SELF TIME        TOTAL TIME
                                MAXIMUM       AVERAGE  MAXIMUM  AVERAGE  MAXIMUM
 CP2K                                 1  1.0    0.107    0.116   41.592   41.592
 cp_geo_opt                           1  2.0    0.000    0.000   41.022   41.022
 geoopt_bfgs                          1  3.0    0.001    0.001   41.022   41.022
 cp_eval_at                           4  4.0    0.000    0.000   40.928   40.929
 qs_energies                          4  5.8    0.000    0.000   39.229   39.230
 scf_env_do_scf                       4  6.8    0.000    0.000   37.722   37.722
 qs_forces                            3  5.0    0.000    0.000   35.499   35.499
 scf_env_do_scf_inner_loop           57  7.9    0.001    0.004   35.123   35.124
 rebuild_ks_matrix                   60  9.7    0.000    0.000   32.837   32.839
 qs_ks_build_kohn_sham_matrix        60 10.7    0.007    0.008   32.837   32.839
 qs_ks_update_qs_env                 61  8.9    0.000    0.000   31.156   31.159
 qs_vxc_create                       60 11.7    0.002    0.002   24.019   24.059
 xc_vxc_pw_create                    60 12.7    0.514    0.543   24.017   24.057
 pw_transfer                       1149 13.9    0.111    0.132   21.543   21.765
 fft_wrap_pw1pw2                   1029 15.0    0.012    0.015   20.968   21.191
 fft_wrap_pw1pw2_230                666 16.4    0.006    0.006   19.616   19.822
 xc_rho_set_and_dset_create          60 13.7    0.461    0.553   13.887   14.239
 xc_pw_derive                       360 14.7    0.005    0.006   13.776   13.980
 pw_gpu_c1dr3d_3d_ps                541 17.4    4.347    4.594   11.242   11.267
 pw_gpu_r3dc1d_3d_ps                488 16.6    3.715    3.834    9.707    9.910
 xc_pw_divergence                    60 13.7    0.002    0.003    9.331    9.513
 xc_functional_eval                  60 14.7    0.001    0.001    5.977    6.251
 pbe_lda_eval                        60 15.7    5.976    6.250    5.976    6.250
 qs_rho_update_rho_low               61  8.9    0.000    0.000    6.157    6.180
 calculate_rho_elec                  61  9.9    0.280    0.290    6.157    6.180
 density_rs2pw                       61 10.9    0.002    0.003    5.659    5.673
 sum_up_and_integrate                60 11.7    0.001    0.001    5.015    5.040
 integrate_v_rspace                  60 12.7    0.001    0.002    4.838    4.865
 x_to_yz                            541 18.4    2.472    2.594    4.364    4.520
 mp_alltoall_z22v                  1029 19.0    3.795    4.313    3.795    4.313
 potential_pw2rs                     60 13.7    0.016    0.017    4.222    4.227
 yz_to_x                            488 17.6    1.970    2.064    3.873    4.153
 pw_derive                          360 15.7    2.590    2.664    2.590    2.664
 init_scf_loop                        4  7.8    0.000    0.000    2.597    2.597
 pw_copy                            720 14.6    1.855    1.879    1.855    1.879
 qs_ks_update_qs_env_forces           3  6.0    0.000    0.000    1.683    1.683
 pw_gpu_sf                          541 18.4    1.516    1.588    1.516    1.588
 transfer_pw2rs                     247 14.6    0.002    0.003    1.541    1.545
 pw_axpy                            604 13.1    1.513    1.537    1.513    1.537
 pw_gpu_fg                          488 17.6    1.380    1.428    1.380    1.428
 pw_poisson_solve                    60 11.7    0.234    0.236    1.362    1.362
 transfer_pw2rs_230                  67 15.3    0.428    0.438    1.212    1.226
 dbcsr_multiply_generic            1312 13.9    0.020    0.021    1.101    1.225
 pw_gpu_ffc                         541 18.4    1.002    1.038    1.002    1.038
 transfer_rs2pw                     252 11.8    0.002    0.002    0.999    1.016
 fft_wrap_pw1pw2_80                 121 15.3    0.001    0.001    0.940    0.963
 init_scf_run                         4  6.8    0.000    0.000    0.946    0.946
 scf_env_initial_rho_setup            4  7.8    0.000    0.000    0.946    0.946
 multiply_cannon                   1312 14.9    0.056    0.058    0.658    0.886
 -------------------------------------------------------------------------------

 The number of warnings for this run is : 1
 
 -------------------------------------------------------------------------------
  **** **** ******  **  PROGRAM ENDED AT                 2025-04-26 06:15:31.543
 ***** ** ***  *** **   PROGRAM RAN ON                                     r12n6
 **    ****   ******    PROGRAM RAN BY                                   uh03203
 ***** **    ** ** **   PROGRAM PROCESS ID                                627036
  **** **  *******  **  PROGRAM STOPPED IN /home/3/uh03203/Documents/cp2k/dft_hy
                                           dro/dft_input/molecules
