 DBCSR| CPU Multiplication driver                                           XSMM (U)
 DBCSR| Multrec recursion limit                                              512 (U)
 DBCSR| Multiplication stack size                                          30000 (D)
 DBCSR| Maximum elements for images                                    UNLIMITED (U)
 DBCSR| Multiplicative factor virtual images                                   1 (U)
 DBCSR| Use multiplication densification                                       F (D)
 DBCSR| Multiplication size stacks                                             3 (U)
 DBCSR| Use memory pool for CPU allocation                                     F (U)
 DBCSR| Number of 3D layers                                               SINGLE (U)
 DBCSR| Use MPI memory allocation                                              F (U)
 DBCSR| Use RMA algorithm                                                      F (U)
 DBCSR| Use Communication thread                                               T (U)
 DBCSR| Communication thread load                                             83 (D)
 DBCSR| MPI: My process id                                                     0
 DBCSR| MPI: Number of processes                                               4
 DBCSR| OMP: Current number of threads                                         2
 DBCSR| OMP: Max number of threads                                             2
 DBCSR| ACC: Number of devices/node                                            4
 DBCSR| ACC: Number of stack-buffers per thread                                8 (U)
 DBCSR| ACC: Avoid driver after busy                                           F (U)
 DBCSR| ACC: Process inhomogeneous stacks                                      T (U)
 DBCSR| ACC: Min. flop for processing                                          0 (U)
 DBCSR| ACC: Min. flop for sorting                                          4000 (U)
 DBCSR| ACC: Number of binning bins                                         4096 (U)
 DBCSR| ACC: Size of binning bins                                             16 (U)
 DBCSR| Split modifier for TAS multiplication algorithm                  1.0E+00 (U)


  **** **** ******  **  PROGRAM STARTED AT               2025-04-26 06:14:07.869
 ***** ** ***  *** **   PROGRAM STARTED ON                                 r12n6
 **    ****   ******    PROGRAM STARTED BY                               uh03203
 ***** **    ** ** **   PROGRAM PROCESS ID                                626701
  **** **  *******  **  PROGRAM STARTED IN /home/3/uh03203/Documents/cp2k/dft_hy
                                           dro/dft_input/molecules

 CP2K| version string:                                       CP2K version 2024.1
 CP2K| source code revision number:                                  git:b4a17a5
 CP2K| cp2kflags: omp libint fftw3 libxc libgrpp elpa elpa_nvidia_gpu parallel m
 CP2K|            pi_f08 scalapack cosma xsmm dbcsr_acc plumed2 spglib mkl siriu
 CP2K|            us libvori libbqb offload_cuda spla_gemm_offloading libvdwxc h
 CP2K|            hdf5
 CP2K| is freely available from                            https://www.cp2k.org/
 CP2K| Program compiled at                       Fri Mar 22 01:50:50 PM JST 2024
 CP2K| Program compiled on                                                 r1n10
 CP2K| Program compiled for                                           local_cuda
 CP2K| Data directory path      /gs/fs/hpe/fukuoka/builds/cp2k/v2024.1/cp2k/data
 CP2K| Input file name                                                    h2.inp

 GLOBAL| Force Environment number                                              1
 GLOBAL| Basis set file name            /home/3/uh03203/Documents/cp2k/data/BASI
 GLOBAL| Potential file name            /home/3/uh03203/Documents/cp2k/data/GTH_
 GLOBAL| MM Potential file name                                     MM_POTENTIAL
 GLOBAL| Coordinate file name                                             h2.cif
 GLOBAL| Method name                                                        CP2K
 GLOBAL| Project name                                                         h2
 GLOBAL| Run type                                                        GEO_OPT
 GLOBAL| FFT library                                                       FFTW3
 GLOBAL| Diagonalization library                                            ELPA
 GLOBAL| DGEMM library                                                      SPLA
 GLOBAL| Minimum number of eigenvectors for ELPA usage                        16
 GLOBAL| Orthonormality check for eigenvectors                          DISABLED
 GLOBAL| Matrix multiplication library                                     COSMA
 GLOBAL| All-to-all communication in single precision                          F
 GLOBAL| FFTs using library dependent lengths                                  F
 GLOBAL| Grid backend                                                       AUTO
 GLOBAL| Global print level                                               MEDIUM
 GLOBAL| MPI I/O enabled                                                       T
 GLOBAL| Total number of message passing processes                             4
 GLOBAL| Number of threads for this process                                    2
 GLOBAL| This output is from process                                           0
 GLOBAL| Stack size for threads created by OpenMP (OMP_STACKSIZE)        default
 GLOBAL| CPU model name                          AMD EPYC 9654 96-Core Processor
 GLOBAL| CPUID                                                              1003
 GLOBAL| Compiled for CPUID                                                 1000

 *** HINT in environment.F:920 :: The compiler target flags (x86_sse4)     ***
 *** used to build this binary cannot exploit all extensions of this CPU   ***
 *** model (x86_avx512). Consider compiler target flags as part of FCFLAGS ***
 *** and CFLAGS (ARCH file).                                               ***


 MEMORY| system memory details [Kb]
 MEMORY|                        rank 0           min           max       average
 MEMORY| MemTotal            791707348     791707348     791707348     791707348
 MEMORY| MemFree             724612012     724612012     724612012     724612012
 MEMORY| Buffers                  1688          1688          1688          1688
 MEMORY| Cached               41694420      41694420      41694420      41694420
 MEMORY| Slab                  7460388       7460388       7460388       7460388
 MEMORY| SReclaimable          1332140       1332140       1332140       1332140
 MEMORY| MemLikelyFree       767640260     767640260     767640260     767640260


 *** Fundamental physical constants (SI units) ***

 *** Literature: B. J. Mohr and B. N. Taylor,
 ***             CODATA recommended values of the fundamental physical
 ***             constants: 2006, Web Version 5.1
 ***             http://physics.nist.gov/constants

 Speed of light in vacuum [m/s]                             2.99792458000000E+08
 Magnetic constant or permeability of vacuum [N/A**2]       1.25663706143592E-06
 Electric constant or permittivity of vacuum [F/m]          8.85418781762039E-12
 Planck constant (h) [J*s]                                  6.62606896000000E-34
 Planck constant (h-bar) [J*s]                              1.05457162825177E-34
 Elementary charge [C]                                      1.60217648700000E-19
 Electron mass [kg]                                         9.10938215000000E-31
 Electron g factor [ ]                                     -2.00231930436220E+00
 Proton mass [kg]                                           1.67262163700000E-27
 Fine-structure constant                                    7.29735253760000E-03
 Rydberg constant [1/m]                                     1.09737315685270E+07
 Avogadro constant [1/mol]                                  6.02214179000000E+23
 Boltzmann constant [J/K]                                   1.38065040000000E-23
 Atomic mass unit [kg]                                      1.66053878200000E-27
 Bohr radius [m]                                            5.29177208590000E-11

 *** Conversion factors ***

 [u] -> [a.u.]                                              1.82288848426455E+03
 [Angstrom] -> [Bohr] = [a.u.]                              1.88972613288564E+00
 [a.u.] = [Bohr] -> [Angstrom]                              5.29177208590000E-01
 [a.u.] -> [s]                                              2.41888432650478E-17
 [a.u.] -> [fs]                                             2.41888432650478E-02
 [a.u.] -> [J]                                              4.35974393937059E-18
 [a.u.] -> [N]                                              8.23872205491840E-08
 [a.u.] -> [K]                                              3.15774647902944E+05
 [a.u.] -> [kJ/mol]                                         2.62549961709828E+03
 [a.u.] -> [kcal/mol]                                       6.27509468713739E+02
 [a.u.] -> [Pa]                                             2.94210107994716E+13
 [a.u.] -> [bar]                                            2.94210107994716E+08
 [a.u.] -> [atm]                                            2.90362800883016E+08
 [a.u.] -> [eV]                                             2.72113838565563E+01
 [a.u.] -> [Hz]                                             6.57968392072181E+15
 [a.u.] -> [1/cm] (wave numbers)                            2.19474631370540E+05
 [a.u./Bohr**2] -> [1/cm]                                   5.14048714338585E+03
 

 CELL_TOP| Volume [angstrom^3]:                                      2197.699725
 CELL_TOP| Vector a [angstrom     6.379     0.000     0.000   |a| =     6.379011
 CELL_TOP| Vector b [angstrom    -0.034    10.789     0.000   |b| =    10.789341
 CELL_TOP| Vector c [angstrom   -15.577    -0.326    31.932   |c| =    35.530106
 CELL_TOP| Angle (b,c), alpha [degree]:                                90.446854
 CELL_TOP| Angle (a,c), beta  [degree]:                               116.003212
 CELL_TOP| Angle (a,b), gamma [degree]:                                90.179199
 CELL_TOP| Numerically orthorhombic:                                          NO
 CELL_TOP| Periodicity                                                       XYZ

 CELL_CIF| Volume [angstrom^3]:                                      2197.699725
 CELL_CIF| Vector a [angstrom     6.379     0.000     0.000   |a| =     6.379011
 CELL_CIF| Vector b [angstrom    -0.034    10.789     0.000   |b| =    10.789341
 CELL_CIF| Vector c [angstrom   -15.577    -0.326    31.932   |c| =    35.530106
 CELL_CIF| Angle (b,c), alpha [degree]:                                90.446854
 CELL_CIF| Angle (a,c), beta  [degree]:                               116.003212
 CELL_CIF| Angle (a,b), gamma [degree]:                                90.179199
 CELL_CIF| Numerically orthorhombic:                                          NO
 CELL_CIF| Periodicity                                                       XYZ

 GENERATE|  Preliminary Number of Bonds generated:                             0
 GENERATE|  Achieved consistency in connectivity generation.

 CELL| Volume [angstrom^3]:                                          2197.699725
 CELL| Vector a [angstrom]:       6.379     0.000     0.000   |a| =     6.379011
 CELL| Vector b [angstrom]:      -0.034    10.789     0.000   |b| =    10.789341
 CELL| Vector c [angstrom]:     -15.577    -0.326    31.932   |c| =    35.530106
 CELL| Angle (b,c), alpha [degree]:                                    90.446854
 CELL| Angle (a,c), beta  [degree]:                                   116.003212
 CELL| Angle (a,b), gamma [degree]:                                    90.179199
 CELL| Numerically orthorhombic:                                              NO
 CELL| Periodicity                                                           XYZ

 CELL_REF| Volume [angstrom^3]:                                      2197.699725
 CELL_REF| Vector a [angstrom     6.379     0.000     0.000   |a| =     6.379011
 CELL_REF| Vector b [angstrom    -0.034    10.789     0.000   |b| =    10.789341
 CELL_REF| Vector c [angstrom   -15.577    -0.326    31.932   |c| =    35.530106
 CELL_REF| Angle (b,c), alpha [degree]:                                90.446854
 CELL_REF| Angle (a,c), beta  [degree]:                               116.003212
 CELL_REF| Angle (a,b), gamma [degree]:                                90.179199
 CELL_REF| Numerically orthorhombic:                                          NO
 CELL_REF| Periodicity                                                       XYZ

 *******************************************************************************
 *******************************************************************************
 **                                                                           **
 **     #####                         ##              ##                      **
 **    ##   ##            ##          ##              ##                      **
 **   ##     ##                       ##            ######                    **
 **   ##     ##  ##   ##  ##   #####  ##  ##   ####   ##    #####    #####    **
 **   ##     ##  ##   ##  ##  ##      ## ##   ##      ##   ##   ##  ##   ##   **
 **   ##  ## ##  ##   ##  ##  ##      ####     ###    ##   ######   ######    **
 **    ##  ###   ##   ##  ##  ##      ## ##      ##   ##   ##       ##        **
 **     #######   #####   ##   #####  ##  ##  ####    ##    #####   ##        **
 **           ##                                                    ##        **
 **                                                                           **
 **                                                ... make the atoms dance   **
 **                                                                           **
 **            Copyright (C) by CP2K developers group (2000-2024)             **
 **                      J. Chem. Phys. 152, 194103 (2020)                    **
 **                                                                           **
 *******************************************************************************

 DFT| Spin restricted Kohn-Sham (RKS) calculation                            RKS
 DFT| Multiplicity                                                             1
 DFT| Number of spin states                                                    1
 DFT| Charge                                                                   0
 DFT| Self-interaction correction (SIC)                                       NO
 DFT| Cutoffs: density                                              1.000000E-10
 DFT|          gradient                                             1.000000E-10
 DFT|          tau                                                  1.000000E-10
 DFT|          cutoff_smoothing_range                               0.000000E+00
 DFT| XC density smoothing                                                  NONE
 DFT| XC derivatives                                                          PW

 FUNCTIONAL| PBE:
 FUNCTIONAL| J.P.Perdew, K.Burke, M.Ernzerhof, Phys. Rev. Letter, vol. 77, n 18,
 FUNCTIONAL|  pp. 3865-3868, (1996) {spin unpolarized}                          

 vdW POTENTIAL|                                                   Pair Potential
 vdW POTENTIAL|          DFT-D3 (Version 3.1)
 vdW POTENTIAL|          Potential Form: S. Grimme et al, JCP 132: 154104 (2010)
 vdW POTENTIAL|          Zero Damping
 vdW POTENTIAL|          Cutoff Radius [Bohr]:                             18.90
 vdW POTENTIAL|          s6 Scaling Factor:                               1.0000
 vdW POTENTIAL|          sr6 Scaling Factor:                              1.2170
 vdW POTENTIAL|          s8 Scaling Factor:                               0.7220
 vdW POTENTIAL|          Cutoff for CN calculation:                   0.1000E-05

 QS| Method:                                                                 GPW
 QS| Density plane wave grid type                        NON-SPHERICAL FULLSPACE
 QS| Number of grid levels:                                                    4
 QS| Density cutoff [a.u.]:                                                225.0
 QS| Multi grid cutoff [a.u.]: 1) grid level                               225.0
 QS|                           2) grid level                                75.0
 QS|                           3) grid level                                25.0
 QS|                           4) grid level                                 8.3
 QS| Grid level progression factor:                                          3.0
 QS| Relative density cutoff [a.u.]:                                        30.0
 QS| Interaction thresholds: eps_pgf_orb:                                1.0E-05
 QS|                         eps_filter_matrix:                          0.0E+00
 QS|                         eps_core_charge:                            1.0E-12
 QS|                         eps_rho_gspace:                             1.0E-10
 QS|                         eps_rho_rspace:                             1.0E-10
 QS|                         eps_gvg_rspace:                             1.0E-05
 QS|                         eps_ppl:                                    1.0E-02
 QS|                         eps_ppnl:                                   1.0E-07


 ATOMIC KIND INFORMATION

  1. Atomic kind: H                                     Number of atoms:       2

     Orbital Basis Set                                           DZVP-MOLOPT-GTH

       Number of orbital shell sets:                                           1
       Number of orbital shells:                                               3
       Number of primitive Cartesian functions:                                7
       Number of Cartesian basis functions:                                    5
       Number of spherical basis functions:                                    5
       Norm type:                                                              2

       Normalised Cartesian orbitals:

                        Set   Shell   Orbital            Exponent    Coefficient

                          1       1    2s               11.478000       0.129129
                                                         3.700759       0.177012
                                                         1.446884       0.141285
                                                         0.716815       0.245670
                                                         0.247919       0.094768
                                                         0.066918       0.004062
                                                         0.021708      -0.000053

                          1       2    3s               11.478000      -0.079256
                                                         3.700759      -0.152992
                                                         1.446884       0.015066
                                                         0.716815      -0.331234
                                                         0.247919       0.210690
                                                         0.066918       0.058630
                                                         0.021708      -0.003429

                          1       3    3px              11.478000       0.325290
                                                         3.700759       0.187466
                                                         1.446884       0.443300
                                                         0.716815       0.267738
                                                         0.247919       0.088285
                                                         0.066918       0.019092
                                                         0.021708       0.000629
                          1       3    3py              11.478000       0.325290
                                                         3.700759       0.187466
                                                         1.446884       0.443300
                                                         0.716815       0.267738
                                                         0.247919       0.088285
                                                         0.066918       0.019092
                                                         0.021708       0.000629
                          1       3    3pz              11.478000       0.325290
                                                         3.700759       0.187466
                                                         1.446884       0.443300
                                                         0.716815       0.267738
                                                         0.247919       0.088285
                                                         0.066918       0.019092
                                                         0.021708       0.000629

       Atomic covalent radius [Angstrom]:                                  0.320

       Atomic van der Waals radius [Angstrom]:                             1.090

     GTH Potential information for                                    GTH-PBE-q1

       Description:                       Goedecker-Teter-Hutter pseudopotential
                                           Goedecker et al., PRB 54, 1703 (1996)
                                          Hartwigsen et al., PRB 58, 3641 (1998)
                                                      Krack, TCA 114, 145 (2005)

       Gaussian exponent of the core charge distribution:              12.500000
       Electronic configuration (s p d ...):                                   1

       Parameters of the local part of the GTH pseudopotential:

                          rloc        C1          C2          C3          C4
                        0.200000   -4.178900    0.724463


 MOLECULE KIND INFORMATION


 All atoms are their own molecule, skipping detailed information


 TOTAL NUMBERS AND MAXIMUM NUMBERS

  Total number of            - Atomic kinds:                                   1
                             - Atoms:                                          2
                             - Shell sets:                                     2
                             - Shells:                                         6
                             - Primitive Cartesian functions:                 14
                             - Cartesian basis functions:                     10
                             - Spherical basis functions:                     10

  Maximum angular momentum of- Orbital basis functions:                        1
                             - Local part of the GTH pseudopotential:          2


 MODULE QUICKSTEP: ATOMIC COORDINATES IN ANGSTROM

   Atom Kind Element         X             Y             Z       Z(eff)     Mass
      1    1 H     1     -4.615949      5.231734     15.965856   1.0000   1.0079
      2    1 H     1     -4.304405      5.238251     15.327222   1.0000   1.0079



 SCF PARAMETERS         Density guess:                                   RESTART
                        --------------------------------------------------------
                        max_scf:                                             100
                        max_scf_history:                                       0
                        max_diis:                                              4
                        --------------------------------------------------------
                        eps_scf:                                        1.00E-05
                        eps_scf_history:                                0.00E+00
                        eps_diis:                                       1.00E-01
                        eps_eigval:                                     1.00E-05
                        --------------------------------------------------------
                        level_shift [a.u.]:                             0.000000
                        --------------------------------------------------------
                        Outer loop SCF in use 
                        No variables optimised in outer loop
                        eps_scf                                         1.00E-04
                        max_scf                                              100
                        DIIS optimization
                        DIIS buffer length                                     3
                        step_size                                       5.00E-01

 PW_GRID| Information for grid number                                          1
 PW_GRID| Grid distributed over                                     4 processors
 PW_GRID| Real space group dimensions                                     4    1
 PW_GRID| the grid is blocked:                                                NO
 PW_GRID| Cutoff [a.u.]                                                    225.0
 PW_GRID| spherical cutoff:                                                   NO
 PW_GRID|   Bounds   1            -40      40                Points:          81
 PW_GRID|   Bounds   2            -72      71                Points:         144
 PW_GRID|   Bounds   3           -240     239                Points:         480
 PW_GRID| Volume element (a.u.^3)  0.2649E-02     Volume (a.u.^3)     14830.8131
 PW_GRID| Grid span                                                    FULLSPACE
 PW_GRID|   Distribution                         Average         Max         Min
 PW_GRID|   G-Vectors                          1399680.0     1399680     1399680
 PW_GRID|   G-Rays                               17280.0       17280       17280
 PW_GRID|   Real Space Points                  1399680.0     1451520     1382400

 PW_GRID| Information for grid number                                          2
 PW_GRID| Number of the reference grid                                         1
 PW_GRID| Grid distributed over                                     4 processors
 PW_GRID| Real space group dimensions                                     4    1
 PW_GRID| the grid is blocked:                                                NO
 PW_GRID| Cutoff [a.u.]                                                     75.0
 PW_GRID| spherical cutoff:                                                   NO
 PW_GRID|   Bounds   1            -24      23                Points:          48
 PW_GRID|   Bounds   2            -40      39                Points:          80
 PW_GRID|   Bounds   3           -135     134                Points:         270
 PW_GRID| Volume element (a.u.^3)  0.1430E-01     Volume (a.u.^3)     14830.8131
 PW_GRID| Grid span                                                    FULLSPACE
 PW_GRID|   Distribution                         Average         Max         Min
 PW_GRID|   G-Vectors                           259200.0      259248      259152
 PW_GRID|   G-Rays                                5400.0        5401        5399
 PW_GRID|   Real Space Points                   259200.0      259200      259200

 PW_GRID| Information for grid number                                          3
 PW_GRID| Number of the reference grid                                         1
 PW_GRID| Grid distributed over                                     4 processors
 PW_GRID| Real space group dimensions                                     4    1
 PW_GRID| the grid is blocked:                                                NO
 PW_GRID| Cutoff [a.u.]                                                     25.0
 PW_GRID| spherical cutoff:                                                   NO
 PW_GRID|   Bounds   1            -13      13                Points:          27
 PW_GRID|   Bounds   2            -22      22                Points:          45
 PW_GRID|   Bounds   3            -80      79                Points:         160
 PW_GRID| Volume element (a.u.^3)  0.7629E-01     Volume (a.u.^3)     14830.8131
 PW_GRID| Grid span                                                    FULLSPACE
 PW_GRID|   Distribution                         Average         Max         Min
 PW_GRID|   G-Vectors                            48600.0       48870       48168
 PW_GRID|   G-Rays                                1800.0        1810        1784
 PW_GRID|   Real Space Points                    48600.0       50400       43200

 PW_GRID| Information for grid number                                          4
 PW_GRID| Number of the reference grid                                         1
 PW_GRID| Grid distributed over                                     4 processors
 PW_GRID| Real space group dimensions                                     4    1
 PW_GRID| the grid is blocked:                                                NO
 PW_GRID| Cutoff [a.u.]                                                      8.3
 PW_GRID| spherical cutoff:                                                   NO
 PW_GRID|   Bounds   1             -7       7                Points:          15
 PW_GRID|   Bounds   2            -13      13                Points:          27
 PW_GRID|   Bounds   3            -45      44                Points:          90
 PW_GRID| Volume element (a.u.^3)  0.4069         Volume (a.u.^3)     14830.8131
 PW_GRID| Grid span                                                    FULLSPACE
 PW_GRID|   Distribution                         Average         Max         Min
 PW_GRID|   G-Vectors                             9112.5        9135        9090
 PW_GRID|   G-Rays                                 607.5         609         606
 PW_GRID|   Real Space Points                     9112.5        9720        7290

 POISSON| Solver                                                        PERIODIC
 POISSON| Periodicity                                                        XYZ

 RS_GRID| Information for grid number                                          1
 RS_GRID|   Bounds   1            -40      40                Points:          81
 RS_GRID|   Bounds   2            -72      71                Points:         144
 RS_GRID|   Bounds   3           -240     239                Points:         480
 RS_GRID| Real space distribution over                                  4 groups
 RS_GRID| Real space distribution along direction                              3
 RS_GRID| Border size                                                         33
 RS_GRID|   Distribution                         Average         Max         Min
 RS_GRID|   Planes                                 186.0         186         186

 RS_GRID| Information for grid number                                          2
 RS_GRID|   Bounds   1            -24      23                Points:          48
 RS_GRID|   Bounds   2            -40      39                Points:          80
 RS_GRID|   Bounds   3           -135     134                Points:         270
 RS_GRID| Real space fully replicated
 RS_GRID| Group size                                                           1

 RS_GRID| Information for grid number                                          3
 RS_GRID|   Bounds   1            -13      13                Points:          27
 RS_GRID|   Bounds   2            -22      22                Points:          45
 RS_GRID|   Bounds   3            -80      79                Points:         160
 RS_GRID| Real space fully replicated
 RS_GRID| Group size                                                           1

 RS_GRID| Information for grid number                                          4
 RS_GRID|   Bounds   1             -7       7                Points:          15
 RS_GRID|   Bounds   2            -13      13                Points:          27
 RS_GRID|   Bounds   3            -45      44                Points:          90
 RS_GRID| Real space fully replicated
 RS_GRID| Group size                                                           1

 BFGS| Use rational function optimization for step estimation:                NO
 BFGS| Use model Hessian for initial guess:                                  YES
 BFGS| Restart Hessian:                                                       NO
 BFGS| Trust radius:                                                       0.472

 *******************************************************************************
 ***                     STARTING GEOMETRY OPTIMIZATION                      ***
 ***                                   BFGS                                  ***
 *******************************************************************************

 Number of electrons:                                                          2
 Number of occupied orbitals:                                                  1
 Number of molecular orbitals:                                                 1

 Number of orbital functions:                                                 10
 Number of independent orbital functions:                                     10

 Extrapolation method: initial_guess

 *** WARNING in qs_initial_guess.F:306 :: User requested to restart the   ***
 *** wavefunction from the file named: h2-RESTART.wfn. This file does not ***
 *** exist. Please check the existence of the file or change properly the ***
 *** value of the keyword WFN_RESTART_FILE_NAME. Calculation continues    ***
 *** using ATOMIC GUESS.                                                  ***


 Atomic guess: The first density matrix is obtained in terms of atomic orbitals
               and electronic configurations assigned to each atomic kind

 Guess for atomic kind: H

 Electronic structure
    Total number of core electrons                                          0.00
    Total number of valence electrons                                       1.00
    Total number of electrons                                               1.00
    Multiplicity                                                   not specified
    S      1.00


 *******************************************************************************
                  Iteration          Convergence                     Energy [au]
 *******************************************************************************
                          1        0.437545E-02                  -0.424159432110
                          2        0.531356E-03                  -0.424178438213
                          3        0.259176E-06                  -0.424178722480

 Energy components [Hartree]           Total Energy ::           -0.424178722480
                                        Band Energy ::           -0.199015229016
                                     Kinetic Energy ::            0.464007633961
                                   Potential Energy ::           -0.888186356441
                                      Virial (-V/T) ::            1.914163240935
                                        Core Energy ::           -0.479160803564
                                          XC Energy ::           -0.244352904054
                                     Coulomb Energy ::            0.299334985138
                       Total Pseudopotential Energy ::           -0.962295316385
                       Local Pseudopotential Energy ::           -0.962295316385
                    Nonlocal Pseudopotential Energy ::            0.000000000000
                                        Confinement ::            0.191268788606

 Orbital energies  State     L     Occupation   Energy[a.u.]          Energy[eV]

                       1     0          1.000      -0.199015           -5.415480


 Total Electron Density at R=0:                                         0.242907
 Re-scaling the density matrix to get the right number of electrons
                  # Electrons              Trace(P)               Scaling factor
                            2                 1.994                        1.003


 SCF WAVEFUNCTION OPTIMIZATION

  ----------------------------------- OT ---------------------------------------
  Minimizer      : DIIS                : direct inversion
                                         in the iterative subspace
                                         using   7 DIIS vectors
                                         safer DIIS on
  Preconditioner : FULL_SINGLE_INVERSE : inversion of 
                                         H + eS - 2*(Sc)(c^T*H*c+const)(Sc)^T
  Precond_solver : DEFAULT
  stepsize       :    0.08000000                  energy_gap     :    0.08000000
  eps_taylor     :   0.10000E-15                  max_taylor     :             4
  ----------------------------------- OT ---------------------------------------

  Step     Update method      Time    Convergence         Total energy    Change
  ------------------------------------------------------------------------------
     1 OT DIIS     0.80E-01    0.7     0.24289823        -1.0947032520 -1.09E+00
     2 OT DIIS     0.80E-01    0.7     0.16257931        -1.1341681240 -3.95E-02
     3 OT DIIS     0.80E-01    0.7     0.00927020        -1.1648384146 -3.07E-02
     4 OT DIIS     0.80E-01    0.6     0.00727876        -1.1648760855 -3.77E-05
     5 OT DIIS     0.80E-01    0.7     0.00117594        -1.1649390015 -6.29E-05
     6 OT DIIS     0.80E-01    0.7     0.00124939        -1.1649387878  2.14E-07
     7 OT DIIS     0.80E-01    0.7     0.00058434        -1.1649401900 -1.40E-06
     8 OT DIIS     0.80E-01    0.7     0.00003819        -1.1649405802 -3.90E-07
     9 OT DIIS     0.80E-01    0.6     0.00000140        -1.1649405819 -1.70E-09

  *** SCF run converged in     9 steps ***


  Electronic density on regular grids:         -1.9999999999        0.0000000001
  Core density on regular grids:                1.9999999999       -0.0000000001
  Total charge density on r-space grids:       -0.0000000001
  Total charge density g-space grids:          -0.0000000001

  Overlap energy of the core charge distribution:               0.00000153238334
  Self energy of the core charge distribution:                 -2.82094791773878
  Core Hamiltonian energy:                                      1.00441971542370
  Hartree energy:                                               1.35325780306558
  Exchange-correlation energy:                                 -0.70166692931458
  Dispersion energy:                                           -0.00000478568768

  Total energy:                                                -1.16494058186843

  outer SCF iter =    1 RMS gradient =   0.14E-05 energy =         -1.1649405819
  outer SCF loop converged in   1 iterations or    9 steps


 !-----------------------------------------------------------------------------!
                     Mulliken Population Analysis

 #  Atom  Element  Kind  Atomic population                           Net charge
       1     H        1          1.000000                              0.000000
       2     H        1          1.000000                             -0.000000
 # Total charge                              2.000000                 -0.000000

 !-----------------------------------------------------------------------------!

 !-----------------------------------------------------------------------------!
                           Hirshfeld Charges

  #Atom  Element  Kind  Ref Charge     Population                    Net charge
      1       H      1       1.000          0.910                         0.090
      2       H      1       1.000          0.910                         0.090

  Total Charge                                                            0.180
 !-----------------------------------------------------------------------------!

 ENERGY| Total FORCE_EVAL ( QS ) energy [a.u.]:               -1.164940581871067

 --------  Informations at step =   111 ------------
  Optimization Method        =                 BFGS
  Total Energy               =        -1.1649405819
  Used time                  =                7.967

 --------------------------
 OPTIMIZATION STEP:    112
 --------------------------

 Number of electrons:                                                          2
 Number of occupied orbitals:                                                  1
 Number of molecular orbitals:                                                 1

 Number of orbital functions:                                                 10
 Number of independent orbital functions:                                     10

 Parameters for the always stable predictor-corrector (ASPC) method:

  ASPC order: 0

  B(1) =   1.000000

 Extrapolation method: ASPC


 SCF WAVEFUNCTION OPTIMIZATION

  ----------------------------------- OT ---------------------------------------
  Minimizer      : DIIS                : direct inversion
                                         in the iterative subspace
                                         using   7 DIIS vectors
                                         safer DIIS on
  Preconditioner : FULL_SINGLE_INVERSE : inversion of 
                                         H + eS - 2*(Sc)(c^T*H*c+const)(Sc)^T
  Precond_solver : DEFAULT
  stepsize       :    0.08000000                  energy_gap     :    0.08000000
  eps_taylor     :   0.10000E-15                  max_taylor     :             4
  ----------------------------------- OT ---------------------------------------

  Step     Update method      Time    Convergence         Total energy    Change
  ------------------------------------------------------------------------------
     1 OT DIIS     0.80E-01    0.6     0.01194920        -1.1659096887 -1.17E+00
     2 OT DIIS     0.80E-01    0.7     0.00806053        -1.1660053211 -9.56E-05
     3 OT DIIS     0.80E-01    0.6     0.00041579        -1.1660852309 -7.99E-05
     4 OT DIIS     0.80E-01    0.7     0.00002926        -1.1660854725 -2.42E-07
     5 OT DIIS     0.80E-01    0.7     0.00001461        -1.1660854733 -8.09E-10
     6 OT DIIS     0.80E-01    0.6     0.00000026        -1.1660854736 -2.68E-10

  *** SCF run converged in     6 steps ***


  Electronic density on regular grids:         -1.9999999999        0.0000000001
  Core density on regular grids:                1.9999999999       -0.0000000001
  Total charge density on r-space grids:       -0.0000000001
  Total charge density g-space grids:          -0.0000000001

  Overlap energy of the core charge distribution:               0.00000042704195
  Self energy of the core charge distribution:                 -2.82094791773878
  Core Hamiltonian energy:                                      0.97678597237347
  Hartree energy:                                               1.36784935560420
  Exchange-correlation energy:                                 -0.68976844328073
  Dispersion energy:                                           -0.00000486761179

  Total energy:                                                -1.16608547361167

  outer SCF iter =    1 RMS gradient =   0.26E-06 energy =         -1.1660854736
  outer SCF loop converged in   1 iterations or    6 steps


 !-----------------------------------------------------------------------------!
                     Mulliken Population Analysis

 #  Atom  Element  Kind  Atomic population                           Net charge
       1     H        1          1.000000                             -0.000000
       2     H        1          1.000000                              0.000000
 # Total charge                              2.000000                  0.000000

 !-----------------------------------------------------------------------------!

 !-----------------------------------------------------------------------------!
                           Hirshfeld Charges

  #Atom  Element  Kind  Ref Charge     Population                    Net charge
      1       H      1       1.000          0.906                         0.094
      2       H      1       1.000          0.906                         0.094

  Total Charge                                                            0.188
 !-----------------------------------------------------------------------------!

 ENERGY| Total FORCE_EVAL ( QS ) energy [a.u.]:               -1.166085473611695

 --------  Informations at step =   112 ------------
  Optimization Method        =                 BFGS
  Total Energy               =        -1.1660854736
  Real energy change         =        -0.0011448917
  Predicted change in energy =        -0.0010805550
  Scaling factor             =         0.0000000000
  Step size                  =         0.0307707888
  Trust radius               =         0.4724315332
  Decrease in energy         =                  YES
  Used time                  =                4.805

  Convergence check :
  Max. step size             =         0.0307707888
  Conv. limit for step size  =         0.0030000000
  Convergence in step size   =                   NO
  RMS step size              =         0.0198135000
  Conv. limit for RMS step   =         0.0030000000
  Convergence in RMS step    =                   NO
  Max. gradient              =         0.0026682215
  Conv. limit for gradients  =         0.0030000000
  Conv. in gradients         =                  YES
  RMS gradient               =         0.0017195538
  Conv. limit for RMS grad.  =         0.0030000000
  Conv. in RMS gradients     =                  YES
 ---------------------------------------------------
 Estimated peak process memory after this step [MiB]                        1911

 --------------------------
 OPTIMIZATION STEP:    113
 --------------------------

 Number of electrons:                                                          2
 Number of occupied orbitals:                                                  1
 Number of molecular orbitals:                                                 1

 Number of orbital functions:                                                 10
 Number of independent orbital functions:                                     10

 Parameters for the always stable predictor-corrector (ASPC) method:

  ASPC order: 0

  B(1) =   2.000000
  B(2) =  -1.000000

 Extrapolation method: ASPC


 SCF WAVEFUNCTION OPTIMIZATION

  ----------------------------------- OT ---------------------------------------
  Minimizer      : DIIS                : direct inversion
                                         in the iterative subspace
                                         using   7 DIIS vectors
                                         safer DIIS on
  Preconditioner : FULL_SINGLE_INVERSE : inversion of 
                                         H + eS - 2*(Sc)(c^T*H*c+const)(Sc)^T
  Precond_solver : DEFAULT
  stepsize       :    0.08000000                  energy_gap     :    0.08000000
  eps_taylor     :   0.10000E-15                  max_taylor     :             4
  ----------------------------------- OT ---------------------------------------

  Step     Update method      Time    Convergence         Total energy    Change
  ------------------------------------------------------------------------------
     1 OT DIIS     0.80E-01    0.5     0.01071683        -1.1659557765 -1.17E+00
     2 OT DIIS     0.80E-01    0.6     0.00723251        -1.1660327104 -7.69E-05
     3 OT DIIS     0.80E-01    0.6     0.00037584        -1.1660972299 -6.45E-05
     4 OT DIIS     0.80E-01    0.7     0.00001918        -1.1660974288 -1.99E-07
     5 OT DIIS     0.80E-01    0.6     0.00000899        -1.1660974292 -3.67E-10

  *** SCF run converged in     5 steps ***


  Electronic density on regular grids:         -1.9999999999        0.0000000001
  Core density on regular grids:                1.9999999999       -0.0000000001
  Total charge density on r-space grids:       -0.0000000001
  Total charge density g-space grids:          -0.0000000001

  Overlap energy of the core charge distribution:               0.00000037250498
  Self energy of the core charge distribution:                 -2.82094791773878
  Core Hamiltonian energy:                                      0.97400167929925
  Hartree energy:                                               1.36940905573674
  Exchange-correlation energy:                                 -0.68855573681920
  Dispersion energy:                                           -0.00000488216358

  Total energy:                                                -1.16609742918059

  outer SCF iter =    1 RMS gradient =   0.90E-05 energy =         -1.1660974292
  outer SCF loop converged in   1 iterations or    5 steps


 !-----------------------------------------------------------------------------!
                     Mulliken Population Analysis

 #  Atom  Element  Kind  Atomic population                           Net charge
       1     H        1          1.000000                             -0.000000
       2     H        1          1.000000                              0.000000
 # Total charge                              2.000000                  0.000000

 !-----------------------------------------------------------------------------!

 !-----------------------------------------------------------------------------!
                           Hirshfeld Charges

  #Atom  Element  Kind  Ref Charge     Population                    Net charge
      1       H      1       1.000          0.906                         0.094
      2       H      1       1.000          0.906                         0.094

  Total Charge                                                            0.189
 !-----------------------------------------------------------------------------!

 ENERGY| Total FORCE_EVAL ( QS ) energy [a.u.]:               -1.166097429280780

 --------  Informations at step =   113 ------------
  Optimization Method        =                 BFGS
  Total Energy               =        -1.1660974293
  Real energy change         =        -0.0000119557
  Predicted change in energy =        -0.0000106822
  Scaling factor             =         0.0000000000
  Step size                  =         0.0031290050
  Trust radius               =         0.4724315332
  Decrease in energy         =                  YES
  Used time                  =                3.962

  Convergence check :
  Max. step size             =         0.0031290050
  Conv. limit for step size  =         0.0030000000
  Convergence in step size   =                   NO
  RMS step size              =         0.0020736407
  Conv. limit for RMS step   =         0.0030000000
  Convergence in RMS step    =                  YES
  Max. gradient              =         0.0003208611
  Conv. limit for gradients  =         0.0030000000
  Conv. in gradients         =                  YES
  RMS gradient               =         0.0002117496
  Conv. limit for RMS grad.  =         0.0030000000
  Conv. in RMS gradients     =                  YES
 ---------------------------------------------------
 Estimated peak process memory after this step [MiB]                        1912

 --------------------------
 OPTIMIZATION STEP:    114
 --------------------------

 Number of electrons:                                                          2
 Number of occupied orbitals:                                                  1
 Number of molecular orbitals:                                                 1

 Number of orbital functions:                                                 10
 Number of independent orbital functions:                                     10

 Parameters for the always stable predictor-corrector (ASPC) method:

  ASPC order: 1

  B(1) =   2.500000
  B(2) =  -2.000000
  B(3) =   0.500000

 Extrapolation method: ASPC


 SCF WAVEFUNCTION OPTIMIZATION

  ----------------------------------- OT ---------------------------------------
  Minimizer      : DIIS                : direct inversion
                                         in the iterative subspace
                                         using   7 DIIS vectors
                                         safer DIIS on
  Preconditioner : FULL_SINGLE_INVERSE : inversion of 
                                         H + eS - 2*(Sc)(c^T*H*c+const)(Sc)^T
  Precond_solver : DEFAULT
  stepsize       :    0.08000000                  energy_gap     :    0.08000000
  eps_taylor     :   0.10000E-15                  max_taylor     :             4
  ----------------------------------- OT ---------------------------------------

  Step     Update method      Time    Convergence         Total energy    Change
  ------------------------------------------------------------------------------
     1 OT DIIS     0.80E-01    0.6     0.00430786        -1.1660747598 -1.17E+00
     2 OT DIIS     0.80E-01    0.6     0.00290640        -1.1660871898 -1.24E-05
     3 OT DIIS     0.80E-01    0.6     0.00015057        -1.1660975905 -1.04E-05
     4 OT SD       0.80E-01    0.6     0.00000354        -1.1660976223 -3.19E-08

  *** SCF run converged in     4 steps ***


  Electronic density on regular grids:         -1.9999999999        0.0000000001
  Core density on regular grids:                1.9999999999       -0.0000000001
  Total charge density on r-space grids:       -0.0000000001
  Total charge density g-space grids:          -0.0000000001

  Overlap energy of the core charge distribution:               0.00000036539531
  Self energy of the core charge distribution:                 -2.82094791773878
  Core Hamiltonian energy:                                      0.97363357732027
  Hartree energy:                                               1.36961397124382
  Exchange-correlation energy:                                 -0.68839273406697
  Dispersion energy:                                           -0.00000488450290

  Total energy:                                                -1.16609762234925

  outer SCF iter =    1 RMS gradient =   0.35E-05 energy =         -1.1660976223
  outer SCF loop converged in   1 iterations or    4 steps


 !-----------------------------------------------------------------------------!
                     Mulliken Population Analysis

 #  Atom  Element  Kind  Atomic population                           Net charge
       1     H        1          1.000000                             -0.000000
       2     H        1          1.000000                              0.000000
 # Total charge                              2.000000                  0.000000

 !-----------------------------------------------------------------------------!

 !-----------------------------------------------------------------------------!
                           Hirshfeld Charges

  #Atom  Element  Kind  Ref Charge     Population                    Net charge
      1       H      1       1.000          0.906                         0.094
      2       H      1       1.000          0.906                         0.094

  Total Charge                                                            0.189
 !-----------------------------------------------------------------------------!

 ENERGY| Total FORCE_EVAL ( QS ) energy [a.u.]:               -1.166097622357660

 --------  Informations at step =   114 ------------
  Optimization Method        =                 BFGS
  Total Energy               =        -1.1660976224
  Real energy change         =        -0.0000001931
  Predicted change in energy =        -0.0000001889
  Scaling factor             =         0.0000000000
  Step size                  =         0.0004197482
  Trust radius               =         0.4724315332
  Decrease in energy         =                  YES
  Used time                  =                3.333

  Convergence check :
  Max. step size             =         0.0004197482
  Conv. limit for step size  =         0.0030000000
  Convergence in step size   =                  YES
  RMS step size              =         0.0003177435
  Conv. limit for RMS step   =         0.0030000000
  Convergence in RMS step    =                  YES
  Max. gradient              =         0.0000173550
  Conv. limit for gradients  =         0.0030000000
  Conv. in gradients         =                  YES
  RMS gradient               =         0.0000109289
  Conv. limit for RMS grad.  =         0.0030000000
  Conv. in RMS gradients     =                  YES
 ---------------------------------------------------
 Estimated peak process memory after this step [MiB]                        1913

 *******************************************************************************
 ***                    GEOMETRY OPTIMIZATION COMPLETED                      ***
 *******************************************************************************

                    Reevaluating energy at the minimum

 Number of electrons:                                                          2
 Number of occupied orbitals:                                                  1
 Number of molecular orbitals:                                                 1

 Number of orbital functions:                                                 10
 Number of independent orbital functions:                                     10

 Parameters for the always stable predictor-corrector (ASPC) method:

  ASPC order: 2

  B(1) =   2.800000
  B(2) =  -2.800000
  B(3) =   1.200000
  B(4) =  -0.200000

 Extrapolation method: ASPC


 SCF WAVEFUNCTION OPTIMIZATION

  ----------------------------------- OT ---------------------------------------
  Minimizer      : DIIS                : direct inversion
                                         in the iterative subspace
                                         using   7 DIIS vectors
                                         safer DIIS on
  Preconditioner : FULL_SINGLE_INVERSE : inversion of 
                                         H + eS - 2*(Sc)(c^T*H*c+const)(Sc)^T
  Precond_solver : DEFAULT
  stepsize       :    0.08000000                  energy_gap     :    0.08000000
  eps_taylor     :   0.10000E-15                  max_taylor     :             4
  ----------------------------------- OT ---------------------------------------

  Step     Update method      Time    Convergence         Total energy    Change
  ------------------------------------------------------------------------------
     1 OT DIIS     0.80E-01    0.6     0.00146558        -1.1660949754 -1.17E+00
     2 OT DIIS     0.80E-01    0.7     0.00098884        -1.1660964141 -1.44E-06
     3 OT DIIS     0.80E-01    0.6     0.00005109        -1.1660976187 -1.20E-06
     4 OT DIIS     0.80E-01    0.6     0.00000039        -1.1660976224 -3.68E-09

  *** SCF run converged in     4 steps ***


  Electronic density on regular grids:         -1.9999999999        0.0000000001
  Core density on regular grids:                1.9999999999       -0.0000000001
  Total charge density on r-space grids:       -0.0000000001
  Total charge density g-space grids:          -0.0000000001

  Overlap energy of the core charge distribution:               0.00000036539531
  Self energy of the core charge distribution:                 -2.82094791773878
  Core Hamiltonian energy:                                      0.97362854729573
  Hartree energy:                                               1.36961736550412
  Exchange-correlation energy:                                 -0.68839109831834
  Dispersion energy:                                           -0.00000488450290

  Total energy:                                                -1.16609762236487

  outer SCF iter =    1 RMS gradient =   0.39E-06 energy =         -1.1660976224
  outer SCF loop converged in   1 iterations or    4 steps


 !-----------------------------------------------------------------------------!
                     Mulliken Population Analysis

 #  Atom  Element  Kind  Atomic population                           Net charge
       1     H        1          1.000000                             -0.000000
       2     H        1          1.000000                              0.000000
 # Total charge                              2.000000                 -0.000000

 !-----------------------------------------------------------------------------!

 !-----------------------------------------------------------------------------!
                           Hirshfeld Charges

  #Atom  Element  Kind  Ref Charge     Population                    Net charge
      1       H      1       1.000          0.906                         0.094
      2       H      1       1.000          0.906                         0.094

  Total Charge                                                            0.189
 !-----------------------------------------------------------------------------!

 ENERGY| Total FORCE_EVAL ( QS ) energy [a.u.]:               -1.166097622364866

 -------------------------------------------------------------------------------
 -                                                                             -
 -                                DBCSR STATISTICS                             -
 -                                                                             -
 -------------------------------------------------------------------------------
 COUNTER                                    TOTAL       BLAS       SMM       ACC
 flops     1 x     1 x     1                  434       0.0%    100.0%      0.0%
 flops     1 x     1 x     5                 2240       0.0%    100.0%      0.0%
 flops     5 x     1 x     1                 2800       0.0%    100.0%      0.0%
 flops     5 x     5 x     1                 6300       0.0%    100.0%      0.0%
 flops     5 x     1 x     5                24200       0.0%    100.0%      0.0%
 flops inhomo. stacks                           0       0.0%      0.0%      0.0%
 flops total                        35.974000E+03       0.0%    100.0%      0.0%
 flops max/rank                     18.274000E+03       0.0%    100.0%      0.0%
 matmuls inhomo. stacks                         0       0.0%      0.0%      0.0%
 matmuls total                               1331       0.0%    100.0%      0.0%
 number of processed stacks                  1331       0.0%    100.0%      0.0%
 average stack size                                     0.0       1.0       0.0
 marketing flops                    38.174000E+03
 -------------------------------------------------------------------------------
 # multiplications                            637
 max memory usage/rank               2.005246E+09
 # max total images/rank                        1
 # max 3D layers                                1
 # MPI messages exchanged                    5096
 MPI messages size (bytes):
  total size                       146.912000E+03
  min size                           0.000000E+00
  max size                         200.000000E+00
  average size                      28.828886E+00
 MPI breakdown and total messages size (bytes):
             size <=      128                4612                    50112
       128 < size <=     8192                 484                    96800
      8192 < size <=    32768                   0                        0
     32768 < size <=   131072                   0                        0
    131072 < size <=  4194304                   0                        0
   4194304 < size <= 16777216                   0                        0
  16777216 < size                               0                        0
 -------------------------------------------------------------------------------
 -                                                                             -
 -                      DBCSR MESSAGE PASSING PERFORMANCE                      -
 -                                                                             -
 -------------------------------------------------------------------------------
 ROUTINE             CALLS      AVE VOLUME [Bytes]
 MP_Bcast                6                     12.
 MP_Allreduce         2215                      8.
 MP_Alltoall          2662                     64.
 MP_ISend             5076                     55.
 MP_IRecv             5076                     50.
 -------------------------------------------------------------------------------

 -------------------------------------------------------------------------------
 -                                                                             -
 -                                DBM STATISTICS                               -
 -                                                                             -
 -------------------------------------------------------------------------------
    M  x    N  x    K                                          COUNT     PERCENT
 -------------------------------------------------------------------------------

 -------------------------------------------------------------------------------
 -                                                                             -
 -                                GRID STATISTICS                              -
 -                                                                             -
 -------------------------------------------------------------------------------
 LP    KERNEL             BACKEND                              COUNT     PERCENT
 2     collocate general  GPU                                  16995      50.54%
 2     integrate general  GPU                                  14420      42.88%
 3     integrate general  GPU                                   2060       6.13%
 0     collocate general  CPU                                     80       0.24%
 0     integrate general  CPU                                     40       0.12%
 1     integrate general  CPU                                     32       0.10%
 -------------------------------------------------------------------------------

 MEMORY| Estimated peak process memory [MiB]                                1913

 -------------------------------------------------------------------------------
 ----                             MULTIGRID INFO                            ----
 -------------------------------------------------------------------------------
 count for grid        1:           4371          cutoff [a.u.]          225.00
 count for grid        2:           1977          cutoff [a.u.]           75.00
 count for grid        3:           1431          cutoff [a.u.]           25.00
 count for grid        4:           2188          cutoff [a.u.]            8.33
 total gridlevel count  :           9967

 -------------------------------------------------------------------------------
 -                                                                             -
 -                         MESSAGE PASSING PERFORMANCE                         -
 -                                                                             -
 -------------------------------------------------------------------------------

 ROUTINE             CALLS      AVE VOLUME [Bytes]
 MP_Group                4
 MP_Bcast              522                 728823.
 MP_Allreduce         1643                    764.
 MP_Sync                16
 MP_Alltoall           683               48731182.
 MP_SendRecv           345                 733050.
 MP_ISendRecv          288                 851520.
 MP_Wait               960
 MP_comm_split          12
 MP_ISend              504                2881426.
 MP_IRecv              504                2880878.
 -------------------------------------------------------------------------------


 -------------------------------------------------------------------------------
 -                                                                             -
 -                           R E F E R E N C E S                               -
 -                                                                             -
 -------------------------------------------------------------------------------
 
 CP2K version 2024.1, the CP2K developers group (2024).
 CP2K is freely available from https://www.cp2k.org/ .

 Kuehne,Thomas D.; Iannuzzi,Marcella; Del Ben,Mauro;
 Rybkin,Vladimir V.; Seewald,Patrick; Stein,Frederick; Laino,Teodoro;
 Khaliullin,Rustam Z.; Schuett,Ole; Schiffmann,Florian; Golze,Dorothea;
 Wilhelm,Jan; Chulkov,Sergey; Bani-Hashemian,Mohammad Hossein;
 Weber,Valery; Borstnik,Urban; Taillefumier,Mathieu;
 Jakobovits,Alice Shoshana; Lazzaro,Alfio; Pabst,Hans; Mueller,Tiziano;
 Schade,Robert; Guidon,Manuel; Andermatt,Samuel; Holmberg,Nico;
 Schenter,Gregory K.; Hehn,Anna; Bussy,Augustin; Belleflamme,Fabian;
 Tabacchi,Gloria; Gloess,Andreas; Lass,Michael; Bethune,Iain;
 Mundy,Christopher J.; Plessl,Christian; Watkins,Matt;
 VandeVondele,Joost; Krack,Matthias; Hutter,Juerg. 
 The Journal of Chemical Physics, 152 (19), (2020). 
 CP2K: An electronic structure and molecular dynamics software package -
 Quickstep: Efficient and accurate electronic structure calculations.
 https://doi.org/10.1063/5.0007045

 Goerigk, Lars; Hansen, Andreas; Bauer, Christoph; Ehrlich, Stephan;
 Najibi, Asim; Grimme, Stefan. , 19 (48), (2017). 
 A look at the density functional theory zoo with the advanced GMTKN55 database
 for general main group thermochemistry, kinetics and noncovalent interactions.
 https://doi.org/10.1039/C7CP04913G

 Schuett, Ole; Messmer, Peter; Hutter, Juerg; VandeVondele, Joost. 
 Electronic Structure Calculations on Graphics Processing Units, John
 Wiley & Sons, Ltd, 173-190 (2016). 
 GPU-Accelerated Sparse Matrix-Matrix Multiplication for
 Linear Scaling Density Functional Theory.
 https://doi.org/10.1002/9781118670712.ch8

 Heinecke, A; Henry, G; Hutchinson, M; Pabst, H. 
 Proceedings of Intl. Supercomputing Conference, 981-991 (2016). 
 LIBXSMM: Accelerating Small Matrix Multiplications
 by Runtime Code Generation.
 https://doi.org/10.1109/SC.2016.83

 Borstnik, U; VandeVondele, J; Weber, V; Hutter, J. 
 PARALLEL COMPUTING, 40 (5-6), 47-58 (2014). 
 Sparse matrix multiplication: The distributed block-compressed sparse
 row library.
 https://doi.org/10.1016/j.parco.2014.03.012

 Hutter, J; Iannuzzi, M; Schiffmann, F; VandeVondele, J. 
 WIREs Comput Mol Sci., 4 (1), 15-25 (2014). 
 CP2K: atomistic simulations of condensed matter systems.
 https://doi.org/10.1002/wcms.1159

 Marek, A; Blum, V; Johanni, R; Havu, V; Lang, B; Auckenthaler, T;
 Heinecke, A; Bungartz, H; Lederer, H. 
 Journal of Physics: Condensed Matter, 26 (21), (2014). 
 The ELPA library: scalable parallel eigenvalue solutions for
 electronic structure
 theory and computational science.
 https://doi.org/10.1088/0953-8984/26/21/213201

 Grimme, S; Ehrlich, S; Goerigk, L. 
 JOURNAL OF COMPUTATIONAL CHEMISTRY, 32, 1456 (2011). 
 Effect of the damping function in dispersion corrected density functional theory.
 https://doi.org/10.1002/jcc.21759

 Grimme, S; Antony, J; Ehrlich, S; Krieg, H. 
 JOURNAL OF CHEMICAL PHYSICS, 132 (15), 154104 (2010). 
 A consistent and accurate ab initio parametrization of density
 functional dispersion correction (DFT-D) for the 94 elements H-Pu.
 https://doi.org/10.1063/1.3382344

 VandeVondele, J; Hutter, J. 
 JOURNAL OF CHEMICAL PHYSICS, 127 (11), 114105 (2007). 
 Gaussian basis sets for accurate calculations on molecular systems in
 gas and condensed phases.
 https://doi.org/10.1063/1.2770708

 Kuhne, TD; Krack, M; Mohamed, FR; Parrinello, M. 
 PHYSICAL REVIEW LETTERS, 98 (6), 066401 (2007). 
 Efficient and accurate Car-Parrinello-like approach to
 Born-Oppenheimer molecular dynamics.
 https://doi.org/10.1103/PhysRevLett.98.066401

 Krack, M. 
 THEORETICAL CHEMISTRY ACCOUNTS, 114 (1-3), 145-152 (2005). 
 Pseudopotentials for H to Kr optimized for gradient-corrected
 exchange-correlation functionals.
 https://doi.org/10.1007/s00214-005-0655-y

 VandeVondele, J; Krack, M; Mohamed, F; Parrinello, M; Chassaing, T;
 Hutter, J. COMPUTER PHYSICS COMMUNICATIONS, 167 (2), 103-128 (2005). 
 QUICKSTEP: Fast and accurate density functional calculations using a
 mixed Gaussian and plane waves approach.
 https://doi.org/10.1016/j.cpc.2004.12.014

 Frigo, M; Johnson, SG. 
 PROCEEDINGS OF THE IEEE, 93 (2), 216-231 (2005). 
 The design and implementation of FFTW3.
 https://doi.org/10.1109/JPROC.2004.840301

 Kolafa, J. 
 JOURNAL OF COMPUTATIONAL CHEMISTRY, 25 (3), 335-342 (2004). 
 Time-reversible always stable predictor-corrector method for
 molecular dynamics of polarizable molecules.
 https://doi.org/10.1002/jcc.10385

 VandeVondele, J; Hutter, J. 
 JOURNAL OF CHEMICAL PHYSICS, 118 (10), 4365-4369 (2003). 
 An efficient orbital transformation method for electronic structure
 calculations.
 https://doi.org/10.1063/1.1543154

 Hartwigsen, C; Goedecker, S; Hutter, J. 
 PHYSICAL REVIEW B, 58 (7), 3641-3662 (1998). 
 Relativistic separable dual-space Gaussian pseudopotentials from H to Rn.
 https://doi.org/10.1103/PhysRevB.58.3641

 Lippert, G; Hutter, J; Parrinello, M. 
 MOLECULAR PHYSICS, 92 (3), 477-487 (1997). 
 A hybrid Gaussian and plane wave density functional scheme.
 https://doi.org/10.1080/002689797170220

 Perdew, JP; Burke, K; Ernzerhof, M. 
 PHYSICAL REVIEW LETTERS, 77 (18), 3865-3868 (1996). 
 Generalized gradient approximation made simple.
 https://doi.org/10.1103/PhysRevLett.77.3865

 Goedecker, S; Teter, M; Hutter, J. 
 PHYSICAL REVIEW B, 54 (3), 1703-1710 (1996). 
 Separable dual-space Gaussian pseudopotentials.
 https://doi.org/10.1103/PhysRevB.54.1703


 -------------------------------------------------------------------------------
 -                                                                             -
 -                                T I M I N G                                  -
 -                                                                             -
 -------------------------------------------------------------------------------
 SUBROUTINE                       CALLS  ASD         SELF TIME        TOTAL TIME
                                MAXIMUM       AVERAGE  MAXIMUM  AVERAGE  MAXIMUM
 CP2K                                 1  1.0    0.022    0.023   23.417   23.417
 cp_geo_opt                           1  2.0    0.000    0.000   22.890   22.891
 geoopt_bfgs                          1  3.0    0.001    0.001   22.890   22.890
 cp_eval_at                           5  4.0    0.000    0.000   22.648   22.649
 qs_energies                          5  5.8    0.000    0.000   20.450   20.451
 qs_forces                            4  5.0    0.000    0.000   19.830   19.830
 scf_env_do_scf                       5  6.8    0.000    0.000   18.363   18.363
 rebuild_ks_matrix                   32  9.5    0.000    0.000   17.354   17.356
 qs_ks_build_kohn_sham_matrix        32 10.5    0.004    0.004   17.354   17.355
 scf_env_do_scf_inner_loop           28  7.9    0.001    0.002   15.449   15.452
 qs_ks_update_qs_env                 33  8.8    0.000    0.000   15.161   15.162
 qs_vxc_create                       32 11.5    0.001    0.001   12.811   12.828
 xc_vxc_pw_create                    32 12.5    0.269    0.282   12.810   12.827
 pw_transfer                        618 13.7    0.061    0.078   11.948   12.198
 fft_wrap_pw1pw2                    554 14.9    0.007    0.009   11.641   11.880
 fft_wrap_pw1pw2_230                359 16.2    0.003    0.003   10.799   11.032
 xc_rho_set_and_dset_create          32 13.5    0.242    0.279    7.306    7.666
 xc_pw_derive                       192 14.5    0.003    0.003    7.396    7.591
 pw_gpu_c1dr3d_3d_ps                289 17.2    2.305    2.418    6.068    6.153
 pw_gpu_r3dc1d_3d_ps                265 16.5    1.997    2.053    5.562    5.770
 xc_pw_divergence                    32 13.5    0.001    0.001    5.084    5.300
 qs_rho_update_rho_low               33  9.0    0.000    0.000    3.601    3.612
 calculate_rho_elec                  33 10.0    0.151    0.157    3.601    3.612
 xc_functional_eval                  32 14.5    0.000    0.001    3.113    3.441
 pbe_lda_eval                        32 15.5    3.112    3.441    3.112    3.441
 density_rs2pw                       33 11.0    0.001    0.002    3.255    3.269
 init_scf_loop                        5  7.8    0.000    0.000    2.911    2.911
 mp_alltoall_z22v                   554 18.9    2.378    2.729    2.378    2.729
 yz_to_x                            265 17.5    1.070    1.140    2.315    2.580
 x_to_yz                            289 18.2    1.288    1.405    2.420    2.570
 sum_up_and_integrate                32 11.5    0.000    0.000    2.493    2.495
 integrate_v_rspace                  32 12.5    0.001    0.001    2.401    2.403
 potential_pw2rs                     32 13.5    0.008    0.009    2.269    2.275
 qs_ks_update_qs_env_forces           4  6.0    0.000    0.000    2.195    2.195
 pw_derive                          192 15.5    1.387    1.430    1.387    1.430
 init_scf_run                         5  6.8    0.000    0.000    1.238    1.238
 scf_env_initial_rho_setup            5  7.8    0.000    0.000    1.238    1.238
 pw_copy                            384 14.3    0.991    1.012    0.991    1.012
 transfer_pw2rs                     137 14.2    0.001    0.001    0.870    0.875
 pw_gpu_sf                          289 18.2    0.833    0.858    0.833    0.858
 pw_gpu_fg                          265 17.5    0.813    0.830    0.813    0.830
 pw_axpy                            324 13.0    0.803    0.816    0.803    0.816
 transfer_pw2rs_230                  41 14.6    0.253    0.259    0.717    0.734
 pw_poisson_solve                    32 11.5    0.125    0.126    0.729    0.729
 parallel_gemm_fm                    29  9.0    0.000    0.000    0.375    0.690
 parallel_gemm_fm_cosma              29 10.0    0.375    0.690    0.375    0.690
 transfer_rs2pw                     142 11.9    0.001    0.001    0.668    0.671
 fft_wrap_pw1pw2_80                  65 15.2    0.000    0.001    0.612    0.632
 qs_energies_init_hamiltonians        5  6.8    0.000    0.000    0.552    0.553
 qs_env_update_s_mstruct              5  7.8    0.000    0.000    0.549    0.551
 wfi_extrapolate                      5  8.8    0.000    0.000    0.529    0.529
 transfer_rs2pw_230                  43 12.6    0.237    0.243    0.515    0.519
 pw_gpu_ffc                         289 18.2    0.503    0.513    0.503    0.513
 -------------------------------------------------------------------------------

 The number of warnings for this run is : 1
 
 -------------------------------------------------------------------------------
  **** **** ******  **  PROGRAM ENDED AT                 2025-04-26 06:14:36.498
 ***** ** ***  *** **   PROGRAM RAN ON                                     r12n6
 **    ****   ******    PROGRAM RAN BY                                   uh03203
 ***** **    ** ** **   PROGRAM PROCESS ID                                626701
  **** **  *******  **  PROGRAM STOPPED IN /home/3/uh03203/Documents/cp2k/dft_hy
                                           dro/dft_input/molecules
