 DBCSR| CPU Multiplication driver                                           XSMM (U)
 DBCSR| Multrec recursion limit                                              512 (U)
 DBCSR| Multiplication stack size                                          30000 (D)
 DBCSR| Maximum elements for images                                    UNLIMITED (U)
 DBCSR| Multiplicative factor virtual images                                   1 (U)
 DBCSR| Use multiplication densification                                       F (D)
 DBCSR| Multiplication size stacks                                             3 (U)
 DBCSR| Use memory pool for CPU allocation                                     F (U)
 DBCSR| Number of 3D layers                                               SINGLE (U)
 DBCSR| Use MPI memory allocation                                              F (U)
 DBCSR| Use RMA algorithm                                                      F (U)
 DBCSR| Use Communication thread                                               T (U)
 DBCSR| Communication thread load                                             83 (D)
 DBCSR| MPI: My process id                                                     0
 DBCSR| MPI: Number of processes                                               4
 DBCSR| OMP: Current number of threads                                         2
 DBCSR| OMP: Max number of threads                                             2
 DBCSR| ACC: Number of devices/node                                            4
 DBCSR| ACC: Number of stack-buffers per thread                                8 (U)
 DBCSR| ACC: Avoid driver after busy                                           F (U)
 DBCSR| ACC: Process inhomogeneous stacks                                      T (U)
 DBCSR| ACC: Min. flop for processing                                          0 (U)
 DBCSR| ACC: Min. flop for sorting                                          4000 (U)
 DBCSR| ACC: Number of binning bins                                         4096 (U)
 DBCSR| ACC: Size of binning bins                                             16 (U)
 DBCSR| Split modifier for TAS multiplication algorithm                  1.0E+00 (U)


  **** **** ******  **  PROGRAM STARTED AT               2025-04-15 14:31:21.467
 ***** ** ***  *** **   PROGRAM STARTED ON                                  r9n7
 **    ****   ******    PROGRAM STARTED BY                               uh03203
 ***** **    ** ** **   PROGRAM PROCESS ID                               2814236
  **** **  *******  **  PROGRAM STARTED IN /home/3/uh03203/Documents/cp2k/dft_hy
                                           dro/input_cifs/0e64acd/input

 CP2K| version string:                                       CP2K version 2024.1
 CP2K| source code revision number:                                  git:b4a17a5
 CP2K| cp2kflags: omp libint fftw3 libxc libgrpp elpa elpa_nvidia_gpu parallel m
 CP2K|            pi_f08 scalapack cosma xsmm dbcsr_acc plumed2 spglib mkl siriu
 CP2K|            us libvori libbqb offload_cuda spla_gemm_offloading libvdwxc h
 CP2K|            hdf5
 CP2K| is freely available from                            https://www.cp2k.org/
 CP2K| Program compiled at                       Fri Mar 22 01:50:50 PM JST 2024
 CP2K| Program compiled on                                                 r1n10
 CP2K| Program compiled for                                           local_cuda
 CP2K| Data directory path      /gs/fs/hpe/fukuoka/builds/cp2k/v2024.1/cp2k/data
 CP2K| Input file name                                                    s3.inp

 GLOBAL| Force Environment number                                              1
 GLOBAL| Basis set file name            /home/3/uh03203/Documents/cp2k/data/BASI
 GLOBAL| Potential file name            /home/3/uh03203/Documents/cp2k/data/GTH_
 GLOBAL| MM Potential file name                                     MM_POTENTIAL
 GLOBAL| Coordinate file name                                             s3.cif
 GLOBAL| Method name                                                        CP2K
 GLOBAL| Project name                                                         s3
 GLOBAL| Run type                                                        GEO_OPT
 GLOBAL| FFT library                                                       FFTW3
 GLOBAL| Diagonalization library                                            ELPA
 GLOBAL| DGEMM library                                                      SPLA
 GLOBAL| Minimum number of eigenvectors for ELPA usage                        16
 GLOBAL| Orthonormality check for eigenvectors                          DISABLED
 GLOBAL| Matrix multiplication library                                     COSMA
 GLOBAL| All-to-all communication in single precision                          F
 GLOBAL| FFTs using library dependent lengths                                  F
 GLOBAL| Grid backend                                                       AUTO
 GLOBAL| Global print level                                               MEDIUM
 GLOBAL| MPI I/O enabled                                                       T
 GLOBAL| Total number of message passing processes                             4
 GLOBAL| Number of threads for this process                                    2
 GLOBAL| This output is from process                                           0
 GLOBAL| Stack size for threads created by OpenMP (OMP_STACKSIZE)        default
 GLOBAL| CPU model name                          AMD EPYC 9654 96-Core Processor
 GLOBAL| CPUID                                                              1003
 GLOBAL| Compiled for CPUID                                                 1000

 *** HINT in environment.F:920 :: The compiler target flags (x86_sse4)     ***
 *** used to build this binary cannot exploit all extensions of this CPU   ***
 *** model (x86_avx512). Consider compiler target flags as part of FCFLAGS ***
 *** and CFLAGS (ARCH file).                                               ***


 MEMORY| system memory details [Kb]
 MEMORY|                        rank 0           min           max       average
 MEMORY| MemTotal            791707328     791707328     791707328     791707328
 MEMORY| MemFree             747733932     747733932     747733932     747733932
 MEMORY| Buffers                145244        145244        145244        145244
 MEMORY| Cached               19137080      19137080      19137080      19137080
 MEMORY| Slab                  6048716       6048716       6048716       6048716
 MEMORY| SReclaimable          1838368       1838368       1838368       1838368
 MEMORY| MemLikelyFree       768854624     768854624     768854624     768854624


 *** Fundamental physical constants (SI units) ***

 *** Literature: B. J. Mohr and B. N. Taylor,
 ***             CODATA recommended values of the fundamental physical
 ***             constants: 2006, Web Version 5.1
 ***             http://physics.nist.gov/constants

 Speed of light in vacuum [m/s]                             2.99792458000000E+08
 Magnetic constant or permeability of vacuum [N/A**2]       1.25663706143592E-06
 Electric constant or permittivity of vacuum [F/m]          8.85418781762039E-12
 Planck constant (h) [J*s]                                  6.62606896000000E-34
 Planck constant (h-bar) [J*s]                              1.05457162825177E-34
 Elementary charge [C]                                      1.60217648700000E-19
 Electron mass [kg]                                         9.10938215000000E-31
 Electron g factor [ ]                                     -2.00231930436220E+00
 Proton mass [kg]                                           1.67262163700000E-27
 Fine-structure constant                                    7.29735253760000E-03
 Rydberg constant [1/m]                                     1.09737315685270E+07
 Avogadro constant [1/mol]                                  6.02214179000000E+23
 Boltzmann constant [J/K]                                   1.38065040000000E-23
 Atomic mass unit [kg]                                      1.66053878200000E-27
 Bohr radius [m]                                            5.29177208590000E-11

 *** Conversion factors ***

 [u] -> [a.u.]                                              1.82288848426455E+03
 [Angstrom] -> [Bohr] = [a.u.]                              1.88972613288564E+00
 [a.u.] = [Bohr] -> [Angstrom]                              5.29177208590000E-01
 [a.u.] -> [s]                                              2.41888432650478E-17
 [a.u.] -> [fs]                                             2.41888432650478E-02
 [a.u.] -> [J]                                              4.35974393937059E-18
 [a.u.] -> [N]                                              8.23872205491840E-08
 [a.u.] -> [K]                                              3.15774647902944E+05
 [a.u.] -> [kJ/mol]                                         2.62549961709828E+03
 [a.u.] -> [kcal/mol]                                       6.27509468713739E+02
 [a.u.] -> [Pa]                                             2.94210107994716E+13
 [a.u.] -> [bar]                                            2.94210107994716E+08
 [a.u.] -> [atm]                                            2.90362800883016E+08
 [a.u.] -> [eV]                                             2.72113838565563E+01
 [a.u.] -> [Hz]                                             6.57968392072181E+15
 [a.u.] -> [1/cm] (wave numbers)                            2.19474631370540E+05
 [a.u./Bohr**2] -> [1/cm]                                   5.14048714338585E+03
 

 CELL_TOP| Volume [angstrom^3]:                                      3932.839913
 CELL_TOP| Vector a [angstrom    12.838     0.000     0.000   |a| =    12.838069
 CELL_TOP| Vector b [angstrom     6.204    11.062     0.000   |b| =    12.682694
 CELL_TOP| Vector c [angstrom     0.176    -0.571    27.693   |c| =    27.699863
 CELL_TOP| Angle (b,c), alpha [degree]:                                90.851570
 CELL_TOP| Angle (a,c), beta  [degree]:                                89.636253
 CELL_TOP| Angle (a,b), gamma [degree]:                                60.715843
 CELL_TOP| Numerically orthorhombic:                                          NO
 CELL_TOP| Periodicity                                                       XYZ

 CELL_CIF| Volume [angstrom^3]:                                      3932.839913
 CELL_CIF| Vector a [angstrom    12.838     0.000     0.000   |a| =    12.838069
 CELL_CIF| Vector b [angstrom     6.204    11.062     0.000   |b| =    12.682694
 CELL_CIF| Vector c [angstrom     0.176    -0.571    27.693   |c| =    27.699863
 CELL_CIF| Angle (b,c), alpha [degree]:                                90.851570
 CELL_CIF| Angle (a,c), beta  [degree]:                                89.636253
 CELL_CIF| Angle (a,b), gamma [degree]:                                60.715843
 CELL_CIF| Numerically orthorhombic:                                          NO
 CELL_CIF| Periodicity                                                       XYZ

 GENERATE|  Preliminary Number of Bonds generated:                             0
 GENERATE|  Achieved consistency in connectivity generation.

 CELL| Volume [angstrom^3]:                                          3932.839913
 CELL| Vector a [angstrom]:      12.838     0.000     0.000   |a| =    12.838069
 CELL| Vector b [angstrom]:       6.204    11.062     0.000   |b| =    12.682694
 CELL| Vector c [angstrom]:       0.176    -0.571    27.693   |c| =    27.699863
 CELL| Angle (b,c), alpha [degree]:                                    90.851570
 CELL| Angle (a,c), beta  [degree]:                                    89.636253
 CELL| Angle (a,b), gamma [degree]:                                    60.715843
 CELL| Numerically orthorhombic:                                              NO
 CELL| Periodicity                                                           XYZ

 CELL_REF| Volume [angstrom^3]:                                      3932.839913
 CELL_REF| Vector a [angstrom    12.838     0.000     0.000   |a| =    12.838069
 CELL_REF| Vector b [angstrom     6.204    11.062     0.000   |b| =    12.682694
 CELL_REF| Vector c [angstrom     0.176    -0.571    27.693   |c| =    27.699863
 CELL_REF| Angle (b,c), alpha [degree]:                                90.851570
 CELL_REF| Angle (a,c), beta  [degree]:                                89.636253
 CELL_REF| Angle (a,b), gamma [degree]:                                60.715843
 CELL_REF| Numerically orthorhombic:                                          NO
 CELL_REF| Periodicity                                                       XYZ

 *******************************************************************************
 *   ___                                                                       *
 *  /   \                                                                      *
 * [ABORT] No &KIND section was possible to associate to the atomic kind <AL>. *
 *  \___/    The KIND section were also scanned for the corresponding element  *
 *    |    <Al> and for the DEFAULT section but no match was found. Check your *
 *  O/|                                 input file!                            *
 * /| |                                                                        *
 * / \                                                    qs_kind_types.F:1623 *
 *******************************************************************************


 ===== Routine Calling Stack ===== 

            3 read_qs_kind
            2 create_qs_kind_set
            1 CP2K
