       5
 i =      112, E =        -7.9871407585
  C        -4.6181971912        5.2312862002       16.0397351909
  H        -4.7495370588        6.3135428317       15.8455264631
  H        -4.7422644957        4.1482061184       15.8431011699
  H        -5.0711311755        5.2238025937       17.0108757959
  H        -3.7280475725        5.2320583311       16.0479819557
       5
 i =      113, E =        -8.0304266709
  C        -4.5087129084        5.2306101276       16.1952126625
  H        -4.9270297994        6.2866233982       15.6074490226
  H        -4.9194752197        4.1724544215       15.6023557204
  H        -4.9986525810        5.2262649513       17.1590522759
  H        -3.5551052679        5.2329396890       16.2230000097
       5
 i =      114, E =        -8.0619677355
  C        -4.5701765173        5.2294451839       16.1263327819
  H        -4.8930639595        6.2306206518       15.6503218208
  H        -4.8851645779        4.2270900483       15.6461600138
  H        -4.9835201591        5.2276553897       17.1468765671
  H        -3.5769617870        5.2340863958       16.2172927068
       5
 i =      115, E =        -8.0720368334
  C        -4.5906117614        5.2285784917       16.1001607031
  H        -4.9028394565        6.1450775552       15.6387476959
  H        -4.8940255033        4.3116085677       15.6379617726
  H        -4.9824913245        5.2274313709       17.1433121801
  H        -3.5387478455        5.2361987490       16.2666091223
       5
 i =      116, E =        -8.0749567165
  C        -4.5810411627        5.2291741829       16.1372064203
  H        -4.9096183976        6.1342367327       15.6074127232
  H        -4.9016075329        4.3224593559       15.6048351130
  H        -5.0024556869        5.2265631030       17.1603668969
  H        -3.5139108997        5.2364587989       16.2769156517
       5
 i =      117, E =        -8.0756089697
  C        -4.5775227304        5.2294945559       16.1546357858
  H        -4.9060214931        6.1212469948       15.6023010322
  H        -4.8968166334        4.3359875503       15.6004208222
  H        -5.0305489166        5.2256791649       17.1565280132
  H        -3.4977204558        5.2364775916       16.2728908875
       5
 i =      118, E =        -8.0757198259
  C        -4.5775649626        5.2296768500       16.1592731035
  H        -4.9012191323        6.1182630168       15.6064585489
  H        -4.8915054581        4.3389780390       15.6034206561
  H        -5.0453055894        5.2256519294       17.1508714417
  H        -3.4931509925        5.2363085161       16.2668829059
       5
 i =      119, E =        -8.0757333925
  C        -4.5785735087        5.2296596577       16.1594394601
  H        -4.8999233785        6.1193913292       15.6071697566
  H        -4.8893061337        4.3380660432       15.6049761409
  H        -5.0482165045        5.2255225085       17.1495507650
  H        -3.4928741379        5.2362318558       16.2658729926
       5
 i =      120, E =        -8.0757464634
  C        -4.5802176772        5.2297727328       16.1587684269
  H        -4.8982461081        6.1217852697       15.6087542943
  H        -4.8874423721        4.3355626385       15.6054337616
  H        -5.0509788579        5.2255804737       17.1480942389
  H        -3.4923621885        5.2361554181       16.2661939770
       5
 i =      121, E =        -8.0757502303
  C        -4.5809425645        5.2297593890       16.1580000900
  H        -4.8984814593        6.1233687134       15.6080368077
  H        -4.8870015977        4.3342392044       15.6058962920
  H        -5.0511867678        5.2252992469       17.1478940481
  H        -3.4919373655        5.2361777047       16.2676266525
       5
 i =      122, E =        -8.0757502298
  C        -4.5809425645        5.2297593890       16.1580000900
  H        -4.8984814593        6.1233687134       15.6080368077
  H        -4.8870015977        4.3342392044       15.6058962920
  H        -5.0511867678        5.2252992469       17.1478940481
  H        -3.4919373655        5.2361777047       16.2676266525
