       3
 i =      112, E =       -37.7642398122
  C        -4.6159366342        5.2317358703       15.9658671815
  O        -4.6196422002        6.4065814050       15.9657552790
  O        -4.6122675234        4.0568851547       15.9659460112
       3
 i =      113, E =       -37.7642458544
  C        -4.6159611748        5.2317344699       15.9658445402
  O        -4.6196280008        6.4075180135       15.9658796857
  O        -4.6122719214        4.0559493914       15.9658467888
       3
 i =      114, E =       -37.7642458541
  C        -4.6159611748        5.2317344699       15.9658445402
  O        -4.6196280008        6.4075180135       15.9658796857
  O        -4.6122719214        4.0559493914       15.9658467888
