       2
 i =      112, E =        -1.1660854736
  H        -4.6239879949        5.2315680225       15.9821393497
  H        -4.2963650169        5.2384166588       15.3109395047
       2
 i =      113, E =        -1.1660974293
  H        -4.6249215107        5.2315511593       15.9837946986
  H        -4.2954318269        5.2384335445       15.3092837066
       2
 i =      114, E =        -1.1660976224
  H        -4.6251436319        5.2315492544       15.9839830792
  H        -4.2952102885        5.2384354538       15.3090947095
       2
 i =      115, E =        -1.1660976224
  H        -4.6251436319        5.2315492544       15.9839830792
  H        -4.2952102885        5.2384354538       15.3090947095
