       3
 i =      112, E =       -17.1796884567
  O        -4.6157168445        5.2134943813       15.9591020691
  H        -4.6746416895        6.1741438084       16.0820327255
  H        -4.2502300976        5.7164068559       15.2179432333
       3
 i =      113, E =       -17.2050537968
  O        -4.6189278166        5.2511110346       15.9550230896
  H        -4.7146309976        6.2146910921       16.1629010253
  H        -4.2092231970        5.6491580612       15.1424448374
       3
 i =      114, E =       -17.2168277974
  O        -4.6194685118        5.2933717023       15.9320561104
  H        -4.7641718087        6.2397636695       16.2552035813
  H        -4.1718523413        5.5688878543       15.0727354450
       3
 i =      115, E =       -17.2189415955
  O        -4.6231387715        5.3189531374       15.9176232752
  H        -4.7787031258        6.2436086978       16.2745422766
  H        -4.1668559926        5.5484575265       15.0572517198
       3
 i =      116, E =       -17.2204280727
  O        -4.6244196082        5.3354947803       15.8893717856
  H        -4.7909768857        6.2279422275       16.2820397169
  H        -4.1704286817        5.5356062453       15.0517681697
       3
 i =      117, E =       -17.2202932084
  O        -4.6292514142        5.3521013279       15.9057608742
  H        -4.7878809463        6.2227475845       16.2641573660
  H        -4.1706363239        5.5120079677       15.0520382624
       3
 i =      118, E =       -17.2206867715
  O        -4.6208861279        5.3417058878       15.8966421239
  H        -4.7898015090        6.2224425477       16.2735296033
  H        -4.1712431385        5.5280269909       15.0564279273
       3
 i =      119, E =       -17.2206923901
  O        -4.6249795690        5.3412925548       15.8963029460
  H        -4.7895311069        6.2221188026       16.2738179283
  H        -4.1694328555        5.5269917027       15.0578251650
       3
 i =      120, E =       -17.2206965258
  O        -4.6253337955        5.3402997828       15.8971352662
  H        -4.7893649133        6.2208451993       16.2744793697
  H        -4.1670160248        5.5259669946       15.0601150629
       3
 i =      121, E =       -17.2199179268
  O        -4.6477301374        5.2647283479       15.9442991947
  H        -4.7794032115        6.1313881643       16.3224698754
  H        -4.0042300339        5.4576815280       15.2082987342
       3
 i =      122, E =       -17.2207448295
  O        -4.6262846197        5.3277940085       15.9057752594
  H        -4.7886858127        6.2053163147       16.2843833413
  H        -4.1423822665        5.5148207544       15.0852848635
       3
 i =      123, E =       -17.2207886455
  O        -4.6290160371        5.3168175898       15.9109706163
  H        -4.7880528867        6.1927508464       16.2923399474
  H        -4.1225506281        5.5054888335       15.1039296840
       3
 i =      124, E =       -17.2207730034
  O        -4.6376415854        5.2887165374       15.9181363593
  H        -4.7868174160        6.1592731863       16.3146883038
  H        -4.0648929595        5.4801159130       15.1503060468
       3
 i =      125, E =       -17.2208412220
  O        -4.6329352354        5.3034664522       15.9111707361
  H        -4.7875700030        6.1758300020       16.3046848463
  H        -4.0912815367        5.4930957560       15.1260659913
       3
 i =      126, E =       -17.2208611296
  O        -4.6302606838        5.3080230010       15.9061351373
  H        -4.7868182460        6.1801932050       16.3026988156
  H        -4.0921551223        5.4972194679       15.1195918544
       3
 i =      127, E =       -17.2208883693
  O        -4.6257329652        5.3062553866       15.9006522404
  H        -4.7838337266        6.1760466608       16.3056203266
  H        -4.0739690491        5.4973081302       15.1252182071
       3
 i =      128, E =       -17.2209116879
  O        -4.6233262769        5.3002127000       15.8965144181
  H        -4.7789084370        6.1665869875       16.3127623089
  H        -4.0417695874        5.4947496552       15.1424665540
       3
 i =      129, E =       -17.2209304997
  O        -4.6219351477        5.2965560146       15.8940628889
  H        -4.7735568618        6.1594428855       16.3186743507
  H        -4.0132305834        5.4942212418       15.1603598163
       3
 i =      130, E =       -17.2209533394
  O        -4.6192906532        5.2944366099       15.8911139048
  H        -4.7645208184        6.1513860347       16.3263982994
  H        -3.9736376536        5.4965729675       15.1877091289
       3
 i =      131, E =       -17.2209782488
  O        -4.6183702944        5.2985606416       15.8913043480
  H        -4.7614236304        6.1537262888       16.3268236575
  H        -3.9703043594        5.5012897483       15.1932848888
       3
 i =      132, E =       -17.2210124246
  O        -4.6192144703        5.3062049972       15.8906147466
  H        -4.7548977878        6.1556470193       16.3364809031
  H        -3.9466629215        5.5081927528       15.2154812182
       3
 i =      133, E =       -17.2210470949
  O        -4.6212128315        5.3123062910       15.8944046152
  H        -4.7512853512        6.1558542093       16.3527968940
  H        -3.9255568417        5.5109511439       15.2411112247
       3
 i =      134, E =       -17.2210871000
  O        -4.6247877668        5.3156927021       15.9013498061
  H        -4.7483947673        6.1516601140       16.3786246819
  H        -3.9023264287        5.5099623129       15.2754947009
       3
 i =      135, E =       -17.2211163771
  O        -4.6263176442        5.3154152894       15.9046146264
  H        -4.7465067849        6.1454082396       16.3975173363
  H        -3.8902703862        5.5068987723       15.2967692780
       3
 i =      136, E =       -17.2209164865
  O        -4.6259769007        5.3089631717       15.9070544331
  H        -4.7300655253        6.1135804115       16.4564172454
  H        -3.8059758860        5.4983425125       15.3878949300
       3
 i =      137, E =       -17.2211560987
  O        -4.6250827005        5.3080565404       15.9043469155
  H        -4.7428875122        6.1291119461       16.4142551783
  H        -3.8723285192        5.4981158625       15.3198757598
       3
 i =      138, E =       -17.2211749060
  O        -4.6248100796        5.3076514270       15.9024591356
  H        -4.7396618717        6.1239699147       16.4202366101
  H        -3.8613011887        5.4967845280       15.3310747806
       3
 i =      139, E =       -17.2207456789
  O        -4.6218374554        5.3036676846       15.8931994149
  H        -4.7062556190        6.0617292372       16.5069237549
  H        -3.7342847190        5.4744023853       15.4766263350
       3
 i =      140, E =       -17.2212004619
  O        -4.6239299398        5.3070036278       15.8997606915
  H        -4.7349567017        6.1146798240       16.4290574817
  H        -3.8464737204        5.4923917907       15.3477189929
       3
 i =      141, E =       -17.2212163891
  O        -4.6240290217        5.3068792003       15.8992731793
  H        -4.7316051051        6.1084407944       16.4380639581
  H        -3.8356136388        5.4891543166       15.3618174799
       3
 i =      142, E =       -17.2183327606
  O        -4.6246070556        5.3055211442       15.8958501813
  H        -4.6737596075        6.0011205803       16.6032650574
  H        -3.6461530294        5.4320451388       15.6118174799
       3
 i =      143, E =       -17.2212239824
  O        -4.6239472209        5.3069522826       15.8994650330
  H        -4.7296849158        6.1052374095       16.4427918225
  H        -3.8304177563        5.4866165550       15.3688934428
       3
 i =      144, E =       -17.2212311017
  O        -4.6240887801        5.3070289803       15.8993479773
  H        -4.7276588955        6.1024003927       16.4474017930
  H        -3.8259258205        5.4844857777       15.3751817971
       3
 i =      145, E =       -17.2184056977
  O        -4.6264501580        5.3078526370       15.8977252750
  H        -4.6478557868        5.9888558410       16.6277957553
  H        -3.6443127759        5.3984887840       15.6251817971
       3
 i =      146, E =       -17.2212383679
  O        -4.6240030456        5.3070147781       15.8994270578
  H        -4.7251880419        6.0992869874       16.4521025047
  H        -3.8211454088        5.4815452258       15.3816580975
       3
 i =      147, E =       -17.2212454237
  O        -4.6240301609        5.3070339449       15.8994425475
  H        -4.7226935176        6.0964558228       16.4566299290
  H        -3.8167387880        5.4788741129       15.3877128539
       3
 i =      148, E =       -17.2178593879
  O        -4.6249087312        5.3076906766       15.8990611061
  H        -4.6176435951        5.9789069979       16.6439050625
  H        -3.6336024594        5.3675877207       15.6377128539
       3
 i =      149, E =       -17.2212521701
  O        -4.6239761433        5.3070437765       15.8994383202
  H        -4.7198511627        6.0938203358       16.4607850651
  H        -3.8126252400        5.4758840193       15.3931423432
       3
 i =      150, E =       -17.2212588296
  O        -4.6239941029        5.3070381706       15.8994465404
  H        -4.7170445487        6.0912402929       16.4649069665
  H        -3.8086947276        5.4729403453       15.3984532639
       3
 i =      151, E =       -17.2170321091
  O        -4.6241006459        5.3075260647       15.8988622504
  H        -4.5841047798        5.9686052062       16.6590152363
  H        -3.6231793926        5.3324054486       15.6484532639
       3
 i =      152, E =       -17.2212651150
  O        -4.6239184721        5.3070526996       15.8994154060
  H        -4.7139766431        6.0887987231       16.4686619545
  H        -3.8050293297        5.4696596612       15.4032131444
       3
 i =      153, E =       -17.2212713164
  O        -4.6239438638        5.3070397180       15.8994223794
  H        -4.7109656350        6.0864313180       16.4724048344
  H        -3.8015925692        5.4664486977       15.4078504205
       3
 i =      154, E =       -17.2159795235
  O        -4.6239657382        5.3082013907       15.8982721558
  H        -4.5473192291        5.9580463809       16.6742206816
  H        -3.6145222405        5.2913047882       15.6578504205
       3
 i =      155, E =       -17.2212771164
  O        -4.6238923616        5.3070458579       15.8994030414
  H        -4.7078032972        6.0842555828       16.4757474106
  H        -3.7984341358        5.4630324676       15.4119380474
       3
 i =      156, E =       -17.2212828686
  O        -4.6239108456        5.3070362789       15.8994067669
  H        -4.7046832751        6.0821294746       16.4790878770
  H        -3.7954346338        5.4596651764       15.4159393682
       3
 i =      157, E =       -17.2146034006
  O        -4.6236165978        5.3083965022       15.8981872032
  H        -4.5089598020        5.9481364340       16.6876591084
  H        -3.6064285741        5.2467908184       15.6659393682
       3
 i =      158, E =       -17.2212882196
  O        -4.6238595616        5.3070388504       15.8993906056
  H        -4.7014849387        6.0801973605       16.4820403608
  H        -3.7926989008        5.4561831490       15.4194447132
       3
 i =      159, E =       -17.2212935376
  O        -4.6238760839        5.3070316898       15.8993965841
  H        -4.6983331361        6.0783092809       16.4849901186
  H        -3.7900988536        5.4527389644       15.4228782102
       3
 i =      160, E =       -17.2132197585
  O        -4.6231301513        5.3087753637       15.8978957895
  H        -4.4719569211        5.9412617997       16.6960427615
  H        -3.6015616447        5.2027389644       15.6688289989
       3
 i =      161, E =       -17.2212985564
  O        -4.6238272567        5.3070251067       15.8993798948
  H        -4.6951101696        6.0765629217       16.4876276772
  H        -3.7876925410        5.4491881946       15.4259342977
       3
 i =      162, E =       -17.2213034511
  O        -4.6238431113        5.3070219839       15.8993867415
  H        -4.6919364500        6.0748673864       16.4902581410
  H        -3.7854015264        5.4456746227       15.4289290961
       3
 i =      163, E =       -17.2154846983
  O        -4.6227225891        5.3087686228       15.8977342825
  H        -4.4692961284        5.9535681467       16.6743585666
  H        -3.6221919030        5.1956746227       15.6387724210
       3
 i =      164, E =       -17.2213091240
  O        -4.6237366951        5.3070255586       15.8993372733
  H        -4.6880918532        6.0727849893       16.4931949488
  H        -3.7827419183        5.4412292282       15.4323060538
       3
 i =      165, E =       -17.2213147717
  O        -4.6238227505        5.3069897890       15.8993833693
  H        -4.6843525919        6.0709052120       16.4960975099
  H        -3.7803996322        5.4370006597       15.4355189331
       3
 i =      166, E =       -17.1761071570
  O        -4.8001133589        5.1320947993       15.9893744094
  H        -4.4343525919        6.0395062758       16.7249329572
  H        -3.8589351720        5.3303995574       15.6170391526
       3
 i =      167, E =       -17.2044137442
  O        -4.6470872326        5.2967704410       15.9144036968
  H        -4.3771497392        5.9207553592       16.7442788196
  H        -3.6089351720        5.0936450816       15.7032961913
       3
 i =      168, E =       -17.2162653252
  O        -4.5607486006        5.3764996160       15.8688898260
  H        -4.6271497392        6.0044134624       16.5304839464
  H        -3.6551268128        5.2991805489       15.5006879928
       3
 i =      169, E =       -17.2201904423
  O        -4.5978618027        5.2983292795       15.8800636502
  H        -4.6391656151        6.0016180496       16.5864981770
  H        -3.7309747350        5.3582164784       15.4859492505
       3
 i =      170, E =       -17.2212900881
  O        -4.6089476660        5.3130638816       15.8932725776
  H        -4.6214768692        6.0159890747       16.5760569979
  H        -3.7155568118        5.3558781143       15.5173153329
       3
 i =      171, E =       -17.2213968198
  O        -4.6213949182        5.3062559498       15.9027063715
  H        -4.6222372183        6.0097851535       16.5757287395
  H        -3.7191156679        5.3452565103       15.5340951445
       3
 i =      172, E =       -17.2214118706
  O        -4.6197088661        5.3099620572       15.8993193037
  H        -4.6209640677        6.0086077448       16.5736011574
  H        -3.7191343540        5.3430745072       15.5313814114
       3
 i =      173, E =       -17.2214208356
  O        -4.6224856005        5.3072732958       15.8985933600
  H        -4.6218424564        6.0053435949       16.5740916040
  H        -3.7235771884        5.3389837922       15.5295911595
       3
 i =      174, E =       -17.2214244677
  O        -4.6247752497        5.3067948969       15.8986821711
  H        -4.6200519904        6.0034599208       16.5757601608
  H        -3.7259875773        5.3340732758       15.5299334818
       3
 i =      175, E =       -17.2214304679
  O        -4.6265938050        5.3068329597       15.8986706296
  H        -4.6136905851        5.9996559760       16.5799976253
  H        -3.7270724458        5.3237256230       15.5318241099
       3
 i =      176, E =       -17.2214500475
  O        -4.6311894590        5.3070903626       15.8987790567
  H        -4.5815707277        5.9809555048       16.5998094547
  H        -3.7265194499        5.2753649511       15.5431681333
       3
 i =      177, E =       -17.2214626441
  O        -4.6314145267        5.3073331552       15.8983145312
  H        -4.5583711396        5.9656722718       16.6129088890
  H        -3.7236360660        5.2408493853       15.5520351100
       3
 i =      178, E =       -17.2214912295
  O        -4.6260584233        5.3076588163       15.8971915821
  H        -4.5341466888        5.9468337725       16.6248966613
  H        -3.7170415302        5.2060491728       15.5621174459
       3
 i =      179, E =       -17.2215013789
  O        -4.6214909523        5.3071635713       15.8976057988
  H        -4.5238812109        5.9377756950       16.6302602244
  H        -3.7143612515        5.1929270674       15.5668389315
       3
 i =      180, E =       -17.2215021634
  O        -4.6199605738        5.3067708062       15.8986077081
  H        -4.4961322104        5.9177860505       16.6464329500
  H        -3.7127618996        5.1522216738       15.5778908647
       3
 i =      181, E =       -17.2215106718
  O        -4.6219802196        5.3070347214       15.8991468075
  H        -4.5071963213        5.9254760215       16.6403262170
  H        -3.7164420728        5.1668501903       15.5729149818
       3
 i =      182, E =       -17.2215157482
  O        -4.6231336338        5.3072384901       15.8997127664
  H        -4.5006183818        5.9204531052       16.6437909955
  H        -3.7198940387        5.1552363969       15.5735409524
       3
 i =      183, E =       -17.2215246913
  O        -4.6253058319        5.3075527150       15.9003390308
  H        -4.4691057097        5.8969977276       16.6587397017
  H        -3.7301790987        5.1036715971       15.5770563578
       3
 i =      184, E =       -17.2215289250
  O        -4.6251818795        5.3074275092       15.8997850005
  H        -4.4671523572        5.8959382037       16.6575819398
  H        -3.7324553592        5.1014670107       15.5746686862
       3
 i =      185, E =       -17.2215349795
  O        -4.6249468920        5.3072833111       15.8991666876
  H        -4.4438258121        5.8799715594       16.6637187981
  H        -3.7409125247        5.0673626401       15.5732105022
       3
 i =      186, E =       -17.2215390622
  O        -4.6243161976        5.3072457812       15.8988605693
  H        -4.4212359773        5.8665844487       16.6677494627
  H        -3.7494319916        5.0376479351       15.5705514469
       3
 i =      187, E =       -17.2215440010
  O        -4.6235767596        5.3071932482       15.8986134998
  H        -4.4007146553        5.8577591277       16.6672572064
  H        -3.7593044319        5.0152760519       15.5640543150
       3
 i =      188, E =       -17.2215174462
  O        -4.6238012039        5.3072852427       15.8984327582
  H        -4.3363115135        5.8269286200       16.6721720099
  H        -3.7906563900        4.9377903111       15.5472257600
       3
 i =      189, E =       -17.2215475071
  O        -4.6244293606        5.3073187277       15.8989561390
  H        -4.3883547847        5.8548497923       16.6659168329
  H        -3.7675501557        5.0034129953       15.5577919276
       3
 i =      190, E =       -17.2215501401
  O        -4.6245996557        5.3073636836       15.8991773666
  H        -4.3787680230        5.8522207272       16.6649394273
  H        -3.7727898386        4.9939115429       15.5536624809
       3
 i =      191, E =       -17.2185849284
  O        -4.6279309659        5.3086800741       15.9039277992
  H        -4.1287680230        5.7854148504       16.6385569267
  H        -3.9074710661        4.7503325760       15.4455805831
       3
 i =      192, E =       -17.2215521842
  O        -4.6245248906        5.3074694340       15.8994019300
  H        -4.3762659913        5.8539083343       16.6633040287
  H        -3.7735380588        4.9940706376       15.5515143536
       3
 i =      193, E =       -17.2215541288
  O        -4.6245503928        5.3074782647       15.8994904103
  H        -4.3739205816        5.8555508671       16.6614769956
  H        -3.7745444077        4.9941670514       15.5489815195
       3
 i =      194, E =       -17.2202787463
  O        -4.6262811455        5.3078293210       15.9040333263
  H        -4.2026425406        5.9711955638       16.5271737668
  H        -3.8498689002        4.9973236339       15.3634831594
       3
 i =      195, E =       -17.2215581130
  O        -4.6240034610        5.3072556518       15.8994536546
  H        -4.3686206124        5.8587194959       16.6570005302
  H        -3.7758853733        4.9941056238       15.5434540702
       3
 i =      196, E =       -17.2215616322
  O        -4.6240055967        5.3072648511       15.8994821040
  H        -4.3643862091        5.8620122754       16.6532936710
  H        -3.7776952881        4.9947819905       15.5384588064
       3
 i =      197, E =       -17.2203626096
  O        -4.6242191544        5.3071324583       15.9008449341
  H        -4.2050219502        5.9803763028       16.5149873827
  H        -3.8470603573        5.0146603124       15.3540123963
       3
 i =      198, E =       -17.2215649945
  O        -4.6239524447        5.3072418585       15.8994444256
  H        -4.3600396529        5.8652401780       16.6493700806
  H        -3.7795897261        4.9954580827       15.5332741561
       3
 i =      199, E =       -17.2215681420
  O        -4.6239297919        5.3072325451       15.8994312103
  H        -4.3558277630        5.8683064051       16.6456348211
  H        -3.7814606280        4.9960473212       15.5283418060
       3
 i =      200, E =       -17.2207598787
  O        -4.6234448906        5.3069787142       15.8992387758
  H        -4.2098692864        5.9718777412       16.5171363181
  H        -3.8477195828        5.0130898886       15.3586997400
       3
 i =      201, E =       -17.2215715294
  O        -4.6239019466        5.3072194280       15.8993983600
  H        -4.3509083066        5.8716825463       16.6412323904
  H        -3.7838043564        4.9965942765       15.5225707082
       3
 i =      202, E =       -17.2215746459
  O        -4.6238789690        5.3072107452       15.8993751958
  H        -4.3462236348        5.8748320386       16.6371203960
  H        -3.7860314486        4.9970418443       15.5171497913
       3
 i =      203, E =       -17.2209615652
  O        -4.6232974141        5.3069539784       15.8989045171
  H        -4.2078101564        5.9654262791       16.5167949497
  H        -3.8527225234        5.0070791720       15.3582038528
       3
 i =      204, E =       -17.2215777692
  O        -4.6238643278        5.3072043659       15.8993577846
  H        -4.3411099157        5.8780498290       16.6326568479
  H        -3.7886155529        4.9973479211       15.5112851932
       3
 i =      205, E =       -17.2215806109
  O        -4.6238443259        5.3071969650       15.8993393539
  H        -4.3362621056        5.8810189797       16.6284952049
  H        -3.7910591147        4.9975402524       15.5057812132
       3
 i =      206, E =       -17.2211538299
  O        -4.6234071794        5.3069943143       15.8990499281
  H        -4.2082446295        5.9571397548       16.5197775898
  H        -3.8563825327        4.9997235071       15.3616410962
       3
 i =      207, E =       -17.2215835343
  O        -4.6238421443        5.3071942393       15.8993414192
  H        -4.3307994162        5.8841157544       16.6238675570
  H        -3.7939763242        4.9975250018       15.4996772758
       3
 i =      208, E =       -17.2215861435
  O        -4.6238314082        5.3071895064       15.8993376853
  H        -4.3256669823        5.8869320618       16.6195924821
  H        -3.7967130317        4.9974030403       15.4939998105
       3
 i =      209, E =       -17.2213437395
  O        -4.6236494876        5.3070731231       15.8993908220
  H        -4.2134005642        5.9464674768       16.5272069965
  H        -3.8571755378        4.9922856581       15.3710343658
       3
 i =      210, E =       -17.2215890312
  O        -4.6238436576        5.3071901963       15.8993642187
  H        -4.3194001577        5.8900573891       16.6144764652
  H        -3.8002337318        4.9969499786       15.4872299462
       3
 i =      211, E =       -17.2215915539
  O        -4.6238448604        5.3071883866       15.8993802173
  H        -4.3135610940        5.8928579444       16.6097893890
  H        -3.8035148584        4.9964047193       15.4809872828
       3
 i =      212, E =       -17.2215618937
  O        -4.6238717791        5.3071639019       15.8996158297
  H        -4.2432969351        5.9252179427       16.5541720746
  H        -3.8432675537        4.9884062205       15.4067964276
       3
 i =      213, E =       -17.2215958883
  O        -4.6238843077        5.3071904592       15.8994647583
  H        -4.3020316951        5.8978175066       16.6007406745
  H        -3.8102720216        4.9947512088       15.4689954070
       3
 i =      214, E =       -17.2215986645
  O        -4.6239093779        5.3071937884       15.8995245270
  H        -4.2931737279        5.9014317724       16.5939190311
  H        -3.8154940332        4.9932841356       15.4599152171
       3
 i =      215, E =       -17.2215979536
  O        -4.6240378554        5.3072162110       15.8998042506
  H        -4.2571646483        5.9152417982       16.5665724810
  H        -3.8370417243        4.9864556926       15.4235806640
       3
 i =      216, E =       -17.2216019845
  O        -4.6239881907        5.3072119116       15.8996774784
  H        -4.2788726094        5.9063383583       16.5832952913
  H        -3.8242938019        4.9900414393       15.4458846088
       3
 i =      217, E =       -17.2216029602
  O        -4.6240135213        5.3072199328       15.8997341115
  H        -4.2731324854        5.9079208898       16.5792237308
  H        -3.8279118290        4.9883836486       15.4405191023
       3
 i =      218, E =       -17.2216047138
  O        -4.6240924639        5.3072558349       15.8998971334
  H        -4.2541464463        5.9120460979       16.5662885022
  H        -3.8401389595        4.9819346291       15.4235771319
       3
 i =      219, E =       -17.2216061269
  O        -4.6240855974        5.3072582648       15.8999013169
  H        -4.2523142522        5.9110646150       16.5657486521
  H        -3.8415703728        4.9801118315       15.4230009621
       3
 i =      220, E =       -17.2216114886
  O        -4.6239881566        5.3072767919       15.8998362125
  H        -4.2271384696        5.9077892151       16.5532533349
  H        -3.8588900521        4.9640038544       15.4073362831
       3
 i =      221, E =       -17.2216145048
  O        -4.6238839545        5.3072518584       15.8997128606
  H        -4.2002757189        5.9036174224       16.5406490834
  H        -3.8768761612        4.9463780334       15.3917131533
       3
 i =      222, E =       -17.2216193922
  O        -4.6236327468        5.3071901752       15.8992145186
  H        -4.1675657888        5.8900395517       16.5302591720
  H        -3.8990874546        4.9178840125       15.3801922003
       3
 i =      223, E =       -17.2216208755
  O        -4.6235135068        5.3071549050       15.8988615160
  H        -4.1573917387        5.8778160741       16.5317948927
  H        -3.9063924759        4.9023709104       15.3838072912
       3
 i =      224, E =       -17.2216121971
  O        -4.6232509403        5.3070888922       15.8983024101
  H        -4.1014453315        5.8500975884       16.5170064734
  H        -3.9448859964        4.8495553731       15.3683665303
       3
 i =      225, E =       -17.2216221769
  O        -4.6236112699        5.3071802740       15.8989996383
  H        -4.1519734562        5.8764406059       16.5296851029
  H        -3.9104152662        4.8981836014       15.3810483076
       3
 i =      226, E =       -17.2216229720
  O        -4.6236452230        5.3071958143       15.8990321843
  H        -4.1452568711        5.8727062119       16.5282073384
  H        -3.9153012976        4.8914388673       15.3795259431
       3
 i =      227, E =       -17.2216103290
  O        -4.6238457013        5.3072943996       15.8991865647
  H        -4.0923150751        5.8413023661       16.5175310170
  H        -3.9541249764        4.8367176866       15.3690318813
       3
 i =      228, E =       -17.2216235082
  O        -4.6237103984        5.3072240028       15.8991301633
  H        -4.1400660282        5.8695120928       16.5272546901
  H        -3.9193157659        4.8859447721       15.3785688161
       3
 i =      229, E =       -17.2216239389
  O        -4.6237485981        5.3072419653       15.8991818817
  H        -4.1352836487        5.8665247775       16.5263567509
  H        -3.9229754188        4.8808817451       15.3777118919
       3
 i =      230, E =       -17.2216241836
  O        -4.6238811662        5.3073070765       15.8993654476
  H        -4.1125602814        5.8522284817       16.5219975156
  H        -3.9403885563        4.8568483573       15.3736524835
       3
 i =      231, E =       -17.2216245749
  O        -4.6238227950        5.3072784501       15.8992752058
  H        -4.1237056166        5.8590314371       16.5241809786
  H        -3.9319895720        4.8685226012       15.3757757334
       3
 i =      232, E =       -17.2216247604
  O        -4.6238414286        5.3072883644       15.8992919440
  H        -4.1197309860        5.8564739805       16.5233426475
  H        -3.9351511741        4.8643444269       15.3750454767
       3
 i =      233, E =       -17.2216250308
  O        -4.6238725798        5.3073095167       15.8993258882
  H        -4.1073041765        5.8485373277       16.5204708151
  H        -3.9452098030        4.8514802698       15.3725959419
       3
 i =      234, E =       -17.2216252752
  O        -4.6238627780        5.3073079741       15.8993166341
  H        -4.1080758208        5.8492719581       16.5202415744
  H        -3.9448303251        4.8526519560       15.3723966570
       3
 i =      235, E =       -17.2216252746
  O        -4.6238627780        5.3073079741       15.8993166341
  H        -4.1080758208        5.8492719581       16.5202415744
  H        -3.9448303251        4.8526519560       15.3723966570
