     123
 i =      112, E =      -995.9809089316
 Zn        -2.4652550821       10.6287828752       16.6844597916
 Zn        -5.2885820667       10.6548365556       15.7924384540
 Zn       -15.1583695196       10.2900154251       31.2397287999
 Zn         3.1742436986       10.6066709658        0.1346624079
  H        -8.7719556505        0.4150174779       28.9194713205
  H        -7.8649540345        0.6289794435       26.6689940695
  H       -11.5799024478        9.8995600491       25.0192400677
  H       -12.5027822762        9.6534031567       27.3131558694
  H        -5.9512227078        0.2660539075       22.8625997089
  H        -9.6914119716        9.5308199668       21.2748294059
  H        -8.8105700933        9.7146223629       19.0038871186
  H        -5.0530928281        0.4809156191       20.5557640812
  H         1.9529026625        9.3197678244        4.4518231250
  H         0.7532367736        9.3254795885        6.6315598450
  H        -1.8045778616        1.6575844264        5.1827865116
  H        -0.7218337503        1.5274051337        2.9751157929
  H        -0.2700404492        1.6684906252       10.8037040029
  H        -2.8426519937        9.2701599939        9.2986725864
  H        -4.0324512784        9.2681603236       11.4551029059
  H        -1.3440737208        1.4768111626       13.0227540354
  H        -6.1144514339        7.6567053995       17.9582916009
  H        -6.0537192865        2.6596352828       17.9536391718
  H        -1.9688891270        3.9447637833       15.6947055530
  H        -1.9987440040        6.4494723999       15.6928968600
  H       -11.5635448764        7.4283110260       29.9133854052
  H       -11.4411944669        2.4424337566       29.9638121507
  H         0.0061515260        3.9406149941        0.2553496538
  H        -0.0374549314        6.4392820693        0.2607473419
  H        -9.3561495688        1.5305837226       22.6340098613
  H        -9.2456944905        2.2788424276       24.2507833650
  H       -10.7395685204        1.4905844837       23.7643673318
  H        -6.7854595359        8.6855226181       24.1420381311
  H        -8.2862474777        7.8930040734       23.6815380144
  H        -8.1532986713        8.6552749368       25.2897331938
  H        -3.2680998727        9.9452409217        6.9801029724
  H         3.2343151694        0.8136035663        6.4099913096
  H        -3.2852370764        0.4957059202        8.1479305824
  H         1.2143638086       10.1640865675        8.9825877104
  H         1.0274813616        1.0415605184        9.4980816096
  H         1.1784166858        0.6780935810        7.7693001312
  C        -3.7927175869        7.9448708133       16.4598752346
  C        -6.2167182872       10.5701835784       18.2985880915
  C        -3.8549008503        2.2993110054       16.5949617460
  C        -3.3063796449       10.7591785918       13.6831380766
  C       -13.7393065947        7.7906632616       31.3317507126
  C       -11.3996661483       10.3301935279       29.6078278317
  C       -13.6514732726        2.0032136047       31.3212964177
  C         1.2477492134       10.7264325627        2.2087046678
  C       -10.7286335753       10.4018842811       28.2813763656
  C        -9.3877925507        0.0827793722       28.0864395423
  C        -8.8718168614        0.2313499162       26.7981818734
  C        -9.6342711073       -0.1248019087       25.6754803217
  C       -10.9684709318       10.1699649302       25.8803472381
  C       -11.4921029888       10.0290173646       27.1588164918
  C        -9.1480982660        0.1291321914       24.2845905540
  C        -8.3834669114       10.0451554741       23.6344551786
  C        -6.5741611025       -0.0125255823       22.0127924127
  C        -7.9072922784       10.2883787540       22.2381531771
  C        -8.6852083760        9.9227301883       21.1279024169
  C        -8.1870566218       10.0518221779       19.8311787247
  C        -6.8799545821       10.5155846010       19.6242773685
  C        -6.0628772593        0.1107636929       20.7284394491
  C         0.7125392536        0.0334856540        3.5799719944
  C         1.1203351942       10.0029176839        4.6249387156
  C         0.4513130323       10.0206238179        5.8481168206
  C        -0.5933681923        0.1059520610        6.0858993058
  C        -0.9902451330        0.9510245532        5.0306063096
  C        -0.3707261502        0.8982083402        3.7919059899
  C        -1.3416526904        0.1173915272        7.3660299759
  C        -0.7140197027        0.1623194847        8.5715594483
  C        -1.0637494909        0.9422995138       10.9314045233
  C        -1.4365757318        0.1061869419        9.8603104488
  C        -2.5232244535        9.9819109707       10.0604482049
  C        -3.2666060285       10.0172171642       11.2374984787
  C        -2.7118547306       -0.0366261627       12.3183264687
  C        -1.6589459876        0.8652111823       12.1762286907
  C        -3.8879840282        6.5082735971       16.7123644642
  C        -5.0193055097        5.8592786561       17.2926633383
  C        -2.7933480900        5.8630448431       16.1582044763
  C        -6.0620519277        6.5682274404       17.9488154346
  C        -7.0314246415        5.8590319878       18.6139300311
  C        -3.8770582754        3.7773779835       16.6903612472
  C        -2.8113417392        4.4685175034       16.1380593694
  C        -5.0009914075        4.4295605446       17.2784768280
  C        -6.0409890267        3.7457641428       17.9568763221
  C        -7.0133578248        4.4486172378       18.6215096082
  C       -13.7213207531        6.3023195595       31.2079927339
  C       -12.6098963725        5.6354898589       30.6023796944
  C       -14.7647863068        5.5830076790       31.7635554309
  C       -11.5731798271        6.3409974275       29.9311902764
  C       -10.5882309952        5.6535229391       29.2672740674
  C       -13.6659118766        3.4936386720       31.2151427390
  C       -14.7403111708        4.1762490053       31.7600350152
  C       -12.5784943894        4.1974297718       30.6115306496
  C       -11.5057819600        3.5277749402       29.9581536165
  C       -10.5546708155        4.2436589405       29.2765783300
  C        -9.6431804632        1.4201352749       23.6865639796
  C        -7.8809033524        8.7566059197       24.2324452158
  C        -2.8271187528        0.1501396006        7.2249692409
  C         0.7627589579        0.3237833666        8.7106507169
  O        -2.8631310238        8.7310188887       16.9492196921
  O        -5.0078785015        8.5640444846       16.2467644310
  O        -6.9062648236       10.5282620954       17.1694754516
  O        -4.9343773471       -0.1950189321       18.2117974209
  O        -4.8604456095        1.7887771649       16.0027386500
  O        -2.8237600458        1.7074797765       17.0621099540
  O        -2.4717185434       -0.0659167729       14.7019928793
  O        -4.5724428137       10.6510301400       13.7958756938
  O       -14.7961697807        8.3914566319       30.9320626996
  O       -12.6949134846        8.3214596278       31.8236201759
  O       -10.7190681895       10.3315632243       30.7447460282
  O       -12.6469856935       10.2571541045       29.6629107403
  O       -12.6353244932        1.4717557921       31.8705178137
  O       -14.6769911234        1.3942407597       30.8615848814
  O         0.4100435613        0.0154939107        1.2697850034
  O         2.5029657893       10.5624829867        2.0598703098
  F        -8.0448990642        6.4876953258       19.2561267042
  F        -7.9885082776        3.7764307398       19.2784475940
  F        -9.6066203326        6.3082487904       28.6040537277
  F        -9.5248071579        3.6083938425       28.6647213633
  O        -5.0757460601        8.9566544839       14.9835615110
  C        -4.2318848187        8.2781870940       14.1992020854
  O        -3.8464697814        8.1656703243       12.9455160943
     123
 i =      113, E =      -996.0750414811
 Zn        -2.4671091440       10.6244940205       16.6734811908
 Zn        -5.3092262727       10.7078644202       15.7662449250
 Zn       -15.1545576920       10.2877538882       31.2390120080
 Zn         3.1756172338       10.6036710352        0.1365385512
  H        -8.7720746009        0.4146608048       28.9185349010
  H        -7.8656087572        0.6353304877       26.6709673102
  H       -11.5787779711        9.8998248737       25.0183089876
  H       -12.5013660602        9.6486584215       27.3111431924
  H        -5.9524710226        0.2657262723       22.8656718350
  H        -9.6909504851        9.5240290559       21.2732665418
  H        -8.8091459731        9.7146230367       19.0067196068
  H        -5.0559489041        0.4857206547       20.5591102462
  H         1.9524852296        9.3204131502        4.4534685711
  H         0.7532423361        9.3269834048        6.6329655926
  H        -1.8058963695        1.6591384813        5.1811669020
  H        -0.7225357330        1.5276975570        2.9733748565
  H        -0.2549439787        1.6822316317       10.7942118406
  H        -2.8307270159        9.2782453611        9.2932038131
  H        -4.0339121915        9.2990162426       11.4437944040
  H        -1.3379049943        1.4735178017       13.0136994694
  H        -6.1145147213        7.6446786591       17.9654932465
  H        -6.0627628381        2.6587806353       17.9601128066
  H        -1.9647070448        3.9277051167       15.6891719173
  H        -2.0087207731        6.4371879781       15.6929378612
  H       -11.5602080009        7.4265357749       29.9125448879
  H       -11.4393817183        2.4419613668       29.9644594580
  H         0.0067636822        3.9399283443        0.2585347183
  H        -0.0362269739        6.4401495424        0.2638130225
  H        -9.3557004977        1.5323185393       22.6347111284
  H        -9.2457414223        2.2800931924       24.2509928303
  H       -10.7389965548        1.4915116963       23.7632497971
  H        -6.7861877695        8.6845378875       24.1432095606
  H        -8.2865061606        7.8916734623       23.6811591950
  H        -8.1542052703        8.6536059142       25.2889808636
  H        -3.2715080958        9.9467758976        6.9846072242
  H         3.2317314875        0.8100353142        6.4109344534
  H        -3.2871394558        0.4978677528        8.1453957255
  H         1.2175088463       10.1634293588        8.9778359021
  H         1.0298405722        1.0358664604        9.4968735527
  H         1.1876603207        0.6814736303        7.7666371520
  C        -3.7331122397        7.9345752493       16.3475129281
  C        -6.2177770448       10.5523032809       18.2940416896
  C        -3.8449751879        2.3053394589       16.5941539213
  C        -3.2985930642       10.7499703264       13.6709521651
  C       -13.7384893313        7.7886415796       31.3215061397
  C       -11.3990807665       10.3258155638       29.6073805028
  C       -13.6496083446        2.0041276029       31.3190922513
  C         1.2485417378       10.7222660220        2.2094891727
  C       -10.7285649371       10.4027291109       28.2810247607
  C        -9.3895096241        0.0881286595       28.0849992791
  C        -8.8701262607        0.2314916853       26.7978474592
  C        -9.6353994065       -0.1203671013       25.6756687508
  C       -10.9662251485       10.1652726619       25.8803302820
  C       -11.4921823059       10.0285651233       27.1583854763
  C        -9.1489017488        0.1284035642       24.2837721591
  C        -8.3825743543       10.0454026462       23.6346752054
  C        -6.5762888663       -0.0082100077       22.0147523342
  C        -7.9070856362       10.2844919686       22.2373273796
  C        -8.6868734297        9.9218564602       21.1270848970
  C        -8.1826395036       10.0487109788       19.8328100111
  C        -6.8777117957       10.5184355785       19.6218315481
  C        -6.0644813462        0.1117883288       20.7302050852
  C         0.7105317406        0.0343642402        3.5787544471
  C         1.1210035682       10.0053836652        4.6249691152
  C         0.4509425297       10.0204823037        5.8477052811
  C        -0.5971223346        0.1027275840        6.0828157195
  C        -0.9942106970        0.9498715791        5.0289479034
  C        -0.3729061515        0.8985443986        3.7908991755
  C        -1.3389855466        0.1185628329        7.3672362638
  C        -0.7074798595        0.1645530190        8.5693822327
  C        -1.0432837123        0.9505696993       10.9153494221
  C        -1.4293524604        0.1048045795        9.8563195230
  C        -2.5405536037       10.0078747835       10.0519203660
  C        -3.2420817952       10.0202070293       11.2471567086
  C        -2.7146234660        0.0017218111       12.3128804286
  C        -1.6356507840        0.8633472519       12.1594944293
  C        -3.8682285218        6.5184017958       16.7139347733
  C        -5.0045536832        5.8682985126       17.2893937276
  C        -2.7908463756        5.8417642638       16.1669706595
  C        -6.0616524994        6.5563497401       17.9486131988
  C        -7.0295504655        5.8479161662       18.6208579445
  C        -3.8785417135        3.7776816792       16.6925228834
  C        -2.7993706674        4.4528445316       16.1452811809
  C        -5.0011586382        4.4369024031       17.2789569617
  C        -6.0427960654        3.7451619900       17.9529153627
  C        -7.0134501633        4.4382969327       18.6340099088
  C       -13.7195365155        6.2998295008       31.2126036110
  C       -12.6076207915        5.6357609324       30.6037385855
  C       -14.7648676284        5.5824785680       31.7660675306
  C       -11.5713693699        6.3389719403       29.9284066227
  C       -10.5914102059        5.6487359670       29.2573494122
  C       -13.6635962889        3.4949939049       31.2193481106
  C       -14.7398031486        4.1754198964       31.7634180184
  C       -12.5769650437        4.1977141991       30.6126451193
  C       -11.5065879513        3.5268744055       29.9547880779
  C       -10.5535635876        4.2404769809       29.2724176370
  C        -9.6423645027        1.4208811499       23.6873061680
  C        -7.8818886320        8.7555769977       24.2317697001
  C        -2.8239038658        0.1500459383        7.2270575774
  C         0.7676843632        0.3233433205        8.7032365407
  O        -2.8536149706        8.7269158553       16.9616842081
  O        -5.0479151719        8.5857122533       16.3121224146
  O        -6.9080068743       10.5350054503       17.1629246201
  O        -4.9369975612       -0.1845732815       18.2136213413
  O        -4.8596769056        1.8107892753       16.0050998957
  O        -2.8267661708        1.6975003069       17.0690717327
  O        -2.4661998796       -0.0521982190       14.6901377173
  O        -4.5740338493       10.7296970843       13.7609800569
  O       -14.7986237754        8.3864077116       30.9264790352
  O       -12.6993571881        8.3179810922       31.8242150455
  O       -10.7173060583       10.3291786689       30.7441708722
  O       -12.6458614811       10.2600574088       29.6633939826
  O       -12.6367642700        1.4717349155       31.8727076937
  O       -14.6750645862        1.3964861124       30.8582908196
  O         0.4125469410        0.0137984360        1.2677531411
  O         2.5025453570       10.5518800339        2.0620328692
  F        -8.0455275816        6.4807617386       19.2540373404
  F        -7.9970854270        3.7816026626       19.2966235860
  F        -9.6119769714        6.3059295668       28.5949904671
  F        -9.5145985779        3.6047812057       28.6742204832
  O        -5.3257460601        8.8995307614       14.9284549058
  C        -4.0683681798        8.1680061961       14.3416141534
  O        -3.9178012089        8.1297817077       13.0685754397
     123
 i =      114, E =      -996.1007987930
 Zn        -2.4720540884       10.6015493291       16.6481995589
 Zn        -5.3419871915       10.7515320109       15.7404461941
 Zn       -15.1525305247       10.2861167478       31.2384209940
 Zn         3.1793095953       10.6006248642        0.1376970179
  H        -8.7729502983        0.4159131236       28.9180275934
  H        -7.8682892288        0.6439745607       26.6727469618
  H       -11.5755177626        9.8983213357       25.0169337729
  H       -12.4979788756        9.6416603542       27.3082851490
  H        -5.9580000144        0.2660432017       22.8679154222
  H        -9.6871995848        9.5151533780       21.2711357712
  H        -8.8067662457        9.7126208201       19.0096019258
  H        -5.0614327583        0.4918480689       20.5642531194
  H         1.9531585726        9.3228043293        4.4552985819
  H         0.7531138285        9.3296109950        6.6345035869
  H        -1.8091937937        1.6605854199        5.1791259497
  H        -0.7241182836        1.5282638514        2.9707625514
  H        -0.2319296527        1.6942636597       10.7721481175
  H        -2.8126512020        9.3044574258        9.2901880430
  H        -4.0373916718        9.3176441050       11.4583091916
  H        -1.3144307429        1.4700740304       12.9928795117
  H        -6.1155444866        7.6302182480       17.9710985036
  H        -6.0739872849        2.6633346986       17.9671440268
  H        -1.9646555050        3.8954191895       15.6885291562
  H        -2.0068283052        6.4076845976       15.6910293216
  H       -11.5527503564        7.4231017919       29.9106624106
  H       -11.4363144710        2.4387011573       29.9671676543
  H         0.0092099568        3.9389316083        0.2632744451
  H        -0.0326758850        6.4403880166        0.2679840183
  H        -9.3541593780        1.5345969016       22.6349881869
  H        -9.2456669667        2.2814701091       24.2519269502
  H       -10.7384214116        1.4929108748       23.7620912097
  H        -6.7872919753        8.6830533046       24.1443165733
  H        -8.2868892216        7.8901246855       23.6800962283
  H        -8.1564357058        8.6509583782       25.2889260009
  H        -3.2753428099        9.9480721576        6.9924413426
  H         3.2303429481        0.8049734029        6.4106725887
  H        -3.2886654714        0.5023118254        8.1447222284
  H         1.2234679617       10.1629260176        8.9675406098
  H         1.0359753182        1.0266247030        9.4934126333
  H         1.2041247220        0.6863395258        7.7610066464
  C        -3.7634177300        7.9835557837       16.3475410572
  C        -6.2157020565       10.5547380051       18.2828323705
  C        -3.8472869982        2.3013683975       16.6022896238
  C        -3.3184691165       10.7833400591       13.6729650361
  C       -13.7401054656        7.7839088399       31.3171935667
  C       -11.3985912439       10.3232948819       29.6072454441
  C       -13.6485805355        2.0045721608       31.3190986997
  C         1.2496945101       10.7144333120        2.2098496554
  C       -10.7274804690       10.4013580247       28.2814229915
  C        -9.3909982018        0.0929483157       28.0841923600
  C        -8.8709741921        0.2347041645       26.7975279627
  C        -9.6351879986       -0.1176091287       25.6748497996
  C       -10.9644973777       10.1643782197       25.8798823812
  C       -11.4902838403       10.0266751484       27.1579275241
  C        -9.1489148843        0.1288490209       24.2826658629
  C        -8.3832785137       10.0440572984       23.6356175504
  C        -6.5787084407       -0.0058130741       22.0134750267
  C        -7.9070705406       10.2817745266       22.2386722513
  C        -8.6855054863        9.9207760553       21.1271286401
  C        -8.1786236502       10.0456165825       19.8338321818
  C        -6.8726799760       10.5090163963       19.6133015895
  C        -6.0702249491        0.1146797439       20.7269954713
  C         0.7083931112        0.0343249079        3.5765593044
  C         1.1204544261       10.0065518739        4.6240748380
  C         0.4496511932       10.0195107222        5.8459476811
  C        -0.5982058752        0.1027685996        6.0767951879
  C        -1.0001509418        0.9488684216        5.0242324456
  C        -0.3753371386        0.8981689766        3.7878361064
  C        -1.3356799497        0.1197503635        7.3632991051
  C        -0.6994356957        0.1617603962        8.5626239387
  C        -1.0132645962        0.9549592050       10.9031860297
  C        -1.4306049325        0.1229980754        9.8438572201
  C        -2.5467328958       10.0340046801       10.0614152789
  C        -3.2093069783       10.0023842656       11.2784005106
  C        -2.7021930455        0.0154910914       12.3298181254
  C        -1.6265945429        0.8704284132       12.1371065088
  C        -3.8545636689        6.5609554037       16.6621891484
  C        -4.9660841108        5.8989853296       17.2866052415
  C        -2.7936485141        5.8235625421       16.1633946022
  C        -6.0534816300        6.5450954224       17.9513958644
  C        -7.0202956699        5.8326062600       18.6253611215
  C        -3.8721000083        3.7722137401       16.7015276909
  C        -2.7845856688        4.4358805230       16.1578564313
  C        -4.9824447537        4.4598583686       17.2887482107
  C        -6.0329781315        3.7505006352       17.9470311694
  C        -7.0102898778        4.4244562517       18.6419300087
  C       -13.7168244774        6.2962831051       31.2143405739
  C       -12.6046337074        5.6331558955       30.6051281108
  C       -14.7631550268        5.5814820139       31.7678631080
  C       -11.5741252450        6.3356303690       29.9211268114
  C       -10.5966009560        5.6419999063       29.2492585904
  C       -13.6592529579        3.4953901441       31.2261430329
  C       -14.7372412216        4.1742107183       31.7683195491
  C       -12.5756363417        4.1957997973       30.6119216544
  C       -11.5090293490        3.5226391656       29.9489702073
  C       -10.5495175772        4.2356042064       29.2742347356
  C        -9.6415207330        1.4225407033       23.6873593885
  C        -7.8832494694        8.7535239193       24.2321387529
  C        -2.8214252907        0.1505530850        7.2304753326
  C         0.7745200744        0.3232162437        8.6904563808
  O        -2.8248844047        8.6819927714       16.8913810872
  O        -5.1280477688        8.6084975483       16.3577486987
  O        -6.9112950697       10.5493694460       17.1508831871
  O        -4.9366782924       -0.1683353815       18.2217343967
  O        -4.8602093111        1.8130719473       16.0086513445
  O        -2.8400372493        1.6753498665       17.0758522326
  O        -2.4517633622       -0.0532443034       14.6642487540
  O        -4.5913476158       10.8365685231       13.7563964942
  O       -14.7989407016        8.3830496379       30.9226753250
  O       -12.7036444326        8.3150311491       31.8210109010
  O       -10.7152111411       10.3293573178       30.7432839958
  O       -12.6446165386       10.2611626778       29.6649037843
  O       -12.6372412352        1.4698318699       31.8719655194
  O       -14.6736246484        1.3982955693       30.8575705908
  O         0.4143999339        0.0101244717        1.2662658445
  O         2.5020084051       10.5377947353        2.0603567488
  F        -8.0426997937        6.4696652284       19.2426322439
  F        -8.0073711515        3.7729865703       19.2925853162
  F        -9.6293986566        6.3108680953       28.5845561035
  F        -9.5132700602        3.6085114027       28.6626291388
  O        -5.5129934648        8.8513265688       14.8854001375
  C        -4.1264395153        8.0912065115       14.3629686964
  O        -3.8374245821        8.0146508043       13.3185754397
     123
 i =      115, E =      -996.1231464209
 Zn        -2.4759348141       10.5845924363       16.6428021039
 Zn        -5.3622394842       10.7501871088       15.7402508418
 Zn       -15.1540775502       10.2866499013       31.2373114037
 Zn         3.1796921779       10.6006540582        0.1366729999
  H        -8.7738476169        0.4185515168       28.9182853593
  H        -7.8704075610        0.6482837821       26.6724991267
  H       -11.5731368386        9.8961060721       25.0161279376
  H       -12.4958610589        9.6376642343       27.3071494120
  H        -5.9616125203        0.2682756750       22.8657690558
  H        -9.6849564137        9.5113532551       21.2702470268
  H        -8.8080072661        9.7091342367       19.0070239405
  H        -5.0629944015        0.4962103395       20.5646044192
  H         1.9547067009        9.3248060198        4.4550813537
  H         0.7522622735        9.3319038382        6.6338236078
  H        -1.8109101166        1.6593002782        5.1772289192
  H        -0.7250071511        1.5282866597        2.9683979388
  H        -0.2230889881        1.6892910806       10.7612487994
  H        -2.8120194514        9.3216484790        9.2884956739
  H        -4.0424832576        9.3343313581       11.4399847218
  H        -1.2923075787        1.4780430553       12.9833133308
  H        -6.1208149014        7.6351630806       17.9722229077
  H        -6.0688058873        2.6630831008       17.9617270873
  H        -1.9713114283        3.8851559196       15.6996757409
  H        -1.9824683764        6.3932216952       15.6806250499
  H       -11.5491782102        7.4205224186       29.9082662768
  H       -11.4350171755        2.4353440471       29.9682449080
  H         0.0122923066        3.9384891803        0.2658355268
  H        -0.0299846916        6.4398766823        0.2694260393
  H        -9.3527739858        1.5358280220       22.6347914374
  H        -9.2455818742        2.2816144767       24.2525759991
  H       -10.7379133336        1.4937083072       23.7615309204
  H        -6.7884921584        8.6821990739       24.1446360234
  H        -8.2869861685        7.8897685315       23.6794569732
  H        -8.1582237573        8.6489523833       25.2897374569
  H        -3.2755998279        9.9471981967        6.9978651910
  H         3.2309639402        0.8033040304        6.4081664324
  H        -3.2860417696        0.5062815781        8.1467543076
  H         1.2287488978       10.1620536458        8.9578784252
  H         1.0416349377        1.0218459935        9.4892325072
  H         1.2102359601        0.6872602530        7.7593876475
  C        -3.8224199975        7.9950669036       16.3666032667
  C        -6.2121656521       10.5732523675       18.2848796595
  C        -3.8582586328        2.2940413194       16.6153291518
  C        -3.3403369630       10.8205114255       13.6833336486
  C       -13.7412264974        7.7819635840       31.3209712259
  C       -11.3976741287       10.3258058003       29.6073688728
  C       -13.6488423727        2.0030066813       31.3220803211
  C         1.2496641052       10.7117284772        2.2082852926
  C       -10.7269394729       10.3996872974       28.2813255335
  C        -9.3905589264        0.0917345044       28.0850096339
  C        -8.8734742640        0.2396724702       26.7979061717
  C        -9.6338735768       -0.1182427853       25.6743881201
  C       -10.9644756106       10.1672151143       25.8791030962
  C       -11.4885073563       10.0241817598       27.1572565853
  C        -9.1474276466        0.1297988263       24.2828618213
  C        -8.3843153773       10.0428970070       23.6354875420
  C        -6.5804214318       -0.0071918815       22.0110397175
  C        -7.9087060168       10.2825482883       22.2390056490
  C        -8.6835290217        9.9175772082       21.1266974337
  C        -8.1803521745       10.0407558504       19.8317073897
  C        -6.8743588081       10.5037102954       19.6132975516
  C        -6.0704183370        0.1138694982       20.7249017712
  C         0.7085226260        0.0328946704        3.5749245435
  C         1.1192813721       10.0049941871        4.6227379687
  C         0.4488877369       10.0204221921        5.8440613540
  C        -0.5983191641        0.1040390647        6.0729290139
  C        -1.0006088488        0.9490894772        5.0204034160
  C        -0.3758880905        0.8966839657        3.7840626160
  C        -1.3369083432        0.1181038746        7.3571846627
  C        -0.7006848881        0.1638971008        8.5564241709
  C        -1.0131953155        0.9588228747       10.9058579659
  C        -1.4275787508        0.1350633271        9.8399344846
  C        -2.5245592513       10.0273979782       10.0718686990
  C        -3.2038204258       10.0095676260       11.2823797310
  C        -2.6932932789        0.0057993649       12.3439122260
  C        -1.6284061094        0.8762050062       12.1402919289
  C        -3.8661254174        6.5566781438       16.6417954835
  C        -4.9696381170        5.8969688268       17.2889368301
  C        -2.7954064906        5.8372974387       16.1395549937
  C        -6.0461200013        6.5533334958       17.9635610450
  C        -7.0166737925        5.8376779636       18.6266046168
  C        -3.8544787537        3.7672157033       16.7135018218
  C        -2.7837458029        4.4455892834       16.1607801796
  C        -4.9659833440        4.4554323570       17.2974220925
  C        -6.0224203816        3.7500402189       17.9542501099
  C        -7.0040884192        4.4310618056       18.6331971343
  C       -13.7171748035        6.2956096117       31.2117524056
  C       -12.6066027370        5.6296439409       30.6038027348
  C       -14.7607059231        5.5802582597       31.7693057508
  C       -11.5786138202        6.3335586468       29.9196172752
  C       -10.5992059966        5.6415870102       29.2508589468
  C       -13.6579782591        3.4929226401       31.2262867026
  C       -14.7334139026        4.1731705598       31.7714042761
  C       -12.5750159218        4.1929663171       30.6118033897
  C       -11.5083986730        3.5190357420       29.9508200868
  C       -10.5536804860        4.2354953388       29.2737571946
  C        -9.6409813719        1.4230765756       23.6868131570
  C        -7.8844385848        8.7527203328       24.2332605396
  C        -2.8232766735        0.1516554889        7.2308120423
  C         0.7746041662        0.3214451869        8.6857619431
  O        -2.8437604872        8.6540934578       16.8342008290
  O        -5.1821317384        8.6142797757       16.3879297446
  O        -6.9144996468       10.5533392088       17.1561469256
  O        -4.9343318070       -0.1649253854       18.2228326622
  O        -4.8646927563        1.8064944787       16.0094174183
  O        -2.8481493652        1.6666676809       17.0787961244
  O        -2.4525957912       -0.0650554857       14.6576785040
  O        -4.5973823964       10.8381533726       13.7878752212
  O       -14.7972999299        8.3841873909       30.9248805984
  O       -12.7023001330        8.3147787597       31.8174644969
  O       -10.7149583157       10.3306202486       30.7438839646
  O       -12.6433592287       10.2586925141       29.6661101162
  O       -12.6354197016        1.4685940656       31.8712771782
  O       -14.6742448731        1.3982576472       30.8605817734
  O         0.4126890130        0.0057994096        1.2661409673
  O         2.5023926174       10.5401430474        2.0586634176
  F        -8.0494042770        6.4742308230       19.2290283417
  F        -7.9925796211        3.7697382753       19.2835287286
  F        -9.6345017863        6.3105607533       28.5856730497
  F        -9.5187026572        3.6038264778       28.6665519931
  O        -5.5215076816        8.8274800946       14.9195125760
  C        -4.0507681411        8.0730627169       14.4476581108
  O        -3.8647109364        7.9583033907       13.2714382722
     123
 i =      116, E =      -996.1311806264
 Zn        -2.4774243889       10.5874680596       16.6426205322
 Zn        -5.3903374750       10.7453205563       15.7299119800
 Zn       -15.1544408769       10.2856379273       31.2364869061
 Zn         3.1787306578       10.5999988094        0.1353923857
  H        -8.7749646722        0.4216347738       28.9186184585
  H        -7.8720065386        0.6548431424       26.6722878938
  H       -11.5710385122        9.8941994290       25.0150994258
  H       -12.4936445766        9.6326620104       27.3061095979
  H        -5.9625947364        0.2726650706       22.8652462692
  H        -9.6855598994        9.5056394513       21.2698891862
  H        -8.8092389885        9.7053695104       19.0043445059
  H        -5.0657846472        0.5013433481       20.5630953355
  H         1.9563887368        9.3261933340        4.4544771158
  H         0.7506710901        9.3348599681        6.6323646790
  H        -1.8121901531        1.6573862986        5.1729785438
  H        -0.7253312964        1.5273964642        2.9638981114
  H        -0.2146150321        1.6876707456       10.7584051345
  H        -2.8121341014        9.3335945895        9.2884180516
  H        -4.0413410033        9.3364571894       11.4444927190
  H        -1.2731431763        1.4920949611       12.9790762905
  H        -6.1253692266        7.6402750202       17.9763161338
  H        -6.0577779720        2.6592311994       17.9559719633
  H        -1.9708252251        3.8862608283       15.7116140983
  H        -1.9706948637        6.3879465366       15.6669794189
  H       -11.5490527619        7.4171894414       29.9058782548
  H       -11.4339387780        2.4336013991       29.9694303756
  H         0.0151847699        3.9368414580        0.2706007341
  H        -0.0279528389        6.4390087132        0.2721630399
  H        -9.3512545204        1.5373574621       22.6352555491
  H        -9.2454952004        2.2820262308       24.2529869867
  H       -10.7364096339        1.4941760821       23.7606001735
  H        -6.7905642328        8.6813385590       24.1457946306
  H        -8.2873335692        7.8890899961       23.6792974944
  H        -8.1601005760        8.6467759430       25.2891804906
  H        -3.2770545736        9.9467521273        7.0046522827
  H         3.2289702733        0.8009640120        6.4056273709
  H        -3.2804835851        0.5115638181        8.1465739774
  H         1.2332173789       10.1585038963        8.9456111916
  H         1.0471000914        1.0168286392        9.4847651668
  H         1.2142933485        0.6887463819        7.7551413048
  C        -3.8078037923        7.9688699142       16.2774908251
  C        -6.2119669916       10.5636103521       18.2889033478
  C        -3.8534090216        2.2892158479       16.6086464838
  C        -3.3374609011       10.7746740342       13.6843033310
  C       -13.7377605548        7.7823179363       31.3144577763
  C       -11.3960628882       10.3221414328       29.6073931044
  C       -13.6478016304        2.0013870596       31.3221744165
  C         1.2496998221       10.7120815407        2.2066665375
  C       -10.7263565290       10.3987225664       28.2810290576
  C        -9.3911703063        0.0940176931       28.0851680747
  C        -8.8729764444        0.2409866192       26.7983980952
  C        -9.6352960754       -0.1122963428       25.6748872246
  C       -10.9625480042       10.1641900207       25.8786786173
  C       -11.4877671164       10.0234688054       27.1566433116
  C        -9.1470474279        0.1292873502       24.2830379585
  C        -8.3836523920       10.0439103856       23.6338745272
  C        -6.5831419324       -0.0067831696       22.0131664662
  C        -7.9101716790       10.2779106967       22.2356788289
  C        -8.6846552189        9.9118202946       21.1235964281
  C        -8.1787442838       10.0327733627       19.8290960584
  C        -6.8790726106       10.5157084408       19.6163568053
  C        -6.0689839177        0.1100813351       20.7284312000
  C         0.7071012706        0.0305314502        3.5726227030
  C         1.1197312281       10.0049926042        4.6211979991
  C         0.4484540326       10.0222185500        5.8414182953
  C        -0.6028753014        0.1004809293        6.0689850008
  C        -1.0001943367        0.9484977887        5.0171202245
  C        -0.3766167981        0.8960170907        3.7800715176
  C        -1.3364596172        0.1193954755        7.3551576873
  C        -0.7013189920        0.1750040501        8.5547481167
  C        -1.0185966820        0.9698092463       10.9017694846
  C        -1.4127936701        0.1241108402        9.8469287125
  C        -2.5205516161       10.0287668585       10.0775917907
  C        -3.1954879818       10.0062010827       11.2928524495
  C        -2.7166167197        0.0434269478       12.3348858577
  C        -1.6075486485        0.8717384764       12.1497244171
  C        -3.8794381734        6.5258769138       16.6486831153
  C        -4.9869219717        5.8778837528       17.2956920363
  C        -2.7998415710        5.8426811296       16.1169758191
  C        -6.0440103486        6.5597393110       17.9745385412
  C        -7.0180228691        5.8438596844       18.6293799590
  C        -3.8484578386        3.7631728749       16.7236336025
  C        -2.7877516108        4.4475395839       16.1617952586
  C        -4.9626240804        4.4387525488       17.3098436205
  C        -6.0215782155        3.7451106595       17.9687912250
  C        -7.0022295924        4.4380715094       18.6351742927
  C       -13.7176442031        6.2953323773       31.2135850652
  C       -12.6106875280        5.6282039573       30.6006392840
  C       -14.7595389863        5.5786285480       31.7716683638
  C       -11.5800187554        6.3304932003       29.9208317861
  C       -10.6026511934        5.6391379645       29.2499763619
  C       -13.6574356612        3.4909358626       31.2280322678
  C       -14.7316916297        4.1717582198       31.7743741581
  C       -12.5753155532        4.1914884917       30.6131341238
  C       -11.5075646045        3.5174638802       29.9539117663
  C       -10.5569123344        4.2332214373       29.2704609242
  C        -9.6394495067        1.4230220120       23.6869859110
  C        -7.8865191818        8.7530017820       24.2328036389
  C        -2.8228256751        0.1524136990        7.2292949746
  C         0.7772527783        0.3192962706        8.6802510089
  O        -2.8856769622        8.6702423354       16.8469975278
  O        -5.1886410074        8.6022874521       16.3918791612
  O        -6.9157009496       10.5600594176       17.1602462279
  O        -4.9367698978       -0.1534893520       18.2155925599
  O        -4.8712896083        1.8019037023       16.0214103738
  O        -2.8528857096        1.6663110195       17.0949941615
  O        -2.4639759340       -0.0523080596       14.6616997617
  O        -4.5992820028       10.8671536629       13.8040425181
  O       -14.7988660301        8.3824933377       30.9289234443
  O       -12.7002342951        8.3128723576       31.8168069848
  O       -10.7140110201       10.3320192079       30.7444175993
  O       -12.6419949544       10.2599175269       29.6654868065
  O       -12.6349615863        1.4673175809       31.8729106040
  O       -14.6745422236        1.3971284020       30.8635301369
  O         0.4111611612       -0.0020126186        1.2656598571
  O         2.5030752754       10.5443321722        2.0587062647
  F        -8.0642288369        6.4698808034       19.2237359817
  F        -7.9928496765        3.7892449088       19.2939867113
  F        -9.6290623306        6.3031031718       28.5952148181
  F        -9.5095520695        3.6077475290       28.6773878547
  O        -5.5118421697        8.8223026726       14.9401666564
  C        -4.0787054035        8.0687485543       14.4649909250
  O        -3.8455726163        7.9200042785       13.3103122934
     123
 i =      117, E =      -996.1397804865
 Zn        -2.4857404874       10.5779856950       16.6453967641
 Zn        -5.4123784708       10.7476795717       15.7178500191
 Zn       -15.1537322412       10.2842242890       31.2351839700
 Zn         3.1786476716       10.5990996554        0.1331858306
  H        -8.7770031413        0.4262329253       28.9190723608
  H        -7.8747267266        0.6651544299       26.6725391215
  H       -11.5669547490        9.8907513794       25.0140746029
  H       -12.4898819087        9.6245787632       27.3043908293
  H        -5.9670751255        0.2779026889       22.8657106343
  H        -9.6848166608        9.4952779476       21.2677941438
  H        -8.8072163701        9.6984252711       19.0018233175
  H        -5.0704590925        0.5074448428       20.5627106985
  H         1.9582673288        9.3290844326        4.4537633981
  H         0.7492871820        9.3388776262        6.6305143890
  H        -1.8145133054        1.6556106673        5.1657919146
  H        -0.7252237664        1.5250822069        2.9574082179
  H        -0.2041800985        1.6885033018       10.7554872022
  H        -2.8104791813        9.3443205831        9.2879459776
  H        -4.0345949210        9.3427032392       11.4541427306
  H        -1.2472620573        1.5028670689       12.9733308944
  H        -6.1243620511        7.6355897919       17.9822977024
  H        -6.0510536698        2.6568047419       17.9593832593
  H        -1.9595431688        3.8776980529       15.7221677936
  H        -1.9780818557        6.3762966261       15.6501402765
  H       -11.5492390268        7.4131727610       29.9037086817
  H       -11.4318296930        2.4296597648       29.9734198466
  H         0.0193601301        3.9343226167        0.2786534425
  H        -0.0253858115        6.4372826420        0.2776186293
  H        -9.3481174250        1.5396073741       22.6348785407
  H        -9.2446575090        2.2831961070       24.2542404223
  H       -10.7351049140        1.4948574338       23.7590563512
  H        -6.7924654717        8.6799599246       24.1475673534
  H        -8.2887442433        7.8879259094       23.6780758522
  H        -8.1639446073        8.6444929295       25.2883951039
  H        -3.2798390155        9.9466583405        7.0153131185
  H         3.2254514229        0.7956656146        6.4024122888
  H        -3.2735465917        0.5210698338        8.1465793717
  H         1.2361572961       10.1531230458        8.9255281770
  H         1.0580193218        1.0093418243        9.4801605523
  H         1.2206149055        0.6924967053        7.7453736673
  C        -3.8164945928        7.9628425072       16.2088247349
  C        -6.2160877133       10.5751169979       18.2874045815
  C        -3.8531417129        2.2838887339       16.6252829943
  C        -3.3488581160       10.8211612054       13.6944409199
  C       -13.7385923658        7.7797365450       31.3154782972
  C       -11.3943904016       10.3213914749       29.6067739878
  C       -13.6478852213        2.0005322280       31.3246297240
  C         1.2496741478       10.7082164297        2.2046600268
  C       -10.7248915092       10.3969128352       28.2805167072
  C        -9.3916301006        0.0972841258       28.0848174323
  C        -8.8740332345        0.2471580585       26.7980989990
  C        -9.6337613225       -0.1111977786       25.6743479340
  C       -10.9603083752       10.1634737502       25.8781700160
  C       -11.4854623005       10.0197448877       27.1559428055
  C        -9.1460140175        0.1314770870       24.2825671974
  C        -8.3871212721       10.0421715154       23.6326500490
  C        -6.5852299243       -0.0088574243       22.0143289697
  C        -7.9120528011       10.2746005328       22.2343414286
  C        -8.6836630212        9.9009551877       21.1223969296
  C        -8.1793813788       10.0304700576       19.8274669315
  C        -6.8779930364       10.5091468416       19.6177093822
  C        -6.0733563858        0.1160120573       20.7295242130
  C         0.7059537893        0.0293329862        3.5695203776
  C         1.1195771347       10.0059442389        4.6190125943
  C         0.4454119636       10.0223493153        5.8372607170
  C        -0.6053914860        0.1002706182        6.0665332262
  C        -1.0038209436        0.9445756463        5.0119925659
  C        -0.3783623865        0.8946489248        3.7754758891
  C        -1.3349822895        0.1249033628        7.3548673530
  C        -0.6961147510        0.1731284925        8.5534851278
  C        -1.0026262237        0.9635934457       10.9062140283
  C        -1.4111451347        0.1319800488        9.8464931435
  C        -2.5105105284       10.0286879637       10.0815319634
  C        -3.1963552266       10.0200660856       11.2946690578
  C        -2.7082375995        0.0449364767       12.3415230944
  C        -1.6095679874        0.8907124529       12.1488482022
  C        -3.8914985289        6.5135157765       16.6097273171
  C        -4.9747930433        5.8759565941       17.3055352391
  C        -2.8030264146        5.8241573354       16.1073073240
  C        -6.0399809406        6.5554937480       17.9756669744
  C        -7.0143471598        5.8401297605       18.6289422659
  C        -3.8571880780        3.7607508071       16.7301331663
  C        -2.7879361942        4.4268268779       16.1636843145
  C        -4.9629965170        4.4382891822       17.3262700549
  C        -6.0184887761        3.7419536318       17.9836332222
  C        -7.0003992158        4.4340994083       18.6487346324
  C       -13.7182842402        6.2928128553       31.2115749692
  C       -12.6112812270        5.6254148800       30.5993630215
  C       -14.7574805035        5.5772067210       31.7759439797
  C       -11.5829903510        6.3265186545       29.9172281379
  C       -10.6059221010        5.6342676174       29.2486792343
  C       -13.6563760355        3.4895794698       31.2320413088
  C       -14.7300288266        4.1704204372       31.7791676240
  C       -12.5761168165        4.1884245543       30.6125366708
  C       -11.5083098700        3.5135893803       29.9535628668
  C       -10.5556831222        4.2283018138       29.2718734357
  C        -9.6379558001        1.4252747970       23.6861063907
  C        -7.8886153995        8.7516577457       24.2323901949
  C        -2.8217125801        0.1534797141        7.2293288477
  C         0.7845087689        0.3199205375        8.6703596970
  O        -2.9118429316        8.6713367762       16.8194761815
  O        -5.2163465576        8.5900471886       16.3996127228
  O        -6.9172530625       10.5600486450       17.1542173259
  O        -4.9431218457       -0.1388600494       18.2185580457
  O        -4.8732908804        1.8023182219       16.0366684889
  O        -2.8510643749        1.6578755667       17.1010566587
  O        -2.4674862207       -0.0691481605       14.6671196640
  O        -4.6022229927       10.8980787184       13.8170823107
  O       -14.7987323481        8.3804914076       30.9275337018
  O       -12.6979208575        8.3101747924       31.8119380466
  O       -10.7117940151       10.3303294757       30.7438226358
  O       -12.6402046331       10.2591815979       29.6654806767
  O       -12.6346245314        1.4659717073       31.8740260393
  O       -14.6736088527        1.3959216077       30.8643764236
  O         0.4104017469       -0.0119637761        1.2644749198
  O         2.5037820801       10.5458481578        2.0583260305
  F        -8.0453624617        6.4780899672       19.2353549824
  F        -7.9985447581        3.7809200103       19.2939953953
  F        -9.6373722974        6.3085762311       28.5999270560
  F        -9.5214459148        3.6007011608       28.6609247473
  O        -5.5350869253        8.8047277541       14.9599271961
  C        -4.1023265765        8.0467397551       14.5141401138
  O        -3.8238722111        7.8686182249       13.3961428717
     123
 i =      118, E =      -996.1488837537
 Zn        -2.5145509203       10.5531668973       16.6528302806
 Zn        -5.4543760142       10.7505456899       15.7081543240
 Zn       -15.1518615088       10.2837972608       31.2329317332
 Zn         3.1793955109       10.5977005723        0.1268194330
  H        -8.7813093014        0.4362912265       28.9195004047
  H        -7.8797863520        0.6859575629       26.6729444446
  H       -11.5588774756        9.8834422896       25.0120979129
  H       -12.4818532335        9.6089490062       27.3013185330
  H        -5.9792569105        0.2862107971       22.8663095267
  H        -9.6820235324        9.4728464316       21.2633867210
  H        -8.8021070370        9.6843225544       18.9968661161
  H        -5.0817991781        0.5203632417       20.5632129054
  H         1.9610002684        9.3350434130        4.4525838477
  H         0.7481493017        9.3433837605        6.6282098944
  H        -1.8222703644        1.6534008935        5.1516860142
  H        -0.7255930390        1.5193158899        2.9460732943
  H        -0.1808070958        1.6882148297       10.7552890766
  H        -2.8063289434        9.3587794640        9.2953314465
  H        -4.0208658567        9.3612795299       11.4690449075
  H        -1.2124396128        1.5224817374       12.9658580130
  H        -6.1174301570        7.6182941268       17.9931992735
  H        -6.0440185982        2.6577549534       17.9768033558
  H        -1.9421612178        3.8477494953       15.7459944522
  H        -1.9991702129        6.3471900958       15.6137276819
  H       -11.5518490211        7.4039062274       29.8992150541
  H       -11.4293005554        2.4217811956       29.9806004512
  H         0.0269719823        3.9298366911        0.2954370841
  H        -0.0212438391        6.4343107848        0.2898776112
  H        -9.3416563228        1.5442273938       22.6345314347
  H        -9.2430479912        2.2861927743       24.2560802595
  H       -10.7321394363        1.4967973510       23.7553282397
  H        -6.7970208354        8.6783420000       24.1504637279
  H        -8.2919520452        7.8847501431       23.6748204874
  H        -8.1725966802        8.6408001739       25.2875222509
  H        -3.2817014375        9.9484369540        7.0382730188
  H         3.2199696551        0.7838290301        6.3965420328
  H        -3.2639028334        0.5420799048        8.1486815872
  H         1.2437171553       10.1425952975        8.8849914987
  H         1.0822589801        0.9934074944        9.4703899079
  H         1.2259863880        0.7001153021        7.7285565332
  C        -3.8715133653        7.9744394836       16.1916046705
  C        -6.2202420303       10.5901017287       18.2833757241
  C        -3.8614556956        2.2662592627       16.6635068490
  C        -3.3536477204       10.8461440792       13.7125378160
  C       -13.7392063872        7.7751301610       31.3129581516
  C       -11.3910164709       10.3197754828       29.6049003701
  C       -13.6479509466        1.9979731784       31.3293506132
  C         1.2496101948       10.7015707660        2.2006917818
  C       -10.7222170331       10.3944603253       28.2790364199
  C        -9.3923027313        0.1036246419       28.0838547358
  C        -8.8757190783        0.2598264026       26.7973481471
  C        -9.6305704831       -0.1085722624       25.6732788674
  C       -10.9551583610       10.1608201817       25.8768498101
  C       -11.4800936070       10.0114505716       27.1542388418
  C        -9.1450557975        0.1343203133       24.2807225402
  C        -8.3924190375       10.0378992213       23.6320872202
  C        -6.5917374984       -0.0062923631       22.0123679988
  C        -7.9134352621       10.2647543083       22.2337295717
  C        -8.6834379383        9.8864702060       21.1218179637
  C        -8.1784669222       10.0175899577       19.8264583169
  C        -6.8828440041       10.5087469448       19.6137124431
  C        -6.0815834651        0.1190730372       20.7270262142
  C         0.7059529519        0.0282799245        3.5645470556
  C         1.1169300910       10.0060817989        4.6152930095
  C         0.4420129474       10.0225886976        5.8327351130
  C        -0.6062934199        0.1038541615        6.0593841177
  C        -1.0123162236        0.9406950950        5.0012505270
  C        -0.3832255327        0.8885489973        3.7662630339
  C        -1.3327125252        0.1260997890        7.3499285615
  C        -0.6884332497        0.1760125633        8.5466892008
  C        -0.9806008594        0.9631315282       10.9051609125
  C        -1.3958554735        0.1316096453        9.8485674981
  C        -2.5076771849       10.0451657541       10.0852353261
  C        -3.1851749829       10.0429280544       11.3070129583
  C        -2.7091174209        0.0788019796       12.3495503336
  C        -1.5962681303        0.9132842487       12.1472611821
  C        -3.9022549177        6.5105888339       16.5463605571
  C        -4.9582545540        5.8795660066       17.2903473624
  C        -2.8201850672        5.7892587106       16.0782748743
  C        -6.0300327725        6.5383310364       17.9774652739
  C        -6.9991497391        5.8293755092       18.6458866876
  C        -3.8588574279        3.7470283447       16.7519244643
  C        -2.7835827192        4.3899184866       16.1712057179
  C        -4.9521908445        4.4429048076       17.3498544279
  C        -6.0033331238        3.7420409656       18.0065597848
  C        -6.9976452764        4.4228652724       18.6650678066
  C       -13.7194302448        6.2871641712       31.2123421426
  C       -12.6147845164        5.6191494982       30.5965082867
  C       -14.7563281517        5.5737256598       31.7833814339
  C       -11.5882268437        6.3177103096       29.9118820951
  C       -10.6061527952        5.6295973903       29.2487953187
  C       -13.6566635202        3.4856513945       31.2365282036
  C       -14.7262197565        4.1671064489       31.7906054139
  C       -12.5769045155        4.1816272353       30.6144893811
  C       -11.5088977037        3.5059747707       29.9555955110
  C       -10.5630281222        4.2238683705       29.2675208413
  C        -9.6345509308        1.4294186020       23.6848845253
  C        -7.8937475357        8.7472297953       24.2322817425
  C        -2.8200658851        0.1584433361        7.2339575041
  C         0.7955733076        0.3185529529        8.6534043248
  O        -2.9217091165        8.6532078237       16.7346457358
  O        -5.2658180361        8.5695547084       16.4167546751
  O        -6.9282522312       10.5577568385       17.1477396361
  O        -4.9513288415       -0.0898943120       18.2282278194
  O        -4.8798420884        1.7983941623       16.0588901479
  O        -2.8465070862        1.6357876775       17.1004185371
  O        -2.4734874232       -0.0745451137       14.6775537211
  O        -4.6062476981       10.9651661898       13.8445920453
  O       -14.7981230392        8.3789802463       30.9257940952
  O       -12.6968415366        8.3055598099       31.8066361513
  O       -10.7069556247       10.3282676604       30.7415354278
  O       -12.6366268956       10.2580197154       29.6662656033
  O       -12.6333194115        1.4639184379       31.8764710589
  O       -14.6728041498        1.3953425527       30.8644289197
  O         0.4104896067       -0.0183648151        1.2616464886
  O         2.5041344761       10.5434516278        2.0552329227
  F        -8.0509928685        6.4641844925       19.2249269211
  F        -8.0093268439        3.7654745245       19.2888919717
  F        -9.6371416477        6.2940445068       28.5932329134
  F        -9.5083071233        3.6116477624       28.6764211491
  O        -5.5673914995        8.7766951628       15.0030605094
  C        -4.1490767006        8.0278449828       14.6096906674
  O        -3.7901318831        7.7705340473       13.5384567073
     123
 i =      119, E =      -996.1538519281
 Zn        -2.5331761050       10.5384346568       16.6505288288
 Zn        -5.4684221094       10.7484179405       15.6953839465
 Zn       -15.1510758058       10.2831290675       31.2338017940
 Zn         3.1808698016       10.5970962785        0.1215178014
  H        -8.7843571822        0.4444832785       28.9193105963
  H        -7.8830791531        0.7000082613       26.6728044166
  H       -11.5534074737        9.8776391710       25.0105170280
  H       -12.4759714038        9.5990365036       27.2997990847
  H        -5.9880544965        0.2915566313       22.8658190146
  H        -9.6805103252        9.4561052069       21.2620957865
  H        -8.7992764569        9.6715982012       18.9936845098
  H        -5.0898081049        0.5290639702       20.5628339696
  H         1.9623164368        9.3371789528        4.4516731752
  H         0.7472301181        9.3454365578        6.6255894123
  H        -1.8283383306        1.6500624934        5.1421721504
  H        -0.7277188703        1.5137042391        2.9387930929
  H        -0.1644579534        1.6821100121       10.7586661649
  H        -2.8058499565        9.3642829615        9.3101842129
  H        -4.0136051563        9.3750725781       11.4781995162
  H        -1.2039735490        1.5334581800       12.9639591503
  H        -6.1138015065        7.6091688970       17.9988948132
  H        -6.0376586558        2.6512127377       17.9956040260
  H        -1.9442859496        3.8229521840       15.7688758610
  H        -2.0122657029        6.3229698109       15.5817570007
  H       -11.5571508513        7.4016125720       29.8967795845
  H       -11.4276937293        2.4183249514       29.9861939920
  H         0.0305434235        3.9271916817        0.3080521500
  H        -0.0184439034        6.4317648043        0.2987162936
  H        -9.3370951941        1.5476458908       22.6347838334
  H        -9.2422523531        2.2877702178       24.2562412395
  H       -10.7290706885        1.4989356165       23.7520586369
  H        -6.8017289735        8.6776737428       24.1522295734
  H        -8.2940635970        7.8819471109       23.6729938222
  H        -8.1792716224        8.6378680796       25.2878258406
  H        -3.2824619924        9.9497565705        7.0566750137
  H         3.2187296153        0.7759357470        6.3936528772
  H        -3.2591109892        0.5576552835        8.1501146569
  H         1.2495072695       10.1358830006        8.8577048702
  H         1.0993878654        0.9808417924        9.4639729425
  H         1.2241870554        0.7069370163        7.7170533744
  C        -3.8866872200        7.9735058617       16.1958015472
  C        -6.2234447969       10.6055479536       18.2820939622
  C        -3.8587461015        2.2533905850       16.6672334372
  C        -3.3517451106       10.8698393596       13.7236225948
  C       -13.7394941297        7.7722341173       31.3118229237
  C       -11.3884902818       10.3178082250       29.6030364287
  C       -13.6480392152        1.9974209520       31.3295556746
  C         1.2505375579       10.7032479488        2.1991115147
  C       -10.7199933668       10.3928307566       28.2776396276
  C        -9.3929744424        0.1095390352       28.0828708297
  C        -8.8758508542        0.2661813916       26.7965833119
  C        -9.6301208251       -0.1037435722       25.6726850759
  C       -10.9509426070       10.1559481555       25.8757685912
  C       -11.4763299998       10.0067906337       27.1529402388
  C        -9.1435797558        0.1340960961       24.2796196463
  C        -8.3930965610       10.0353625923       23.6316846214
  C        -6.5972246016       -0.0060852579       22.0107670137
  C        -7.9181309843       10.2626337806       22.2322325027
  C        -8.6841945414        9.8754357987       21.1203178800
  C        -8.1797949034       10.0099565231       19.8248590216
  C        -6.8870984775       10.5084503306       19.6116558864
  C        -6.0880741553        0.1234756498       20.7254949041
  C         0.7036298392        0.0249089843        3.5615129005
  C         1.1166831129       10.0063726570        4.6135274697
  C         0.4419337845       10.0257165957        5.8311222321
  C        -0.6096480349        0.1041562808        6.0548739747
  C        -1.0152782922        0.9403977775        4.9954812685
  C        -0.3860481667        0.8847194286        3.7607047432
  C        -1.3312494856        0.1299124184        7.3490850405
  C        -0.6819149671        0.1714788106        8.5440824242
  C        -0.9696354831        0.9645343034       10.9067372531
  C        -1.3931852896        0.1406605668        9.8465091507
  C        -2.5046415954       10.0583301164       10.0929681047
  C        -3.1815058381       10.0604129496       11.3152094383
  C        -2.7025114531        0.0930210729       12.3585361712
  C        -1.5902151948        0.9241186403       12.1466897113
  C        -3.9078088375        6.5041236477       16.5635324001
  C        -4.9718859408        5.8667855658       17.2801205479
  C        -2.8432949883        5.7868766105       16.0524554453
  C        -6.0284177064        6.5300358702       17.9879136930
  C        -7.0036033802        5.8287862128       18.6544408461
  C        -3.8369462407        3.7324394191       16.7767141908
  C        -2.7833782873        4.3887971874       16.1735451051
  C        -4.9438890363        4.4313051521       17.3467638154
  C        -5.9893749634        3.7354869105       18.0177320460
  C        -6.9844156638        4.4229702931       18.6686019283
  C       -13.7198932027        6.2833306237       31.2112906459
  C       -12.6142435450        5.6156948305       30.5955494109
  C       -14.7551966877        5.5712150889       31.7883114693
  C       -11.5887641849        6.3151922427       29.9092933532
  C       -10.6079099248        5.6280043293       29.2414496782
  C       -13.6549626686        3.4848166848       31.2426146658
  C       -14.7257306571        4.1644887003       31.7967857175
  C       -12.5781827287        4.1778758984       30.6119069269
  C       -11.5095086416        3.5028227328       29.9521445199
  C       -10.5549599193        4.2207673089       29.2750873689
  C        -9.6312966040        1.4301783700       23.6844996506
  C        -7.8988154704        8.7439364432       24.2331129260
  C        -2.8189183370        0.1618328087        7.2389006196
  C         0.8023632002        0.3160214305        8.6421712753
  O        -2.9124514697        8.6481778392       16.7216450445
  O        -5.2602682521        8.5639191672       16.4276809630
  O        -6.9320206381       10.5506433977       17.1437108478
  O        -4.9557819497       -0.0750111846       18.2212950695
  O        -4.8923412625        1.7933737246       16.0837548201
  O        -2.8493980046        1.6147909049       17.1048295675
  O        -2.4648376880       -0.0708125200       14.6747534832
  O        -4.6046913061       10.9822465472       13.8471983772
  O       -14.7971379145        8.3782358360       30.9245620206
  O       -12.6986271141        8.3035076026       31.8077539735
  O       -10.7041302953       10.3297964655       30.7391699618
  O       -12.6342491047       10.2582477001       29.6656353605
  O       -12.6342698423        1.4624900145       31.8769725637
  O       -14.6727713551        1.3941457385       30.8646854600
  O         0.4115405047       -0.0102730318        1.2610384056
  O         2.5041924505       10.5390551541        2.0524668450
  F        -8.0469468522        6.4823197655       19.2316300599
  F        -7.9959943967        3.7829915031       19.3034627543
  F        -9.6411295655        6.3155409480       28.6015566472
  F        -9.5298515534        3.5891755930       28.6558481637
  O        -5.6026624421        8.7501235297       15.0171941438
  C        -4.2042944961        8.0386416665       14.6456920466
  O        -3.7810357394        7.7173992680       13.5951622999
     123
 i =      120, E =      -996.1581793734
 Zn        -2.5323968532       10.5271225267       16.6550288425
 Zn        -5.4493479626       10.7523434786       15.6796291821
 Zn       -15.1512847302       10.2830851037       31.2337168564
 Zn         3.1810507685       10.5966761794        0.1179854142
  H        -8.7863694476        0.4512279710       28.9184674793
  H        -7.8848478992        0.7077514018       26.6719660348
  H       -11.5497190037        9.8722986835       25.0092918554
  H       -12.4722316977        9.5935740478       27.2994533107
  H        -5.9936317789        0.2940654874       22.8643117483
  H        -9.6785889662        9.4445892443       21.2622226330
  H        -8.7980261783        9.6609524537       18.9926685483
  H        -5.0945100527        0.5350603793       20.5616702399
  H         1.9624296138        9.3365608043        4.4515578115
  H         0.7467864829        9.3464225655        6.6239920391
  H        -1.8323732952        1.6466840241        5.1371732464
  H        -0.7310526070        1.5083697983        2.9350657280
  H        -0.1517562466        1.6745180589       10.7634407073
  H        -2.8094462757        9.3634151408        9.3253379423
  H        -4.0140009867        9.3851945851       11.4810624556
  H        -1.2106279013        1.5406829913       12.9670812337
  H        -6.1089694736        7.6146318218       18.0006056318
  H        -6.0315956736        2.6461719583       18.0171867999
  H        -1.9515489586        3.8175264950       15.7793576270
  H        -2.0284869861        6.3159529970       15.5539967109
  H       -11.5620685352        7.4018816063       29.8951390899
  H       -11.4268577277        2.4206107224       29.9861068056
  H         0.0331003858        3.9268998640        0.3153008976
  H        -0.0161909389        6.4304166473        0.3036578129
  H        -9.3333595161        1.5495059046       22.6338923639
  H        -9.2411185051        2.2878082905       24.2562323505
  H       -10.7267956821        1.5001917237       23.7495823777
  H        -6.8052747542        8.6761550420       24.1540952906
  H        -8.2954982392        7.8802347078       23.6731624738
  H        -8.1840218985        8.6355805235       25.2870585483
  H        -3.2821778737        9.9510133286        7.0720542932
  H         3.2201854549        0.7718691625        6.3928207454
  H        -3.2580590073        0.5685339725        8.1509419858
  H         1.2562950877       10.1324610478        8.8407194914
  H         1.1084608538        0.9703129010        9.4597511241
  H         1.2174894836        0.7116456051        7.7122002571
  C        -3.8900305873        7.9646321155       16.2137977303
  C        -6.2248148578       10.6000587064       18.2812186576
  C        -3.8543838657        2.2496010386       16.6749583255
  C        -3.3371943237       10.8754559697       13.7207582894
  C       -13.7403289047        7.7736299361       31.3141747958
  C       -11.3865903785       10.3196447304       29.6018444580
  C       -13.6486971891        1.9956564353       31.3309523123
  C         1.2507804608       10.7062141124        2.1983614888
  C       -10.7188208212       10.3927843535       28.2762388015
  C        -9.3928598161        0.1122727825       28.0822809990
  C        -8.8767224185        0.2719860249       26.7959371332
  C        -9.6285736133       -0.1052834637       25.6727262089
  C       -10.9491631547       10.1540370665       25.8747130505
  C       -11.4734234063       10.0027453441       27.1519796517
  C        -9.1420119972        0.1354392290       24.2803005857
  C        -8.3961491635       10.0342429907       23.6304958471
  C        -6.6025806404       -0.0044532759       22.0093322342
  C        -7.9221921955       10.2605585140       22.2309140891
  C        -8.6847847175        9.8695034048       21.1179794264
  C        -8.1809012570       10.0059179142       19.8225534425
  C        -6.8915022397       10.5150876104       19.6100083118
  C        -6.0916977085        0.1272744724       20.7248582602
  C         0.7028665334        0.0240798358        3.5605067558
  C         1.1180154334       10.0072312759        4.6126952181
  C         0.4420549056       10.0275382091        5.8299146890
  C        -0.6105204970        0.1052276935        6.0547302929
  C        -1.0168346551        0.9393443667        4.9932482256
  C        -0.3874120988        0.8830203770        3.7586954557
  C        -1.3311379296        0.1290740949        7.3504449431
  C        -0.6812922418        0.1737279365        8.5450868829
  C        -0.9680863607        0.9717219463       10.9088142394
  C        -1.3920411474        0.1472451140        9.8477069527
  C        -2.5023445995       10.0660327506       10.0998741199
  C        -3.1836274299       10.0708315763       11.3168179443
  C        -2.6959746374        0.1023310352       12.3571177299
  C        -1.5845631699        0.9273119719       12.1487366931
  C        -3.9149516512        6.4944762762       16.5785331185
  C        -4.9744302287        5.8523842306       17.2982111082
  C        -2.8421691739        5.7891312979       16.0599959697
  C        -6.0303183228        6.5354220280       17.9833097549
  C        -7.0011022852        5.8275990154       18.6481619756
  C        -3.8355737616        3.7261866188       16.7762086090
  C        -2.7890237757        4.3946953635       16.1758123847
  C        -4.9491115038        4.4174921378       17.3432404558
  C        -5.9951709258        3.7306692554       18.0226193993
  C        -6.9843547756        4.4226737728       18.6760543954
  C       -13.7210788557        6.2845258756       31.2119645545
  C       -12.6170969410        5.6151350104       30.5948595246
  C       -14.7538961392        5.5700762922       31.7910731802
  C       -11.5908532702        6.3156368715       29.9086125944
  C       -10.6046774526        5.6279514335       29.2473937993
  C       -13.6566493244        3.4824203345       31.2410976349
  C       -14.7238293574        4.1633142451       31.8012364503
  C       -12.5794911683        4.1778485370       30.6138431965
  C       -11.5083046069        3.5046713356       29.9565633470
  C       -10.5591276154        4.2205142764       29.2689203764
  C        -9.6290119368        1.4306159599       23.6830609135
  C        -7.9024514873        8.7434933202       24.2329215360
  C        -2.8184121752        0.1647424638        7.2431385110
  C         0.8029838779        0.3106889033        8.6364446961
  O        -2.8981065897        8.6441845027       16.7377005323
  O        -5.2356172838        8.5799000230       16.4415578613
  O        -6.9213947524       10.5475804641       17.1360755933
  O        -4.9565162630       -0.0721346550       18.2187194651
  O        -4.8926840470        1.7936887141       16.1009012413
  O        -2.8435830775        1.6050218196       17.1037881438
  O        -2.4577413420       -0.0603352597       14.6732678603
  O        -4.5934952712       10.9640649498       13.8314076583
  O       -14.7971278123        8.3787580539       30.9237096205
  O       -12.6991915722        8.3035090877       31.8105439797
  O       -10.7041657998       10.3298249300       30.7385751528
  O       -12.6323741353       10.2571124889       29.6645553595
  O       -12.6334398273        1.4612861376       31.8757921054
  O       -14.6729379388        1.3933097740       30.8635689408
  O         0.4121719219       -0.0025388609        1.2598314186
  O         2.5041265754       10.5393454536        2.0516448341
  F        -8.0424744909        6.4666376224       19.2386738072
  F        -7.9950336860        3.7615767434       19.2877624340
  F        -9.6328865877        6.2949752976       28.5902874005
  F        -9.5311027539        3.5962492191       28.6470132026
  O        -5.6155647979        8.7275348575       15.0155032132
  C        -4.2372265489        8.0485625516       14.6509312727
  O        -3.8121925780        7.7316302201       13.5986048888
     123
 i =      121, E =      -996.1636530765
 Zn        -2.5344054057       10.4978018965       16.6708769413
 Zn        -5.4264481777       10.7640483120       15.6485170877
 Zn       -15.1510226142       10.2828562676       31.2325395978
 Zn         3.1820787150       10.5962294010        0.1111652318
  H        -8.7910464714        0.4671322546       28.9167921757
  H        -7.8897822165        0.7262530578       26.6697135535
  H       -11.5402632152        9.8600603565       25.0073762045
  H       -12.4634085947        9.5802129237       27.2983871149
  H        -6.0073156012        0.2997563760       22.8599305960
  H        -9.6730949011        9.4177795675       21.2601169216
  H        -8.7942047997        9.6368335448       18.9907588649
  H        -5.1072304365        0.5487956364       20.5596753701
  H         1.9624857529        9.3365299452        4.4514385105
  H         0.7463691445        9.3489634621        6.6212861128
  H        -1.8416893103        1.6391575534        5.1265089738
  H        -0.7387860756        1.4961915312        2.9272253157
  H        -0.1202908767        1.6639104737       10.7707105359
  H        -2.8156549357        9.3640324071        9.3495505749
  H        -4.0150573682        9.4124192851       11.4884895147
  H        -1.2141097627        1.5596987072       12.9728809380
  H        -6.0989043997        7.6099753266       18.0032995180
  H        -6.0203091130        2.6296605817       18.0619028203
  H        -1.9586883853        3.8137339149       15.7936916854
  H        -2.0682696875        6.3058656256       15.5017699426
  H       -11.5708651692        7.4025513011       29.8895868280
  H       -11.4259205629        2.4202693959       29.9867099870
  H         0.0397042560        3.9259712544        0.3318029624
  H        -0.0114649838        6.4272437361        0.3158222455
  H        -9.3243183212        1.5525167531       22.6328518147
  H        -9.2376288827        2.2893192675       24.2568263761
  H       -10.7220475723        1.5023429303       23.7435899275
  H        -6.8126118525        8.6729389789       24.1586363481
  H        -8.2999825681        7.8759535656       23.6726208249
  H        -8.1955382329        8.6311484864       25.2849860376
  H        -3.2838109397        9.9535760803        7.1078936894
  H         3.2221229162        0.7618105057        6.3900737328
  H        -3.2538379789        0.5946792160        8.1529937217
  H         1.2694426285       10.1235075627        8.7985219101
  H         1.1285113826        0.9472091829        9.4530117864
  H         1.2047015357        0.7212166294        7.7008781499
  C        -3.9051596350        7.9475393610       16.2189910992
  C        -6.2223212812       10.6015568576       18.2757782264
  C        -3.8460176640        2.2439276065       16.6911742127
  C        -3.3056783320       10.8683874533       13.7119620151
  C       -13.7411034006        7.7744077081       31.3168772853
  C       -11.3835899309       10.3193853652       29.5995451550
  C       -13.6474820494        1.9942328855       31.3291364396
  C         1.2513967513       10.7097559996        2.1963543278
  C       -10.7159880912       10.3928150592       28.2741192020
  C        -9.3933516530        0.1209275689       28.0807574278
  C        -8.8779219089        0.2819007343       26.7943096960
  C        -9.6261682013       -0.1026542827       25.6711800525
  C       -10.9426011159       10.1468499407       25.8732249428
  C       -11.4672559849        9.9955375411       27.1503000670
  C        -9.1407510142        0.1368693679       24.2783011457
  C        -8.4026013528       10.0304427034       23.6267699368
  C        -6.6137666169        0.0010661382       22.0033466515
  C        -7.9285005318       10.2549678639       22.2273080540
  C        -8.6851801413        9.8564203755       21.1132878466
  C        -8.1830350632        9.9979171753       19.8174081595
  C        -6.8979546635       10.5188379967       19.6015334576
  C        -6.1033720399        0.1379060499       20.7189111260
  C         0.7036693908        0.0255812586        3.5584820468
  C         1.1190158703       10.0087935436        4.6103071029
  C         0.4418460908       10.0301987049        5.8271891271
  C        -0.6127661892        0.1058957842        6.0544402233
  C        -1.0219606485        0.9351725713        4.9889285456
  C        -0.3918256806        0.8780723566        3.7547090641
  C        -1.3314737227        0.1310804156        7.3531412593
  C        -0.6794107635        0.1771952419        8.5468982955
  C        -0.9565135714        0.9859089769       10.9120417840
  C        -1.3834971620        0.1558186870        9.8533617253
  C        -2.4994336841       10.0818043778       10.1088453762
  C        -3.1831764728       10.0940161959       11.3199473067
  C        -2.6837866260        0.1296940838       12.3518486997
  C        -1.5708636729        0.9422792510       12.1513239150
  C        -3.9199761848        6.4802322250       16.5911772283
  C        -4.9756535561        5.8390184212       17.3175528179
  C        -2.8409239790        5.7789414501       16.0665012477
  C        -6.0322769771        6.5305517929       17.9857508265
  C        -6.9998891245        5.8202385316       18.6488428076
  C        -3.8471572223        3.7176180220       16.7786595606
  C        -2.7967232891        4.3896052520       16.1907580078
  C        -4.9551067284        4.4040874372       17.3617183403
  C        -6.0022921152        3.7152673063       18.0363307504
  C        -6.9931856205        4.4166684362       18.6760621002
  C       -13.7221181556        6.2849230086       31.2127935607
  C       -12.6204671330        5.6145205063       30.5923986734
  C       -14.7502281449        5.5687576124       31.7991362612
  C       -11.5915606182        6.3167703234       29.9096748111
  C       -10.6047180764        5.6282396101       29.2494308102
  C       -13.6574019609        3.4806479462       31.2424954152
  C       -14.7211429062        4.1620545583       31.8090624012
  C       -12.5799737033        4.1782973710       30.6177723183
  C       -11.5088152680        3.5036742576       29.9619949141
  C       -10.5682827558        4.2207453550       29.2622134575
  C        -9.6239083611        1.4332534973       23.6809499457
  C        -7.9101809326        8.7409788445       24.2319982231
  C        -2.8179946053        0.1709160134        7.2518265983
  C         0.8053450075        0.3017437769        8.6243506078
  O        -2.8859598664        8.6281702461       16.7609928107
  O        -5.2059220695        8.6261587277       16.4874823096
  O        -6.9065042967       10.5404856310       17.1251849955
  O        -4.9517587357       -0.0662203227       18.2319254957
  O        -4.8855170046        1.7919275146       16.1232887846
  O        -2.8294465436        1.5907391653       17.0989940788
  O        -2.4503481723       -0.0431071571       14.6762242173
  O        -4.5711415302       10.9234669308       13.8136801165
  O       -14.7971950786        8.3786793574       30.9239963013
  O       -12.7000351203        8.3033433306       31.8136709649
  O       -10.7037717237       10.3300888184       30.7370222819
  O       -12.6297672651       10.2564879773       29.6628443667
  O       -12.6331765533        1.4599269330       31.8752675835
  O       -14.6726655628        1.3926637604       30.8630851000
  O         0.4123384326        0.0012863447        1.2571509878
  O         2.5046273445       10.5422326245        2.0510723740
  F        -8.0422517892        6.4606763514       19.2317485512
  F        -8.0063190819        3.7759137432       19.2981139793
  F        -9.6368663930        6.3047054729       28.5896331887
  F        -9.5346970052        3.6104593571       28.6366851752
  O        -5.6129899379        8.6757472627       15.0302103583
  C        -4.2865731453        8.0463384632       14.6867840168
  O        -3.8986573463        7.7480966573       13.6173051338
     123
 i =      122, E =      -996.1671354890
 Zn        -2.5396736167       10.4849962777       16.6775479020
 Zn        -5.4160194104       10.7617977922       15.6442106897
 Zn       -15.1494849240       10.2828600428       31.2324466339
 Zn         3.1852555923       10.5964874167        0.1068652335
  H        -8.7959059479        0.4832064725       28.9149962165
  H        -7.8948176549        0.7455120055       26.6673441058
  H       -11.5302089478        9.8471272476       25.0058697058
  H       -12.4543198040        9.5658550728       27.2967825039
  H        -6.0190738248        0.3083968730       22.8556411403
  H        -9.6688616932        9.3907320967       21.2551176641
  H        -8.7910023440        9.6135753930       18.9882685037
  H        -5.1222483907        0.5638399381       20.5566111639
  H         1.9620851986        9.3388959823        4.4511043181
  H         0.7468641425        9.3513208438        6.6191068992
  H        -1.8515115394        1.6316078038        5.1171812155
  H        -0.7469613548        1.4850408576        2.9202234887
  H        -0.0902494616        1.6610269621       10.7723889453
  H        -2.8146391385        9.3721222363        9.3589230296
  H        -4.0116294136        9.4440985150       11.5005353794
  H        -1.2015177692        1.5785255933       12.9721957469
  H        -6.0924344680        7.5952924228       18.0059461961
  H        -6.0142434011        2.6187934189       18.0990161115
  H        -1.9592865619        3.8085345235       15.8035552855
  H        -2.1042028697        6.2916510065       15.4688799160
  H       -11.5771430426        7.4050837461       29.8851553195
  H       -11.4247479471        2.4216603202       29.9885290682
  H         0.0465259621        3.9254667774        0.3470883204
  H        -0.0069208458        6.4260358127        0.3295784115
  H        -9.3151466401        1.5554403112       22.6326283831
  H        -9.2340019631        2.2912426053       24.2573365668
  H       -10.7172904307        1.5048617879       23.7370897877
  H        -6.8201958403        8.6704546542       24.1628872555
  H        -8.3052340802        7.8710015699       23.6705225640
  H        -8.2076839137        8.6279613396       25.2829134037
  H        -3.2883549247        9.9577298070        7.1430056757
  H         3.2201657427        0.7491657593        6.3865214130
  H        -3.2475923746        0.6223290362        8.1546323492
  H         1.2766755448       10.1125962309        8.7539881533
  H         1.1478258571        0.9254404733        9.4498589198
  H         1.1982269922        0.7315872471        7.6873330959
  C        -3.9168201323        7.9446625532       16.2226413454
  C        -6.2204956219       10.6010817905       18.2672841009
  C        -3.8431630550        2.2358631272       16.6895336704
  C        -3.2976084999       10.8655944185       13.7152860434
  C       -13.7397238227        7.7730814142       31.3137854209
  C       -11.3822178086       10.3171341483       29.5982281291
  C       -13.6480239184        1.9943843213       31.3309631618
  C         1.2527175942       10.7096887219        2.1950373014
  C       -10.7132596515       10.3927780096       28.2734386357
  C        -9.3946009214        0.1310029539       28.0787109614
  C        -8.8788781832        0.2917211888       26.7922060240
  C        -9.6241911774       -0.0982371783       25.6688800604
  C       -10.9357124765       10.1395953229       25.8722834969
  C       -11.4610549302        9.9887416735       27.1493916107
  C        -9.1398319542        0.1366460274       24.2746605539
  C        -8.4055920635       10.0270449247       23.6224697000
  C        -6.6245139050        0.0076588608       21.9990409004
  C        -7.9340407770       10.2487279901       22.2212586159
  C        -8.6867752801        9.8430466781       21.1073710250
  C        -8.1820110870        9.9855093930       19.8116726165
  C        -6.9031981802       10.5228459640       19.5925098243
  C        -6.1154836823        0.1456131030       20.7139544161
  C         0.7030634946        0.0259810447        3.5560979634
  C         1.1185118580       10.0113777877        4.6094277120
  C         0.4399780959       10.0315907174        5.8255597548
  C        -0.6168883071        0.1048191679        6.0531689189
  C        -1.0289287266        0.9298255430        4.9846505402
  C        -0.3965079394        0.8734178227        3.7512033522
  C        -1.3303107802        0.1359170944        7.3564923877
  C        -0.6721310003        0.1742350911        8.5482250714
  C        -0.9346655506        0.9913866299       10.9130690438
  C        -1.3731311259        0.1601734207        9.8574023720
  C        -2.5006937586       10.0972939525       10.1116453490
  C        -3.1724697816       10.1165639711       11.3280798888
  C        -2.6738687188        0.1527014620       12.3599081420
  C        -1.5605164144        0.9621071094       12.1495638494
  C        -3.9277950044        6.4782757347       16.5927100046
  C        -4.9739617797        5.8306593221       17.3241406405
  C        -2.8613042423        5.7675095530       16.0516748161
  C        -6.0283846465        6.5154882206       17.9997062447
  C        -7.0123183298        5.8171462257       18.6498524354
  C        -3.8383939974        3.7081030560       16.8163138992
  C        -2.7996246104        4.3783747870       16.2010487115
  C        -4.9571900273        4.3948540463       17.3783827037
  C        -5.9998064810        3.7051982393       18.0567781461
  C        -6.9962642177        4.4128694967       18.6805999764
  C       -13.7243443622        6.2825147263       31.2169835661
  C       -12.6223728435        5.6134512810       30.5966124367
  C       -14.7498622265        5.5663837839       31.8070532085
  C       -11.5982386380        6.3194186853       29.9106759154
  C       -10.6166350586        5.6290043016       29.2460764731
  C       -13.6536877258        3.4806506508       31.2474609569
  C       -14.7175077953        4.1599095151       31.8163776502
  C       -12.5787478129        4.1774642175       30.6167799608
  C       -11.5091101085        3.5046918503       29.9564476844
  C       -10.5658989197        4.2229626525       29.2630999299
  C        -9.6187263120        1.4357609496       23.6795905896
  C        -7.9183602286        8.7367400944       24.2306464176
  C        -2.8166305707        0.1770970658        7.2599287686
  C         0.8131312819        0.2983991921        8.6112142190
  O        -2.8669406205        8.6126861663       16.7561597409
  O        -5.1973249550        8.6399641204       16.5252924420
  O        -6.9027169464       10.5491578933       17.1165014327
  O        -4.9503472431       -0.0486460784       18.2359374020
  O        -4.8877992629        1.7824367643       16.1304424099
  O        -2.8301650584        1.5846754941       17.1032786738
  O        -2.4433973082       -0.0286962602       14.6763434828
  O        -4.5736861451       10.9134905372       13.8250156794
  O       -14.7973132449        8.3779096938       30.9263360284
  O       -12.7006947157        8.3031850594       31.8138823860
  O       -10.7017885601       10.3297824642       30.7353955169
  O       -12.6289095952       10.2568102790       29.6622800047
  O       -12.6327898484        1.4595301887       31.8746020873
  O       -14.6717115821        1.3927378855       30.8617073696
  O         0.4121228036       -0.0038724468        1.2564692527
  O         2.5056982867       10.5436058302        2.0506682884
  F        -8.0511971061        6.4673688146       19.2291800261
  F        -8.0064761419        3.7566814117       19.2876175429
  F        -9.6315761800        6.2924780687       28.6001980035
  F        -9.5523116248        3.6063235428       28.6121898379
  O        -5.6128450798        8.6230716792       15.0534656009
  C        -4.3346602566        8.0406034085       14.7303089531
  O        -3.9759536702        7.7306530537       13.6469572980
     123
 i =      123, E =      -996.1677297106
 Zn        -2.5353996486       10.4793115881       16.6805418329
 Zn        -5.4007198010       10.7506976913       15.6500235538
 Zn       -15.1477983354       10.2834399806       31.2324233377
 Zn         3.1893454023       10.5956923644        0.1065082985
  H        -8.8014273951        0.5032782524       28.9118169556
  H        -7.9001470022        0.7655626831       26.6637819123
  H       -11.5186969635        9.8296076983       25.0046290764
  H       -12.4442813739        9.5500544585       27.2953837022
  H        -6.0325522192        0.3202952621       22.8471388598
  H        -9.6627550618        9.3613284454       21.2453921230
  H        -8.7879683001        9.5849180029       18.9825073270
  H        -5.1381996539        0.5832960739       20.5505178937
  H         1.9609078031        9.3422363978        4.4516357308
  H         0.7489219648        9.3520505722        6.6181765235
  H        -1.8641157259        1.6215619179        5.1113891947
  H        -0.7594604734        1.4731723889        2.9159508606
  H        -0.0629465813        1.6579501784       10.7720889958
  H        -2.8100052033        9.3896817479        9.3606632132
  H        -4.0126996458        9.4821939636       11.5123429522
  H        -1.1827749471        1.6013869229       12.9697851592
  H        -6.0890606275        7.5788254712       18.0105752378
  H        -6.0119566606        2.6159100180       18.1401188768
  H        -1.9615514473        3.8091113338       15.8023601833
  H        -2.1448746368        6.2799021973       15.4465668110
  H       -11.5827495553        7.4066124296       29.8827036717
  H       -11.4258462931        2.4230658982       29.9862581490
  H         0.0550683417        3.9246520698        0.3602082670
  H        -0.0035105742        6.4250483438        0.3454838545
  H        -9.3037115645        1.5584667584       22.6312633434
  H        -9.2290955934        2.2921304655       24.2576876460
  H       -10.7117103138        1.5083404985       23.7289219151
  H        -6.8285955296        8.6667014397       24.1675812152
  H        -8.3123095895        7.8649417938       23.6671835372
  H        -8.2230957780        8.6263901282       25.2793122884
  H        -3.2949200945        9.9656414305        7.1850107523
  H         3.2166298518        0.7328167811        6.3829988024
  H        -3.2422064935        0.6567996110        8.1574592384
  H         1.2823945479       10.1000590676        8.7054219456
  H         1.1669418244        0.8988536288        9.4491521303
  H         1.1926928094        0.7461701424        7.6758996200
  C        -3.9141146231        7.9534665822       16.2624142734
  C        -6.2214016095       10.6150034209       18.2585685620
  C        -3.8538041233        2.2272316226       16.7068222318
  C        -3.2986952639       10.8748527748       13.7229368177
  C       -13.7427335756        7.7721743929       31.3183704598
  C       -11.3817380359       10.3179889296       29.5976104666
  C       -13.6458018689        1.9958587555       31.3307087906
  C         1.2533548287       10.7063309913        2.1956358137
  C       -10.7109575424       10.3939907696       28.2728588167
  C        -9.3963606264        0.1425719921       28.0761145363
  C        -8.8808170207        0.3046753174       26.7892975629
  C        -9.6209219259       -0.0979003698       25.6663907755
  C       -10.9289112031       10.1324209240       25.8711124120
  C       -11.4541405768        9.9806386721       27.1485893599
  C        -9.1380132531        0.1374216403       24.2714272093
  C        -8.4116816601       10.0218544559       23.6168721240
  C        -6.6368070292        0.0157150221       21.9912986117
  C        -7.9402743125       10.2445293851       22.2146074907
  C        -8.6870125305        9.8280679698       21.1006668652
  C        -8.1830617906        9.9700314144       19.8033674066
  C        -6.9083813093       10.5180618589       19.5849282607
  C        -6.1278691383        0.1559640127       20.7061826972
  C         0.7024367277        0.0274044663        3.5559648113
  C         1.1166134605       10.0138811780        4.6108197475
  C         0.4376576475       10.0318351080        5.8265015040
  C        -0.6198904480        0.1046498017        6.0526970665
  C        -1.0379443214        0.9235619699        4.9816216347
  C        -0.4034672084        0.8672227038        3.7487719268
  C        -1.3299891754        0.1345928467        7.3590543212
  C        -0.6626102676        0.1726526866        8.5470715364
  C        -0.9152605697        0.9949032495       10.9149312386
  C        -1.3550791458        0.1613073726        9.8604903641
  C        -2.4993568329       10.1142536705       10.1129155291
  C        -3.1603570488       10.1381303989       11.3345406737
  C        -2.6722478862        0.1757456668       12.3701681850
  C        -1.5467427745        0.9761092520       12.1532105592
  C        -3.9399315916        6.4874230568       16.6030385549
  C        -4.9736945442        5.8248664391       17.3358992772
  C        -2.8933361301        5.7646336694       16.0391840065
  C        -6.0311927551        6.4982169766       18.0139740995
  C        -7.0272259724        5.8095692978       18.6553177636
  C        -3.8280494514        3.7021427598       16.8409496591
  C        -2.7968194339        4.3745836731       16.2113880203
  C        -4.9454593868        4.3868188384       17.4057689217
  C        -5.9953121690        3.7028472165       18.0786348065
  C        -7.0107738956        4.4038301744       18.6822508473
  C       -13.7232056045        6.2815098933       31.2248071589
  C       -12.6229132396        5.6152542773       30.5997439091
  C       -14.7490548611        5.5679832827       31.8156595334
  C       -11.6039682156        6.3205640333       29.9064418731
  C       -10.6181343879        5.6332166773       29.2479471696
  C       -13.6525747526        3.4827483971       31.2508749564
  C       -14.7133493514        4.1617202848       31.8258617416
  C       -12.5771887768        4.1790850422       30.6194383490
  C       -11.5109981509        3.5063585115       29.9527646516
  C       -10.5756789335        4.2274653081       29.2521178663
  C        -9.6128374966        1.4383645187       23.6765913650
  C        -7.9274539803        8.7310157479       24.2279583158
  C        -2.8164041043        0.1859335365        7.2715349912
  C         0.8229416725        0.2947234029        8.5978127250
  O        -2.8177691530        8.5869661518       16.7527444370
  O        -5.1759843265        8.6546331763       16.5701707958
  O        -6.8978511109       10.5539881052       17.1073579396
  O        -4.9524514679       -0.0342266891       18.2314504040
  O        -4.8870323987        1.7775083309       16.1157886659
  O        -2.8322576889        1.5812415041       17.1016756357
  O        -2.4322167628        0.0023538208       14.6770406082
  O        -4.5840841917       10.8763428193       13.8454538018
  O       -14.7980727599        8.3777892823       30.9254999608
  O       -12.6998798676        8.3034645203       31.8098215580
  O       -10.7011836383       10.3284880999       30.7354364775
  O       -12.6287062746       10.2561597793       29.6615431052
  O       -12.6320010102        1.4588898875       31.8754132886
  O       -14.6703676235        1.3948669400       30.8627992931
  O         0.4121833625       -0.0122136677        1.2567371340
  O         2.5060327954       10.5445409275        2.0516618578
  F        -8.0726245624        6.4653290556       19.2202966072
  F        -8.0160369242        3.7622863189       19.3101357677
  F        -9.6438835030        6.3008733353       28.5933991501
  F        -9.5892150554        3.6023681252       28.5656766823
  O        -5.6250063548        8.5438915811       15.0666827498
  C        -4.3823564043        8.0263894503       14.7554329401
  O        -4.0794727059        7.7250554830       13.6421534963
     123
 i =      124, E =      -996.1707094850
 Zn        -2.5292849637       10.4921673897       16.6699171887
 Zn        -5.4145996746       10.7501135269       15.6657425988
 Zn       -15.1483651679       10.2838286653       31.2322892440
 Zn         3.1872929365       10.5962587244        0.1105080142
  H        -8.8005978346        0.5017910513       28.9116843466
  H        -7.8995668629        0.7609866870       26.6636948318
  H       -11.5205187140        9.8299419352       25.0056535807
  H       -12.4462320196        9.5526226196       27.2959109556
  H        -6.0306897182        0.3222261845       22.8454252460
  H        -9.6629682381        9.3681784475       21.2427387843
  H        -8.7876493999        9.5888454959       18.9801172245
  H        -5.1356755485        0.5830591466       20.5485769883
  H         1.9612429180        9.3430058394        4.4528101074
  H         0.7492390414        9.3505465057        6.6200906195
  H        -1.8633576247        1.6213973292        5.1175204668
  H        -0.7602426064        1.4769082366        2.9202178883
  H        -0.0759423712        1.6612445306       10.7688724817
  H        -2.8070084459        9.3999146353        9.3486842420
  H        -4.0175787379        9.4728562699       11.5098910399
  H        -1.1735079236        1.5994231391       12.9674300492
  H        -6.0983928260        7.5855265724       18.0135064594
  H        -6.0159603952        2.6233519474       18.1260734027
  H        -1.9637179599        3.8179327778       15.7910958764
  H        -2.1310865297        6.2888326676       15.4676104237
  H       -11.5791870314        7.4052187758       29.8850582353
  H       -11.4288448010        2.4232310301       29.9812311023
  H         0.0533856665        3.9242909678        0.3538367446
  H        -0.0047804549        6.4261574378        0.3423989087
  H        -9.3048033358        1.5577031970       22.6311300165
  H        -9.2292818261        2.2911676544       24.2573243394
  H       -10.7121067100        1.5084046689       23.7294383075
  H        -6.8275343300        8.6663724639       24.1661138749
  H        -8.3120228413        7.8653523827       23.6662964771
  H        -8.2221576806        8.6285064054       25.2783269461
  H        -3.2970803589        9.9673131834        7.1798227931
  H         3.2153449784        0.7330430169        6.3843635485
  H        -3.2426644116        0.6543166933        8.1574686248
  H         1.2787863876       10.1030847563        8.7158483185
  H         1.1618657914        0.9007157077        9.4513604594
  H         1.2006757175        0.7473373178        7.6824754358
  C        -3.9016551717        7.9567195160       16.2380876113
  C        -6.2230979427       10.6176613624       18.2612603590
  C        -3.8510519215        2.2312929510       16.6997170469
  C        -3.3116876550       10.8796679991       13.7248104853
  C       -13.7421290283        7.7731886069       31.3176424886
  C       -11.3827090471       10.3187809200       29.5984680847
  C       -13.6458917587        1.9965145545       31.3320187475
  C         1.2521365599       10.7041962250        2.1972729289
  C       -10.7122199755       10.3953234820       28.2730843333
  C        -9.3967916147        0.1418138804       28.0766104988
  C        -8.8810290276        0.3022922864       26.7895710719
  C        -9.6219588726       -0.0982155404       25.6666884200
  C       -10.9300846372       10.1326364203       25.8714917184
  C       -11.4559380763        9.9825424716       27.1489735280
  C        -9.1389326016        0.1364162259       24.2715351453
  C        -8.4107937130       10.0225503645       23.6169102070
  C        -6.6342881241        0.0149886990       21.9901411265
  C        -7.9381838257       10.2463766045       22.2147928720
  C        -8.6854617428        9.8299301447       21.1011285217
  C        -8.1824191056        9.9686527640       19.8033263421
  C        -6.9081187530       10.5163714657       19.5875152874
  C        -6.1238820681        0.1519647560       20.7055003226
  C         0.7008348258        0.0264090588        3.5578426766
  C         1.1155914983       10.0127174621        4.6125779314
  C         0.4383383427       10.0309337089        5.8287889426
  C        -0.6196960997        0.1031092460        6.0525860414
  C        -1.0371353766        0.9243176510        4.9840841721
  C        -0.4044283029        0.8673197273        3.7503388258
  C        -1.3306472786        0.1323854882        7.3569476575
  C        -0.6630734270        0.1721829005        8.5446156860
  C        -0.9191025873        0.9872751643       10.9162101107
  C        -1.3555828772        0.1607351152        9.8573106100
  C        -2.4916814636       10.1061571735       10.1143543143
  C        -3.1680533083       10.1322797547       11.3308319819
  C        -2.6806391829        0.1693415904       12.3680192279
  C        -1.5476873048        0.9708222447       12.1571086960
  C        -3.9337209878        6.4904228131       16.6050705909
  C        -4.9734311195        5.8354705714       17.3372570271
  C        -2.8896209849        5.7686606670       16.0446920135
  C        -6.0353135517        6.5059690673       18.0119198866
  C        -7.0236541366        5.8102543602       18.6563063385
  C        -3.8321276430        3.7072273522       16.8349351589
  C        -2.8024182538        4.3776465355       16.2013273397
  C        -4.9406639398        4.3971248662       17.4078992996
  C        -5.9910742811        3.7091899392       18.0768046793
  C        -7.0080777072        4.4048645271       18.6835351477
  C       -13.7224759092        6.2832372154       31.2251284548
  C       -12.6220399173        5.6178395160       30.5990258415
  C       -14.7477837507        5.5694194615       31.8167076862
  C       -11.5992839430        6.3189467795       29.9083520855
  C       -10.6160058595        5.6348128297       29.2424226037
  C       -13.6530126808        3.4838224076       31.2511771285
  C       -14.7144846689        4.1630865780       31.8238903542
  C       -12.5773846634        4.1810772596       30.6220351674
  C       -11.5136097604        3.5070502914       29.9529592069
  C       -10.5842066203        4.2285080769       29.2448420862
  C        -9.6134190321        1.4374248242       23.6764779413
  C        -7.9262481192        8.7310502145       24.2269189024
  C        -2.8176567390        0.1851465700        7.2712458238
  C         0.8225936407        0.2961255398        8.6001200432
  O        -2.8335629421        8.5930443885       16.7402052537
  O        -5.1916107271        8.6479533600       16.5611375145
  O        -6.9041086280       10.5525928728       17.1129531284
  O        -4.9548317499       -0.0406111121       18.2295432226
  O        -4.8828225884        1.7895700352       16.0943907641
  O        -2.8393182963        1.5820468555       17.1095361293
  O        -2.4350567620        0.0047884720       14.6771395576
  O        -4.5907537405       10.8666958924       13.8537902996
  O       -14.7984490185        8.3779320538       30.9260658578
  O       -12.6990943062        8.3044452851       31.8090292523
  O       -10.7025251878       10.3298184347       30.7371958906
  O       -12.6292667862       10.2567646101       29.6616160660
  O       -12.6312279615        1.4601657194       31.8760191259
  O       -14.6709825126        1.3962412525       30.8641620475
  O         0.4121613346       -0.0124180143        1.2577746836
  O         2.5047211908       10.5418040962        2.0522576191
  F        -8.0572153124        6.4705347557       19.2333756010
  F        -8.0166554316        3.7639998360       19.3091944463
  F        -9.6371304404        6.3044894788       28.5993268315
  F        -9.5946307228        3.6090847444       28.5582312336
  O        -5.6465732007        8.5468279182       15.0579080849
  C        -4.3472662361        8.0204772004       14.7485264148
  O        -4.0462274361        7.7168589262       13.6312931412
     123
 i =      125, E =      -996.1722140665
 Zn        -2.5223667468       10.5064609372       16.6537245324
 Zn        -5.4314726983       10.7452812097       15.6779627171
 Zn       -15.1496458503       10.2837549957       31.2323561767
 Zn         3.1830013307       10.5975504503        0.1130845764
  H        -8.8011821941        0.5045308898       28.9113213612
  H        -7.9002741218        0.7595949513       26.6629523433
  H       -11.5206476287        9.8264388589       25.0068357869
  H       -12.4465796717        9.5527475708       27.2968307013
  H        -6.0312278212        0.3288289353       22.8433654010
  H        -9.6636131800        9.3699578682       21.2399613244
  H        -8.7837474745        9.5875314874       18.9764922360
  H        -5.1367556246        0.5852214739       20.5441146999
  H         1.9623059108        9.3438607227        4.4548354045
  H         0.7483559489        9.3501590855        6.6216220011
  H        -1.8639346699        1.6180423446        5.1229559383
  H        -0.7629380475        1.4783161848        2.9236932106
  H        -0.0863369974        1.6647270810       10.7709166259
  H        -2.8062614866        9.4085444727        9.3405146390
  H        -4.0215565729        9.4650837803       11.5048273100
  H        -1.1671580717        1.5950542302       12.9660361304
  H        -6.1110143415        7.5963013778       18.0199188380
  H        -6.0147133020        2.6271194334       18.1166958287
  H        -1.9706372259        3.8291551490       15.7768259705
  H        -2.1208741136        6.3035274766       15.4814435334
  H       -11.5762498712        7.4082701670       29.8894433039
  H       -11.4343166659        2.4256873399       29.9730546056
  H         0.0503936230        3.9240345379        0.3496408770
  H        -0.0041319336        6.4272405415        0.3413082781
  H        -9.3036460087        1.5573380575       22.6307540922
  H        -9.2283498049        2.2900575766       24.2568251203
  H       -10.7110991372        1.5091070338       23.7282778295
  H        -6.8288797785        8.6645767753       24.1647653730
  H        -8.3127422899        7.8650677587       23.6648271806
  H        -8.2241933072        8.6297266349       25.2755182742
  H        -3.3020804109        9.9700473163        7.1843435394
  H         3.2138938217        0.7308470396        6.3858948278
  H        -3.2395932430        0.6589084588        8.1569261426
  H         1.2777643321       10.1055082623        8.7183603263
  H         1.1604016208        0.8958314150        9.4532915486
  H         1.2088272146        0.7523083381        7.6894435404
  C        -3.8902962947        7.9541194700       16.2254190447
  C        -6.2266854874       10.6090726095       18.2635883648
  C        -3.8402536349        2.2385246064       16.6910612446
  C        -3.3183895962       10.8742334286       13.7276197911
  C       -13.7403550196        7.7749615821       31.3164464058
  C       -11.3836386885       10.3198832093       29.5985235554
  C       -13.6469776999        1.9977388021       31.3335893547
  C         1.2501129262       10.7042824147        2.1985412711
  C       -10.7128130208       10.3971950862       28.2728466081
  C        -9.3976372730        0.1441480710       28.0766082370
  C        -8.8816949779        0.3009765320       26.7890004027
  C        -9.6233786880       -0.0978745578       25.6662938824
  C       -10.9301503940       10.1301910060       25.8719065948
  C       -11.4567949767        9.9833672417       27.1494835876
  C        -9.1396705622        0.1352190982       24.2708303180
  C        -8.4105025635       10.0236462410       23.6149156176
  C        -6.6328118929        0.0135200409       21.9894501743
  C        -7.9373589813       10.2459493756       22.2123627458
  C        -8.6842559940        9.8259829123       21.0992585797
  C        -8.1810930639        9.9678939363       19.8021823020
  C        -6.9082384682       10.5174164951       19.5891719297
  C        -6.1235101380        0.1524762908       20.7049122257
  C         0.6964027819        0.0235338369        3.5589601510
  C         1.1156710461       10.0123710371        4.6138088724
  C         0.4385281850       10.0304451600        5.8297982349
  C        -0.6215476958        0.0993291198        6.0550884961
  C        -1.0373654519        0.9217888282        4.9875897156
  C        -0.4067631834        0.8670274034        3.7525654165
  C        -1.3305420296        0.1337393911        7.3592180071
  C        -0.6655847543        0.1722066461        8.5480038479
  C        -0.9192921681        0.9797032291       10.9191081940
  C        -1.3593792393        0.1589968099        9.8596456144
  C        -2.4902311758       10.1018807911       10.1167767390
  C        -3.1774835636       10.1309566006       11.3294711910
  C        -2.6876459921        0.1678618233       12.3658066936
  C        -1.5501841128        0.9694974344       12.1583414942
  C        -3.9266556050        6.4860228925       16.6060091867
  C        -4.9708935551        5.8453297133       17.3463277434
  C        -2.8765759882        5.7699264791       16.0610508380
  C        -6.0402755249        6.5181440675       18.0066771334
  C        -7.0155166061        5.8148243518       18.6601283966
  C        -3.8456223589        3.7144530127       16.8234159243
  C        -2.8144011844        4.3801139355       16.1904908146
  C        -4.9431917536        4.4076919178       17.4101111124
  C        -5.9884250813        3.7120791499       18.0783303238
  C        -6.9986568897        4.4109333137       18.6898921510
  C       -13.7221171509        6.2857112397       31.2242193939
  C       -12.6203715542        5.6204452173       30.5994805141
  C       -14.7451276518        5.5700286307       31.8191060773
  C       -11.5953373274        6.3216445074       29.9125280923
  C       -10.6194475233        5.6340439935       29.2370528243
  C       -13.6520214515        3.4856171679       31.2546267643
  C       -14.7163339239        4.1634947197       31.8231142009
  C       -12.5778317772        4.1830363535       30.6239761798
  C       -11.5181350502        3.5097385823       29.9480873804
  C       -10.5910935056        4.2265568576       29.2327184112
  C        -9.6126117092        1.4365974295       23.6758436084
  C        -7.9273543586        8.7314814905       24.2245256851
  C        -2.8178976240        0.1850430685        7.2722951338
  C         0.8211677927        0.2955556963        8.6002030123
  O        -2.8611781367        8.6103586192       16.7384691461
  O        -5.1939367405        8.6384406158       16.5410636622
  O        -6.9109628344       10.5499912112       17.1166136571
  O        -4.9586112322       -0.0374891293       18.2294191578
  O        -4.8695074777        1.8000629281       16.0792193080
  O        -2.8439528671        1.5780406306       17.1194679871
  O        -2.4369316333        0.0165080246       14.6794689064
  O        -4.5908723474       10.8317151875       13.8538873221
  O       -14.7983138515        8.3780665451       30.9271652134
  O       -12.6989168069        8.3062057550       31.8112320270
  O       -10.7039306904       10.3316392767       30.7379920063
  O       -12.6296587106       10.2578938292       29.6610179297
  O       -12.6315529947        1.4617470477       31.8763688090
  O       -14.6717706429        1.3967783558       30.8652768761
  O         0.4117039704       -0.0068471039        1.2586456577
  O         2.5030024392       10.5401362901        2.0527832587
  F        -8.0502141988        6.4751507185       19.2320003753
  F        -8.0121960246        3.7663918399       19.3032650719
  F        -9.6399887979        6.3065989795       28.6004977117
  F        -9.6181235832        3.6053052154       28.5209247387
  O        -5.6171831553        8.5493280484       15.0583771875
  C        -4.3564837998        8.0106402850       14.7190721779
  O        -4.0101174483        7.7404996008       13.6071215491
     123
 i =      126, E =      -996.1737126552
 Zn        -2.5266517511       10.4995533716       16.6538694743
 Zn        -5.4372057080       10.7437181058       15.6734416649
 Zn       -15.1495693399       10.2839712271       31.2316585810
 Zn         3.1830284704       10.5970254824        0.1126781947
  H        -8.8039334923        0.5117620176       28.9102302397
  H        -7.9025790938        0.7668352389       26.6619188853
  H       -11.5170349553        9.8196687895       25.0066254622
  H       -12.4429910877        9.5470466950       27.2967677824
  H        -6.0368791091        0.3349038573       22.8417178983
  H        -9.6625687755        9.3591688097       21.2386641751
  H        -8.7799588852        9.5782730676       18.9738495160
  H        -5.1427301761        0.5915780949       20.5417358541
  H         1.9630817420        9.3455384947        4.4556628755
  H         0.7481693877        9.3514770375        6.6217118516
  H        -1.8676923308        1.6141545403        5.1211803245
  H        -0.7662881365        1.4743811877        2.9223635787
  H        -0.0759953817        1.6634024545       10.7730149978
  H        -2.8090413025        9.4111375746        9.3451699521
  H        -4.0203456300        9.4723916281       11.5081758664
  H        -1.1634785082        1.5967139651       12.9655584704
  H        -6.1146012701        7.5955816756       18.0227691125
  H        -6.0084792286        2.6262058808       18.1239907227
  H        -1.9762446563        3.8226384559       15.7744431656
  H        -2.1210308772        6.3004372324       15.4738552716
  H       -11.5749591723        7.4096059768       29.8915334842
  H       -11.4380416983        2.4252072901       29.9689596430
  H         0.0514798694        3.9247779087        0.3536704242
  H        -0.0018086482        6.4277769447        0.3465783814
  H        -9.2994690542        1.5585536362       22.6299656834
  H        -9.2263757361        2.2902377499       24.2571633589
  H       -10.7092563800        1.5104786613       23.7253681419
  H        -6.8320926187        8.6625308591       24.1654398782
  H        -8.3152384148        7.8636206680       23.6629514403
  H        -8.2296946806        8.6279252133       25.2735979036
  H        -3.3055157911        9.9713699231        7.2015335833
  H         3.2130193880        0.7263627320        6.3837602544
  H        -3.2354531287        0.6720195822        8.1581280154
  H         1.2822910873       10.1009166612        8.7008842703
  H         1.1682414630        0.8863264246        9.4552858181
  H         1.2075231285        0.7576767985        7.6876562952
  C        -3.8957682857        7.9526387804       16.2203703245
  C        -6.2282091136       10.6180673627       18.2629827107
  C        -3.8458074215        2.2354998384       16.7010217721
  C        -3.3152755251       10.8809170485       13.7292541536
  C       -13.7423572820        7.7743579183       31.3206234179
  C       -11.3834993646       10.3219404085       29.5979265861
  C       -13.6465743398        1.9978386691       31.3341887009
  C         1.2492460602       10.7060762723        2.1975651342
  C       -10.7122353556       10.3980310900       28.2724252211
  C        -9.3982711387        0.1475548857       28.0754721570
  C        -8.8834847252        0.3070000429       26.7875443213
  C        -9.6217945133       -0.1000189422       25.6649519548
  C       -10.9285232576       10.1285434661       25.8713858352
  C       -11.4540432693        9.9795492402       27.1492588814
  C        -9.1385279015        0.1363400173       24.2695720144
  C        -8.4133430826       10.0217158780       23.6128594751
  C        -6.6367341308        0.0156824069       21.9879134166
  C        -7.9396126663       10.2428454931       22.2103587170
  C        -8.6847081795        9.8193169569       21.0970043995
  C        -8.1815297200        9.9640730588       19.8003459058
  C        -6.9083843212       10.5118932554       19.5874074370
  C        -6.1289888896        0.1584810118       20.7031215907
  C         0.6955831173        0.0225972257        3.5581875572
  C         1.1149477616       10.0124085442        4.6136522761
  C         0.4366799515       10.0301842941        5.8291258296
  C        -0.6227196265        0.0996591572        6.0567063181
  C        -1.0411672831        0.9176891525        4.9863743216
  C        -0.4096060776        0.8637498131        3.7516722312
  C        -1.3316081815        0.1335540282        7.3612109441
  C        -0.6633483778        0.1722618689        8.5486919109
  C        -0.9146879436        0.9851168404       10.9208595298
  C        -1.3546080395        0.1615219008        9.8631888131
  C        -2.4918268506       10.1113797763       10.1156580186
  C        -3.1773097139       10.1390832819       11.3294003102
  C        -2.6809695063        0.1700113555       12.3675105156
  C        -1.5498648797        0.9756757699       12.1568004419
  C        -3.9287284455        6.4840595450       16.6093247028
  C        -4.9711782547        5.8393735259       17.3474156803
  C        -2.8804035261        5.7728965138       16.0530528713
  C        -6.0342068667        6.5178750448       18.0147537174
  C        -7.0164740937        5.8186037018       18.6622533518
  C        -3.8376256670        3.7123859137       16.8272370978
  C        -2.8105456056        4.3829781273       16.1955118495
  C        -4.9403768563        4.4012065947       17.4115818322
  C        -5.9854829897        3.7116877573       18.0859766631
  C        -6.9927865449        4.4157579194       18.6953656693
  C       -13.7215097442        6.2853444899       31.2252406377
  C       -12.6195672421        5.6189454872       30.6019935994
  C       -14.7452127637        5.5701054069       31.8199737154
  C       -11.5981546654        6.3230739908       29.9115596795
  C       -10.6225070965        5.6340546383       29.2364299634
  C       -13.6514439420        3.4855163357       31.2554849438
  C       -14.7137729425        4.1635647563       31.8281934030
  C       -12.5770123582        4.1816058528       30.6236847843
  C       -11.5203697421        3.5090850257       29.9425029307
  C       -10.5964829681        4.2262746191       29.2233503418
  C        -9.6106560422        1.4379179657       23.6745151096
  C        -7.9306682360        8.7300168908       24.2233461263
  C        -2.8190242897        0.1880337637        7.2754726644
  C         0.8240353532        0.2939412607        8.5978699353
  O        -2.8640231577        8.6059079980       16.7327672548
  O        -5.1990903738        8.6373720250       16.5401259282
  O        -6.9118570760       10.5453730539       17.1139463837
  O        -4.9601017790       -0.0354493792       18.2270355069
  O        -4.8685519889        1.7948456770       16.0831236657
  O        -2.8463217840        1.5721347748       17.1205291505
  O        -2.4369022510        0.0222651400       14.6840071232
  O        -4.5863543701       10.8161912913       13.8513386321
  O       -14.7974595007        8.3785773656       30.9252870130
  O       -12.6990713688        8.3061337179       31.8105622968
  O       -10.7030499222       10.3303655343       30.7368238517
  O       -12.6292623916       10.2569441140       29.6607179226
  O       -12.6318170463        1.4607572032       31.8767971312
  O       -14.6710676214        1.3971527327       30.8648214262
  O         0.4107749023       -0.0069975318        1.2575964454
  O         2.5025564150       10.5413542262        2.0533561678
  F        -8.0632976842        6.4657058555       19.2286050454
  F        -8.0087516652        3.7697181155       19.3003060273
  F        -9.6433874429        6.3021430323       28.5946330799
  F        -9.6166132170        3.5996507209       28.5283858658
  O        -5.6389781889        8.5231963769       15.0564256508
  C        -4.3599337067        8.0049684240       14.7316466912
  O        -4.0017735781        7.7264886844       13.6282904799
     123
 i =      127, E =      -996.1744667105
 Zn        -2.5282633306       10.4964798071       16.6583889631
 Zn        -5.4245998470       10.7424144956       15.6770228081
 Zn       -15.1494589738       10.2845085410       31.2309623002
 Zn         3.1838888194       10.5962695874        0.1136581277
  H        -8.8079139930        0.5220854111       28.9079061833
  H        -7.9054308993        0.7749332775       26.6595730562
  H       -11.5131623129        9.8096716355       25.0068094056
  H       -12.4386187488        9.5408944523       27.2975927657
  H        -6.0447806015        0.3435287481       22.8394641687
  H        -9.6608657481        9.3458319254       21.2374391550
  H        -8.7749331283        9.5665733929       18.9703396800
  H        -5.1503756707        0.6009334570       20.5380904567
  H         1.9632200080        9.3476098517        4.4576756094
  H         0.7489953189        9.3514521297        6.6233776597
  H        -1.8736867258        1.6089767734        5.1214504489
  H        -0.7718941972        1.4685672042        2.9234754998
  H        -0.0655838061        1.6605572024       10.7785267955
  H        -2.8157973018        9.4108799866        9.3508355304
  H        -4.0196406050        9.4812758367       11.5091375165
  H        -1.1692804127        1.5937516820       12.9692638129
  H        -6.1170788214        7.5972114176       18.0226204520
  H        -6.0007558167        2.6282142678       18.1319622785
  H        -1.9837392171        3.8169723636       15.7614336628
  H        -2.1207239282        6.3006950648       15.4752403234
  H       -11.5707175867        7.4101355512       29.8977742729
  H       -11.4467561131        2.4245258924       29.9587781146
  H         0.0519172380        3.9271455891        0.3567607420
  H         0.0001312902        6.4295938218        0.3523332737
  H        -9.2938845833        1.5595899520       22.6291569696
  H        -9.2233266583        2.2902168296       24.2570744828
  H       -10.7063982855        1.5124127632       23.7210827696
  H        -6.8366068063        8.6598478791       24.1655039280
  H        -8.3195583653        7.8616570605       23.6594446692
  H        -8.2372027741        8.6254413812       25.2706097986
  H        -3.3109152957        9.9752495627        7.2261497347
  H         3.2125964121        0.7200499859        6.3823824383
  H        -3.2318624546        0.6903654322        8.1595146117
  H         1.2872729931       10.0952889402        8.6810663506
  H         1.1756624058        0.8736735571        9.4633596874
  H         1.2024598221        0.7653956717        7.6889712043
  C        -3.9058453078        7.9557704826       16.2454614884
  C        -6.2297869658       10.6154581569       18.2628136956
  C        -3.8496239416        2.2329451987       16.6992094478
  C        -3.3070923415       10.8699789740       13.7285673224
  C       -13.7426895410        7.7751714556       31.3219753530
  C       -11.3837662192       10.3224666539       29.5975383329
  C       -13.6451997672        1.9980982910       31.3332281610
  C         1.2477816503       10.7078435275        2.1974709003
  C       -10.7122532255       10.4000968873       28.2720541155
  C        -9.4002439031        0.1536443107       28.0734825785
  C        -8.8848800935        0.3117340326       26.7854888430
  C        -9.6212384254       -0.0999873754       25.6630848318
  C       -10.9257416800       10.1233627531       25.8706774490
  C       -11.4511406159        9.9765062618       27.1489834795
  C        -9.1381359119        0.1358340019       24.2669409511
  C        -8.4161413326       10.0185958260       23.6099505535
  C        -6.6430913565        0.0220034688       21.9855980580
  C        -7.9428145904       10.2394876298       22.2075965565
  C        -8.6855579964        9.8132924310       21.0933286562
  C        -8.1802504015        9.9551899706       19.7975993501
  C        -6.9105048986       10.5124704513       19.5843458523
  C        -6.1340837748        0.1624483058       20.7011302226
  C         0.6950098804        0.0228617113        3.5586963161
  C         1.1128159545       10.0119516504        4.6143248745
  C         0.4354990740       10.0292911444        5.8307287645
  C        -0.6248799534        0.0980498528        6.0592110088
  C        -1.0464338274        0.9132027328        4.9874604301
  C        -0.4147185407        0.8583617919        3.7528819741
  C        -1.3322795392        0.1320359424        7.3650738900
  C        -0.6595956620        0.1703197593        8.5507234773
  C        -0.9141917569        0.9933909300       10.9224828376
  C        -1.3535319581        0.1668856111        9.8653663968
  C        -2.4971812747       10.1233765245       10.1115681245
  C        -3.1759805517       10.1473345435       11.3274858375
  C        -2.6738109171        0.1710849502       12.3685637562
  C        -1.5490495377        0.9770752637       12.1559812972
  C        -3.9314695044        6.4882230806       16.6126720542
  C        -4.9686808704        5.8361570179       17.3506638879
  C        -2.8822167305        5.7775986943       16.0522653150
  C        -6.0265814715        6.5187744471       18.0252394138
  C        -7.0164278652        5.8199248470       18.6628267233
  C        -3.8262876330        3.7109737569       16.8312319582
  C        -2.8034105504        4.3868183852       16.1993645362
  C        -4.9367505879        4.3970895577       17.4104628648
  C        -5.9817064071        3.7149075649       18.0926088009
  C        -6.9912104182        4.4172670826       18.7006121400
  C       -13.7194085782        6.2857963490       31.2305806105
  C       -12.6182260224        5.6194234543       30.6056437189
  C       -14.7464501215        5.5712608249       31.8204713584
  C       -11.5987084781        6.3237704618       29.9103201618
  C       -10.6262866471        5.6357702430       29.2282091775
  C       -13.6504672591        3.4859334258       31.2565131573
  C       -14.7112960364        4.1647310182       31.8319463080
  C       -12.5780408835        4.1821356549       30.6204435274
  C       -11.5278924820        3.5082987745       29.9304113438
  C       -10.6011301761        4.2276216803       29.2173467571
  C        -9.6076438462        1.4388903154       23.6730816137
  C        -7.9353514679        8.7272889601       24.2213119243
  C        -2.8198420091        0.1925496444        7.2816425141
  C         0.8274345216        0.2922430846        8.5993001301
  O        -2.8608230952        8.6030774691       16.7333270736
  O        -5.2020556950        8.6345849319       16.5223763789
  O        -6.9100983556       10.5462801827       17.1094819783
  O        -4.9610154664       -0.0427582029       18.2244180346
  O        -4.8720934106        1.7874317093       16.0901124944
  O        -2.8515290114        1.5703042145       17.1278886029
  O        -2.4391949991        0.0361597952       14.6934387340
  O        -4.5796632566       10.7765366396       13.8399377853
  O       -14.7974504390        8.3789860680       30.9251267774
  O       -12.7001847702        8.3067872905       31.8131242552
  O       -10.7021955896       10.3297641887       30.7353353796
  O       -12.6295598808       10.2574004468       29.6603329361
  O       -12.6322055472        1.4593172019       31.8771960060
  O       -14.6700509872        1.3980139374       30.8638311270
  O         0.4101880923       -0.0075875698        1.2564641978
  O         2.5020370463       10.5451335707        2.0547635160
  F        -8.0516283540        6.4812114332       19.2325770784
  F        -8.0083369694        3.7710080199       19.3012038292
  F        -9.6387269445        6.3085546597       28.5999542838
  F        -9.5943068492        3.6060376248       28.5604651527
  O        -5.6506119782        8.4956024622       15.0437606829
  C        -4.3470641602        8.0058801334       14.7257525242
  O        -3.9855323461        7.7247542704       13.6283692998
     123
 i =      128, E =      -996.1768744774
 Zn        -2.5287771879       10.4942859215       16.6590004861
 Zn        -5.4219522798       10.7426504777       15.6842745617
 Zn       -15.1490453042       10.2845769679       31.2308593338
 Zn         3.1841032407       10.5968292549        0.1137218342
  H        -8.8131760120        0.5386374382       28.9049033094
  H        -7.9103170958        0.7892287803       26.6560699174
  H       -11.5059286990        9.7945147180       25.0065506720
  H       -12.4317905502        9.5294827993       27.2976843957
  H        -6.0582777560        0.3565553790       22.8340970320
  H        -9.6562529331        9.3252513613       21.2317321457
  H        -8.7691862222        9.5462859622       18.9644182785
  H        -5.1621545209        0.6172666321       20.5333581662
  H         1.9634003848        9.3505510144        4.4599852477
  H         0.7504143645        9.3510669017        6.6249405269
  H        -1.8842524006        1.6007590744        5.1202293594
  H        -0.7821280474        1.4603242467        2.9229454256
  H        -0.0530290832        1.6559682600       10.7831120974
  H        -2.8186416505        9.4245747069        9.3538876930
  H        -4.0213035944        9.4982625056       11.5121465148
  H        -1.1628319173        1.6012845926       12.9731293218
  H        -6.1144730441        7.5972671327       18.0257444434
  H        -5.9945901719        2.6306625481       18.1508127992
  H        -1.9888995182        3.8170738472       15.7512732671
  H        -2.1320156405        6.2993576918       15.4703811716
  H       -11.5679832218        7.4097986966       29.9035316088
  H       -11.4550843332        2.4255244557       29.9468291885
  H         0.0555057217        3.9277770111        0.3640981151
  H         0.0030471877        6.4301071903        0.3603842742
  H        -9.2850844155        1.5620597464       22.6279149449
  H        -9.2191593895        2.2902046374       24.2568797851
  H       -10.7013138589        1.5155699219       23.7145151963
  H        -6.8440447756        8.6559050799       24.1667160228
  H        -8.3258294833        7.8573010961       23.6545228874
  H        -8.2491124014        8.6223929159       25.2663179349
  H        -3.3183194961        9.9837688554        7.2617143784
  H         3.2110901580        0.7067471805        6.3817124356
  H        -3.2273849387        0.7192991951        8.1614912605
  H         1.2937487746       10.0883635084        8.6501148568
  H         1.1886936189        0.8503692151        9.4681171545
  H         1.2003038775        0.7793787177        7.6882474094
  C        -3.9062954736        7.9555852735       16.2370617071
  C        -6.2308166824       10.6105802062       18.2603680618
  C        -3.8489485684        2.2267051056       16.7019443844
  C        -3.3037551444       10.8602464000       13.7322420861
  C       -13.7413478407        7.7762875466       31.3221063085
  C       -11.3826014671       10.3223433021       29.5969353705
  C       -13.6448354541        1.9978844400       31.3345095722
  C         1.2468823269       10.7063179922        2.1988535842
  C       -10.7116520325       10.4023024734       28.2706993277
  C        -9.4029309302        0.1638692946       28.0713720352
  C        -8.8867187383        0.3194826608       26.7832212828
  C        -9.6207200455       -0.0977392016       25.6612698119
  C       -10.9207699415       10.1150488091       25.8696026009
  C       -11.4471689801        9.9714539299       27.1481160498
  C        -9.1382395351        0.1345436371       24.2638949578
  C        -8.4203297638       10.0145675328       23.6057431203
  C        -6.6521541969        0.0289345357       21.9793826247
  C        -7.9475815488       10.2374063739       22.2033706102
  C        -8.6842405864        9.8005256146       21.0885118085
  C        -8.1796095653        9.9412358122       19.7922001625
  C        -6.9162005813       10.5148898176       19.5788472394
  C        -6.1413533527        0.1672836941       20.6954670143
  C         0.6912996737        0.0214232872        3.5593012162
  C         1.1111117306       10.0125568453        4.6158181222
  C         0.4351290767       10.0286908991        5.8330128340
  C        -0.6284193650        0.0945067763        6.0582194215
  C        -1.0538207945        0.9085281545        4.9872101234
  C        -0.4221303256        0.8524462014        3.7526630087
  C        -1.3311050233        0.1301702070        7.3666410510
  C        -0.6542509870        0.1702078992        8.5503670939
  C        -0.9083479448        0.9956562547       10.9253950259
  C        -1.3507706159        0.1748027373        9.8639679786
  C        -2.4947966947       10.1335815503       10.1154197577
  C        -3.1742470652       10.1604755922       11.3304340665
  C        -2.6726696144        0.1832930797       12.3724698913
  C        -1.5401339839        0.9809322069       12.1613467097
  C        -3.9314046682        6.4899327189       16.6154730947
  C        -4.9641569510        5.8394648226       17.3595337868
  C        -2.8859668166        5.7732452144       16.0545733705
  C        -6.0274553135        6.5181462361       18.0297502452
  C        -7.0104631109        5.8152176340       18.6733840470
  C        -3.8264378500        3.7064717376       16.8375888245
  C        -2.8072767377        4.3816864131       16.1973074204
  C        -4.9278709152        4.3999036990       17.4273656440
  C        -5.9750612623        3.7173551878       18.1042209147
  C        -6.9954338263        4.4123021434       18.7038935680
  C       -13.7184070638        6.2867797186       31.2363104650
  C       -12.6200105843        5.6214862101       30.6056714712
  C       -14.7437828583        5.5719064741       31.8284712444
  C       -11.5997155907        6.3234490175       29.9088364104
  C       -10.6296389042        5.6365464545       29.2227832108
  C       -13.6499298588        3.4859014223       31.2592909284
  C       -14.7095839514        4.1654058154       31.8357603672
  C       -12.5824740191        4.1840911867       30.6166190159
  C       -11.5368115931        3.5093061422       29.9207699378
  C       -10.6047411259        4.2285450027       29.2155175446
  C        -9.6024276767        1.4399089582       23.6706428228
  C        -7.9432257080        8.7225106482       24.2179654132
  C        -2.8191489083        0.1993474020        7.2930036073
  C         0.8330127983        0.2878832157        8.5934500239
  O        -2.8613523761        8.5996160983       16.7346758354
  O        -5.2086025360        8.6362157979       16.5198723601
  O        -6.9104381989       10.5501598372       17.1055264820
  O        -4.9621355354       -0.0399039766       18.2256971293
  O        -4.8732198486        1.7881959937       16.0882569142
  O        -2.8569241727        1.5637785536       17.1446892591
  O        -2.4381531655        0.0689644311       14.6993606929
  O        -4.5788305604       10.7372380945       13.8450970736
  O       -14.7975599634        8.3784047998       30.9268054558
  O       -12.6997979061        8.3082588869       31.8150395734
  O       -10.7015899268       10.3307303252       30.7351538184
  O       -12.6284955078       10.2580817388       29.6597774954
  O       -12.6308854938        1.4594003271       31.8770549607
  O       -14.6698348177        1.3988427907       30.8639558394
  O         0.4107670477       -0.0091215389        1.2565854214
  O         2.5013085716       10.5451197843        2.0551536070
  F        -8.0528080186        6.4709605579       19.2358700505
  F        -8.0125310753        3.7666890051       19.3050017888
  F        -9.6377886998        6.3056033015       28.5969202000
  F        -9.6077570559        3.6125459929       28.5370348197
  O        -5.6583727955        8.4521852136       15.0447409878
  C        -4.3490350135        7.9994453045       14.7366299214
  O        -3.9936785106        7.7098331060       13.6334360803
     123
 i =      129, E =      -996.1784227152
 Zn        -2.5253337567       10.5085342397       16.6500751069
 Zn        -5.4292298787       10.7406873524       15.7112102091
 Zn       -15.1493619089       10.2844399264       31.2317624701
 Zn         3.1817862282       10.6004091675        0.1181131286
  H        -8.8269846339        0.5804554093       28.8968953442
  H        -7.9230908383        0.8196631006       26.6462234043
  H       -11.4890869584        9.7546155689       25.0074032469
  H       -12.4172948792        9.5036870141       27.2992084448
  H        -6.0911896812        0.3944300976       22.8205970634
  H        -9.6460668870        9.2784151595       21.2174965589
  H        -8.7519585603        9.4965894989       18.9502450888
  H        -5.1906915757        0.6554860976       20.5200870769
  H         1.9649850461        9.3573805419        4.4672414508
  H         0.7535580268        9.3501591301        6.6299279251
  H        -1.9079400423        1.5769581954        5.1241917185
  H        -0.8099436658        1.4418800400        2.9260730134
  H        -0.0373013827        1.6492998961       10.7971712115
  H        -2.8266083345        9.4605948637        9.3506957989
  H        -4.0296056659        9.5279652733       11.5094261869
  H        -1.1489359062        1.6051467920       12.9856560684
  H        -6.1123415684        7.6016154686       18.0334696422
  H        -5.9780434570        2.6361693717       18.1797185834
  H        -2.0055282800        3.8264913900       15.7083400502
  H        -2.1364093619        6.3089915044       15.4847748573
  H       -11.5542822397        7.4143634103       29.9252228493
  H       -11.4855475459        2.4307750692       29.9037128504
  H         0.0596952565        3.9306411169        0.3761612707
  H         0.0102605621        6.4329323889        0.3750591610
  H        -9.2631388388        1.5669682347       22.6240819582
  H        -9.2076005716        2.2882201723       24.2560468642
  H       -10.6888063337        1.5236541883       23.6979439213
  H        -6.8635812721        8.6441348661       24.1669978449
  H        -8.3419723378        7.8466355579       23.6404432878
  H        -8.2782905915        8.6141904633       25.2520991060
  H        -3.3398696721       10.0086532769        7.3500695410
  H         3.2068264016        0.6743005898        6.3839356914
  H        -3.2141463535        0.7912996737        8.1641118454
  H         1.3060364258       10.0783238632        8.5860934160
  H         1.2131424179        0.7902586431        9.4850869212
  H         1.2019390168        0.8161361141        7.7005046329
  C        -3.8903888068        7.9588871743       16.2005218812
  C        -6.2344516472       10.6046362197       18.2570291781
  C        -3.8534328945        2.2216136445       16.7166547961
  C        -3.3068715544       10.8431006711       13.7427565457
  C       -13.7387840864        7.7788174240       31.3294895268
  C       -11.3812850634       10.3264132242       29.5957669359
  C       -13.6455165575        1.9999684960       31.3377139359
  C         1.2428960506       10.7033712721        2.2039157270
  C       -10.7108104352       10.4096654179       28.2675395639
  C        -9.4096633311        0.1887793508       28.0656918332
  C        -8.8940540513        0.3392448007       26.7760267194
  C        -9.6202187570       -0.0984327323       25.6559944557
  C       -10.9117362607       10.0965241942       25.8682145681
  C       -11.4388572834        9.9586422907       27.1477300897
  C        -9.1388789224        0.1316315788       24.2568096919
  C        -8.4301258087       10.0076063411       23.5937568989
  C        -6.6725362125        0.0448069708       21.9653016103
  C        -7.9574770746       10.2310617202       22.1910318410
  C        -8.6810632336        9.7681171133       21.0763727985
  C        -8.1786801422        9.9137220420       19.7795312629
  C        -6.9240075964       10.5062058007       19.5686116767
  C        -6.1608958662        0.1856222445       20.6822029084
  C         0.6778487467        0.0143161093        3.5623323049
  C         1.1086848824       10.0141263467        4.6214805649
  C         0.4325470230       10.0253060640        5.8386049846
  C        -0.6381291795        0.0824819507        6.0613349659
  C        -1.0715161558        0.8919069515        4.9904992985
  C        -0.4406466673        0.8392431393        3.7552977041
  C        -1.3295916240        0.1271437933        7.3745234358
  C        -0.6476413077        0.1723388253        8.5554084494
  C        -0.8994726241        0.9959752816       10.9361182792
  C        -1.3464712745        0.1858598592        9.8670525176
  C        -2.4979467180       10.1563925720       10.1200694627
  C        -3.1736496278       10.1803300413       11.3355074932
  C        -2.6729078587        0.1936161268       12.3843778401
  C        -1.5289543374        0.9829652619       12.1758230022
  C        -3.9221138544        6.4983062924       16.6241115529
  C        -4.9498082260        5.8562373779       17.3795275937
  C        -2.8828008690        5.7704506426       16.0684730066
  C        -6.0279924471        6.5218265098       18.0413213405
  C        -7.0001247835        5.8151155336       18.6989479002
  C        -3.8332236980        3.7071905554       16.8401404344
  C        -2.8190979635        4.3756841621       16.1815853453
  C        -4.9092522161        4.4159168386       17.4636247928
  C        -5.9558577005        3.7223296684       18.1262079351
  C        -6.9865706055        4.4116252445       18.7164552370
  C       -13.7148187131        6.2903654833       31.2464527548
  C       -12.6243485758        5.6262137311       30.6017704575
  C       -14.7352123194        5.5746643452       31.8465658764
  C       -11.6013289911        6.3274907486       29.9083580457
  C       -10.6369432542        5.6361899698       29.2195505120
  C       -13.6519934034        3.4886416763       31.2597195964
  C       -14.7068653140        4.1681043928       31.8451182562
  C       -12.5937123461        4.1884080743       30.6026719234
  C       -11.5558092214        3.5153904900       29.8947118919
  C       -10.6133069000        4.2271396639       29.1961397627
  C        -9.5899307545        1.4417427351       23.6636478554
  C        -7.9635718308        8.7120112177       24.2060377962
  C        -2.8180978940        0.2154352653        7.3205831455
  C         0.8407479449        0.2773385445        8.5843452967
  O        -2.8844458241        8.6148497065       16.7513308005
  O        -5.2349866917        8.6261922314       16.4754637964
  O        -6.9187599378       10.5524531706       17.1024761375
  O        -4.9650312278       -0.0516660311       18.2265933898
  O        -4.8648526716        1.7950960537       16.0647913749
  O        -2.8868602503        1.5529675727       17.2104410596
  O        -2.4406158524        0.1760610932       14.7134623454
  O        -4.5764621743       10.5960144635       13.8563407800
  O       -14.7952765687        8.3775032722       30.9297903704
  O       -12.6970427604        8.3146690425       31.8186232209
  O       -10.7016526223       10.3321358908       30.7353772328
  O       -12.6269371494       10.2584999524       29.6588653552
  O       -12.6286890601        1.4624842845       31.8762865798
  O       -14.6696010105        1.4004515352       30.8655066410
  O         0.4104947312       -0.0096293906        1.2590036256
  O         2.4978863805       10.5424426317        2.0584945300
  F        -8.0723338723        6.4541324242       19.2302786342
  F        -8.0106430990        3.7611250655       19.3015044712
  F        -9.6432756597        6.2956984645       28.5904887144
  F        -9.6185569464        3.5933828860       28.5248720326
  O        -5.6501113078        8.3569689349       15.0347225154
  C        -4.3368520203        7.9703488562       14.7233444125
  O        -3.9561196931        7.7022694074       13.6171391867
     123
 i =      130, E =      -996.1809904384
 Zn        -2.5284410826       10.5134344665       16.6466764560
 Zn        -5.4324338243       10.7316134759       15.7218872981
 Zn       -15.1498640856       10.2844420625       31.2310358822
 Zn         3.1808525235       10.6009943395        0.1186648384
  H        -8.8307338561        0.5887936933       28.8950988839
  H        -7.9269543996        0.8258330535       26.6436625195
  H       -11.4853517447        9.7468558502       25.0081246277
  H       -12.4143247363        9.4983915058       27.2997800943
  H        -6.0974497603        0.4039039742       22.8190688523
  H        -9.6442796213        9.2682711003       21.2158839131
  H        -8.7484409627        9.4866629288       18.9501718295
  H        -5.1975167060        0.6617870895       20.5179388751
  H         1.9659964991        9.3589724809        4.4682722102
  H         0.7535159271        9.3513695798        6.6297887730
  H        -1.9105615475        1.5703005882        5.1249550541
  H        -0.8149281214        1.4376028057        2.9264650120
  H        -0.0358919327        1.6514687985       10.8007253053
  H        -2.8297616507        9.4670364994        9.3482262463
  H        -4.0330687636        9.5288452068       11.5065224264
  H        -1.1453675550        1.6009435275       12.9889062275
  H        -6.1125637565        7.6037014836       18.0348641701
  H        -5.9716905477        2.6354871955       18.1794404572
  H        -2.0100110560        3.8261486956       15.7015708584
  H        -2.1273475880        6.3084504783       15.4870848624
  H       -11.5499764129        7.4116623916       29.9275751054
  H       -11.4939380137        2.4269344167       29.8943766462
  H         0.0606805790        3.9305534101        0.3790477869
  H         0.0123198644        6.4328599276        0.3782494864
  H        -9.2585997327        1.5671417569       22.6239452732
  H        -9.2047016939        2.2878164848       24.2561703313
  H       -10.6866964996        1.5253009792       23.6945213436
  H        -6.8678212752        8.6406956093       24.1658622116
  H        -8.3454993263        7.8449421094       23.6368039973
  H        -8.2843654433        8.6109616560       25.2481480989
  H        -3.3429003669       10.0145429743        7.3666086039
  H         3.2047214388        0.6701170886        6.3853239046
  H        -3.2086063127        0.8032831997        8.1622428566
  H         1.3052397645       10.0792220648        8.5754840654
  H         1.2153486208        0.7798672321        9.4883555672
  H         1.2043132872        0.8216898298        7.7083514241
  C        -3.8896716943        7.9606074255       16.2106383901
  C        -6.2372018103       10.5984874015       18.2564660258
  C        -3.8610090140        2.2260678063       16.7270343267
  C        -3.3074331390       10.8470660368       13.7432068635
  C       -13.7380976331        7.7792434021       31.3298887250
  C       -11.3815966677       10.3272022497       29.5956286390
  C       -13.6449955286        2.0006059411       31.3337554513
  C         1.2411107635       10.7028309477        2.2032504787
  C       -10.7103775256       10.4108872773       28.2675781857
  C        -9.4111411054        0.1935506209       28.0640059207
  C        -8.8968013114        0.3433777244       26.7736635583
  C        -9.6209042809       -0.0986690619       25.6539675251
  C       -10.9102846834       10.0930076831       25.8686288251
  C       -11.4370685213        9.9558387343       27.1484736377
  C        -9.1384437494        0.1317486379       24.2552167966
  C        -8.4326657245       10.0065040152       23.5905580303
  C        -6.6779086984        0.0493923918       21.9654613070
  C        -7.9588060172       10.2256464723       22.1875524057
  C        -8.6825887415        9.7639060530       21.0737509967
  C        -8.1762140652        9.9071638396       19.7782834953
  C        -6.9243173573       10.5055949722       19.5687961024
  C        -6.1653946473        0.1890131317       20.6827415045
  C         0.6780756350        0.0141302720        3.5629081329
  C         1.1073576065       10.0130511257        4.6219090656
  C         0.4302908427       10.0252252085        5.8384145796
  C        -0.6404481891        0.0807935548        6.0662319699
  C        -1.0739657813        0.8853661358        4.9913175682
  C        -0.4442256770        0.8347593379        3.7551054415
  C        -1.3324329509        0.1297229041        7.3791239149
  C        -0.6489105779        0.1713434269        8.5594752975
  C        -0.8949117279        0.9955209566       10.9407078633
  C        -1.3422378307        0.1831454050        9.8740220995
  C        -2.5003901871       10.1594605915       10.1194371368
  C        -3.1759328099       10.1787240789       11.3347619763
  C        -2.6744989218        0.1891683563       12.3850221170
  C        -1.5313625013        0.9825450197       12.1780700789
  C        -3.9221261909        6.4978093160       16.6235695932
  C        -4.9478970359        5.8551823588       17.3832263759
  C        -2.8816815387        5.7752756895       16.0642967019
  C        -6.0213690514        6.5249987543       18.0473363547
  C        -7.0044506668        5.8181715622       18.6885130907
  C        -3.8304902899        3.7119090134       16.8420798307
  C        -2.8178393437        4.3794711959       16.1811755560
  C        -4.9111486499        4.4150746643       17.4598402545
  C        -5.9511262838        3.7211738300       18.1334384385
  C        -6.9772851314        4.4151599798       18.7248600783
  C       -13.7135553388        6.2908472899       31.2456290227
  C       -12.6250457079        5.6254856358       30.5984603312
  C       -14.7343360997        5.5755509043       31.8457030176
  C       -11.5978210563        6.3255928647       29.9103424235
  C       -10.6331226257        5.6389864227       29.2177966168
  C       -13.6561038830        3.4893711144       31.2558124488
  C       -14.7065363957        4.1689706566       31.8488432921
  C       -12.5975322811        4.1876695396       30.5994540631
  C       -11.5607423532        3.5120706146       29.8935540695
  C       -10.6183666811        4.2304158875       29.2014899814
  C        -9.5879028597        1.4425849934       23.6627822999
  C        -7.9676161123        8.7102682463       24.2028123977
  C        -2.8198214881        0.2188810468        7.3224198992
  C         0.8396136446        0.2770153563        8.5854683641
  O        -2.8859975872        8.6221764261       16.7473208812
  O        -5.2425046376        8.6133331693       16.4569607604
  O        -6.9254115332       10.5529623896       17.1043833823
  O        -4.9681199402       -0.0496635966       18.2217914541
  O        -4.8548070967        1.7899162421       16.0525016538
  O        -2.8999589693        1.5546170213       17.2238902626
  O        -2.4436243792        0.1931090395       14.7123707829
  O        -4.5677045836       10.5813612098       13.8749679196
  O       -14.7949710946        8.3776116814       30.9304376798
  O       -12.6968601903        8.3156230221       31.8196810234
  O       -10.7017785480       10.3321677751       30.7352751813
  O       -12.6271710244       10.2587867215       29.6584881002
  O       -12.6304700557        1.4636963130       31.8774573205
  O       -14.6703357102        1.3998153039       30.8668463095
  O         0.4085897772       -0.0081216257        1.2585498433
  O         2.4965020964       10.5427455442        2.0596414800
  F        -8.0629577533        6.4574907992       19.2389300629
  F        -8.0105825441        3.7707886012       19.3023557196
  F        -9.6390028675        6.3038343703       28.5936484724
  F        -9.6210327499        3.6119766771       28.5219812480
  O        -5.6508295137        8.3315711273       15.0259094090
  C        -4.3285640821        7.9596749636       14.7112591506
  O        -3.9357335253        7.6993509461       13.6110843621
     123
 i =      131, E =      -996.1812015905
 Zn        -2.5385858955       10.5240551804       16.6376687916
 Zn        -5.4196653146       10.7037582631       15.7675740083
 Zn       -15.1506157199       10.2838123138       31.2284462320
 Zn         3.1793609498       10.6030481497        0.1187677392
  H        -8.8528237602        0.6440425716       28.8833186958
  H        -7.9488513645        0.8716562662       26.6284074886
  H       -11.4617914570        9.6957319380       25.0103102683
  H       -12.3920520572        9.4613446527       27.3024957471
  H        -6.1440328303        0.4578524666       22.8065336911
  H        -9.6301772692        9.2001587673       21.2024017288
  H        -8.7259118026        9.4191577909       18.9400705920
  H        -5.2382579801        0.7095589040       20.5049857377
  H         1.9685839283        9.3693510830        4.4759552278
  H         0.7563898504        9.3533965754        6.6329986535
  H        -1.9383883861        1.5353777650        5.1237700930
  H        -0.8473271343        1.4074076678        2.9265826703
  H        -0.0135999252        1.6483316299       10.8242718952
  H        -2.8468436071        9.5094373595        9.3477637391
  H        -4.0473151837        9.5543373549       11.5001880949
  H        -1.1296563866        1.5923728165       13.0074863030
  H        -6.1058087789        7.6134426799       18.0476012005
  H        -5.9357646895        2.6376176310       18.2073231745
  H        -2.0346314506        3.8186181676       15.6701311516
  H        -2.1130568107        6.2991510891       15.4807675017
  H       -11.5330066149        7.4109630380       29.9450087289
  H       -11.5367579160        2.4209692531       29.8427494282
  H         0.0697711477        3.9337344709        0.4042166463
  H         0.0264287457        6.4353172377        0.4023497190
  H        -9.2287254031        1.5718682963       22.6212543716
  H        -9.1882148938        2.2868661261       24.2566522899
  H       -10.6709971683        1.5364032221       23.6725910241
  H        -6.8942140950        8.6220203681       24.1624520522
  H        -8.3686393505        7.8321152498       23.6142580591
  H        -8.3250518991        8.5931228099       25.2283557164
  H        -3.3628231157       10.0510420688        7.4790219772
  H         3.1939926002        0.6342049070        6.3881488429
  H        -3.1834866888        0.8899441360        8.1581457588
  H         1.3104105926       10.0701314995        8.4912742890
  H         1.2413843603        0.7089302387        9.5102486471
  H         1.2058396112        0.8636100643        7.7355459308
  C        -3.8915909893        7.9615335998       16.2301034725
  C        -6.2561594828       10.5946413163       18.2534294318
  C        -3.8684143257        2.2301624902       16.7462131670
  C        -3.2978814628       10.8577465150       13.7619954138
  C       -13.7348904837        7.7808361062       31.3323364772
  C       -11.3811433776       10.3306136978       29.5940503925
  C       -13.6498863177        2.0021118305       31.3297307859
  C         1.2350235540       10.7034560926        2.2025047296
  C       -10.7086706257       10.4175273792       28.2654346021
  C        -9.4216088457        0.2256726039       28.0547702553
  C        -8.9098117853        0.3720635685       26.7623541304
  C        -9.6213490053       -0.0974480809       25.6447051241
  C       -10.8972627220       10.0683561284       25.8671845963
  C       -11.4236007076        9.9370185465       27.1486095914
  C        -9.1385100517        0.1298161645       24.2449324705
  C        -8.4506629114        9.9932664493       23.5750187086
  C        -6.7103222009        0.0727950379       21.9560907665
  C        -7.9742721761       10.2128288537       22.1729770372
  C        -8.6831723686        9.7238297180       21.0613525593
  C        -8.1714089166        9.8648172121       19.7680096140
  C        -6.9336467452       10.4931749690       19.5658876068
  C        -6.1929201884        0.2124351568       20.6757565194
  C         0.6708771818        0.0078511804        3.5640926372
  C         1.0997525422       10.0114054206        4.6264604618
  C         0.4229366014       10.0231761123        5.8431581887
  C        -0.6517422094        0.0715572623        6.0801382679
  C        -1.0960845429        0.8566243042        4.9930535141
  C        -0.4674209907        0.8091953320        3.7549980910
  C        -1.3392416892        0.1322592671        7.3962878192
  C        -0.6431504937        0.1688370718        8.5721388966
  C        -0.8743568272        0.9955531729       10.9621143791
  C        -1.3261478619        0.1877547510        9.8937358263
  C        -2.5023227374       10.1831327962       10.1274049432
  C        -3.1851300762       10.1961469837       11.3385827028
  C        -2.6811631611        0.1915476306       12.3986416118
  C        -1.5278736752        0.9816892322       12.1946215271
  C        -3.9179165310        6.4941742751       16.6302057373
  C        -4.9382674081        5.8531909516       17.4017482382
  C        -2.8806922179        5.7797860645       16.0550115921
  C        -6.0010199303        6.5370179368       18.0659079634
  C        -6.9943858275        5.8244210167       18.6861420682
  C        -3.8251316950        3.7166478598       16.8534521820
  C        -2.8208436363        4.3807618447       16.1796024491
  C        -4.9012341918        4.4137990113       17.4749876343
  C        -5.9276261953        3.7230016066       18.1748069078
  C        -6.9608525734        4.4213596241       18.7482045696
  C       -13.7115013901        6.2921326378       31.2466917291
  C       -12.6287873662        5.6247794039       30.5920396730
  C       -14.7282902253        5.5768328730       31.8545956333
  C       -11.5940989890        6.3270274731       29.9170597046
  C       -10.6301079289        5.6431364050       29.2231056531
  C       -13.6663684456        3.4909796675       31.2442386993
  C       -14.7027834118        4.1701161883       31.8624281378
  C       -12.6133328681        4.1866856245       30.5803671772
  C       -11.5820796134        3.5080561409       29.8725925781
  C       -10.6340486740        4.2357165634       29.1969661072
  C        -9.5722517000        1.4476206968       23.6557420572
  C        -7.9939886842        8.6942172356       24.1873298124
  C        -2.8241287127        0.2433821523        7.3470015489
  C         0.8462172776        0.2699746981        8.5837718853
  O        -2.8982326226        8.6471035441       16.7309721550
  O        -5.2808433337        8.5701891148       16.3844904807
  O        -6.9465498499       10.5473948705       17.1019064139
  O        -4.9876681240       -0.0519193231       18.2059014960
  O        -4.8148136269        1.7794268799       16.0031168883
  O        -2.9484073239        1.5481612215       17.3023921978
  O        -2.4418391470        0.3256219650       14.7196489128
  O        -4.5243962266       10.4704478595       13.9502533791
  O       -14.7931515946        8.3770714204       30.9322809659
  O       -12.6962326378        8.3198154909       31.8254115419
  O       -10.7003625478       10.3328786350       30.7335413617
  O       -12.6265348534       10.2604431963       29.6564609138
  O       -12.6353444249        1.4673681809       31.8764803460
  O       -14.6720428893        1.3961494490       30.8642460238
  O         0.4039305054       -0.0061077462        1.2566686493
  O         2.4913757500       10.5444633395        2.0622697227
  F        -8.0322989045        6.4903667550       19.2367752277
  F        -8.0031221620        3.7733975458       19.3086787532
  F        -9.6371788103        6.3171183066       28.6063115422
  F        -9.6231231111        3.6365477061       28.5238674357
  O        -5.6753793540        8.1652650962       14.9906009171
  C        -4.3000407623        7.9035077112       14.6867887407
  O        -3.8455475070        7.6604855685       13.6147454922
     123
 i =      132, E =      -996.1840851972
 Zn        -2.5376109304       10.5266323357       16.6423056297
 Zn        -5.3949978377       10.7160787315       15.7592473562
 Zn       -15.1504753870       10.2836038620       31.2292992228
 Zn         3.1811356842       10.6012208818        0.1159858039
  H        -8.8474816486        0.6253648223       28.8860629417
  H        -7.9444894902        0.8585872962       26.6315885174
  H       -11.4703245484        9.7133584458       25.0102434678
  H       -12.3987624538        9.4727665085       27.3025379177
  H        -6.1335567582        0.4418323316       22.8148702374
  H        -9.6339612268        9.2222072594       21.2111527053
  H        -8.7319829117        9.4420077062       18.9477093989
  H        -5.2253593487        0.6917099790       20.5137495462
  H         1.9668643679        9.3651616606        4.4736960052
  H         0.7560528813        9.3516179464        6.6321348189
  H        -1.9299959243        1.5467089417        5.1215279656
  H        -0.8353328710        1.4141381273        2.9252999675
  H        -0.0294689084        1.6475288455       10.8235365825
  H        -2.8432673369        9.4922043515        9.3495370478
  H        -4.0451388086        9.5331826219       11.4980650633
  H        -1.1443166471        1.5823191173       13.0070573456
  H        -6.0970399854        7.6085160535       18.0436817824
  H        -5.9428650843        2.6381143431       18.1916491729
  H        -2.0241771116        3.8116988881       15.6949496614
  H        -2.1077455243        6.2927042854       15.4778638248
  H       -11.5400456732        7.4122887248       29.9377890898
  H       -11.5243315730        2.4232887413       29.8596908604
  H         0.0685488672        3.9338288892        0.4000895743
  H         0.0233210051        6.4352814460        0.3938029081
  H        -9.2386689092        1.5700339951       22.6226715710
  H        -9.1935769819        2.2870832150       24.2569519200
  H       -10.6757373020        1.5334833288       23.6804924162
  H        -6.8871000448        8.6266247739       24.1603861196
  H        -8.3624377195        7.8360850089       23.6180634870
  H        -8.3116086665        8.5940046860       25.2337703183
  H        -3.3500243110       10.0477360605        7.4326513114
  H         3.1952518679        0.6468442006        6.3915274535
  H        -3.1928471947        0.8546665968        8.1541809433
  H         1.3003510174       10.0799345286        8.5317309139
  H         1.2246572213        0.7353902213        9.5041758269
  H         1.2044601258        0.8478848558        7.7361169711
  C        -3.8967883659        7.9574964084       16.2148651901
  C        -6.2613291835       10.5993404077       18.2556755982
  C        -3.8586735033        2.2310123136       16.7303278123
  C        -3.2937923670       10.8741082023       13.7671772029
  C       -13.7373219914        7.7789423851       31.3310504031
  C       -11.3813166949       10.3297799706       29.5942430332
  C       -13.6512138682        1.9997940656       31.3273895409
  C         1.2378215568       10.7044552449        2.2019769116
  C       -10.7097591964       10.4137674169       28.2660109731
  C        -9.4196375683        0.2142096243       28.0573751980
  C        -8.9074714507        0.3639899616       26.7659127074
  C        -9.6222403981       -0.0988412883       25.6486409552
  C       -10.9025403372       10.0771170088       25.8675075812
  C       -11.4277543614        9.9417344077       27.1484786283
  C        -9.1407410735        0.1301308382       24.2496821932
  C        -8.4460092492        9.9975212540       23.5832512002
  C        -6.7014569077        0.0651150235       21.9628559123
  C        -7.9706855209       10.2197606507       22.1819709166
  C        -8.6827235108        9.7354931474       21.0711306783
  C        -8.1741808915        9.8780644181       19.7771974871
  C        -6.9321369709       10.4940255100       19.5731699215
  C        -6.1842105379        0.2030679435       20.6820178399
  C         0.6724138348        0.0075354536        3.5624617058
  C         1.1022488543       10.0121079275        4.6249338353
  C         0.4265137346       10.0235306982        5.8425058190
  C        -0.6463287293        0.0755943233        6.0749867836
  C        -1.0887503558        0.8667705158        4.9921805313
  C        -0.4588818213        0.8162584425        3.7552291024
  C        -1.3361269852        0.1319671873        7.3906597072
  C        -0.6476866324        0.1702674227        8.5702743119
  C        -0.8867567961        0.9896586824       10.9577082696
  C        -1.3357039354        0.1814627493        9.8891798990
  C        -2.5029292845       10.1675454122       10.1298666074
  C        -3.1868755689       10.1820051942       11.3417253892
  C        -2.6830575037        0.1809943436       12.3999576206
  C        -1.5347119031        0.9730726128       12.1909929816
  C        -3.9110655250        6.4914800723       16.6290716361
  C        -4.9416206056        5.8482743996       17.3820149859
  C        -2.8743420008        5.7732480521       16.0565154720
  C        -6.0012025240        6.5314553111       18.0504808614
  C        -6.9894494136        5.8266323779       18.6871801948
  C        -3.8295040081        3.7127118481       16.8424553820
  C        -2.8194077917        4.3766782701       16.1802093595
  C        -4.9043323103        4.4104481923       17.4617787792
  C        -5.9397571470        3.7242259492       18.1532619450
  C        -6.9674393699        4.4226962787       18.7353433684
  C       -13.7150773696        6.2896653431       31.2392569188
  C       -12.6280323330        5.6220244635       30.5931374808
  C       -14.7328338081        5.5751220394       31.8460311472
  C       -11.5951726453        6.3282132778       29.9193024000
  C       -10.6260773447        5.6410243491       29.2358360931
  C       -13.6655790927        3.4885661186       31.2423913621
  C       -14.7061915161        4.1683554201       31.8513639450
  C       -12.6085876067        4.1838699655       30.5839388253
  C       -11.5700675181        3.5099349074       29.8808767891
  C       -10.6181276440        4.2342610976       29.2063269156
  C        -9.5772905627        1.4459795997       23.6584375396
  C        -7.9866041092        8.6974816297       24.1914894399
  C        -2.8212553961        0.2368219276        7.3373196408
  C         0.8409354637        0.2744652530        8.5909750288
  O        -2.9076021235        8.6584341380       16.7252577523
  O        -5.2773178572        8.5797049082       16.3843987816
  O        -6.9424028776       10.5438147121       17.1013023730
  O        -4.9931074569       -0.0571476680       18.2008968554
  O        -4.8235833616        1.7880698861       16.0203397375
  O        -2.9300674503        1.5598997122       17.2760397782
  O        -2.4353556650        0.2755179694       14.7141771054
  O        -4.5154766722       10.5480891371       13.9486280367
  O       -14.7932860575        8.3780280581       30.9285850747
  O       -12.6972541691        8.3162910036       31.8228218521
  O       -10.7005089749       10.3316775239       30.7333893377
  O       -12.6268106706       10.2592687567       29.6571919685
  O       -12.6365319603        1.4660456079       31.8749861804
  O       -14.6735666666        1.3939750940       30.8622730732
  O         0.4061846489       -0.0052783354        1.2567074267
  O         2.4933939726       10.5452242270        2.0594654571
  F        -8.0325958620        6.4880138260       19.2384443566
  F        -8.0047835362        3.7776617328       19.3090097264
  F        -9.6422324868        6.3048265397       28.5946325126
  F        -9.6033606877        3.6262457505       28.5485993484
  O        -5.6537776727        8.2251775897       14.9897591011
  C        -4.2964741469        7.9145611746       14.6828759644
  O        -3.8367782924        7.6503704339       13.6200242873
     123
 i =      133, E =      -996.1853967362
 Zn        -2.5306038823       10.5288004092       16.6492876280
 Zn        -5.3739831139       10.7380717506       15.7485171974
 Zn       -15.1499984693       10.2846952034       31.2307453412
 Zn         3.1823798527       10.5994833789        0.1161168827
  H        -8.8461244256        0.6231262334       28.8871468898
  H        -7.9442604135        0.8583820830       26.6323200640
  H       -11.4720703467        9.7159559470       25.0094878503
  H       -12.4006569619        9.4730397879       27.3024416820
  H        -6.1339185927        0.4374067316       22.8172767802
  H        -9.6346128317        9.2234799802       21.2160408368
  H        -8.7337593886        9.4443706711       18.9502978077
  H        -5.2248131753        0.6881807127       20.5168189602
  H         1.9661623774        9.3616393016        4.4734654463
  H         0.7569643162        9.3508373820        6.6320393875
  H        -1.9300361829        1.5484593362        5.1195065555
  H        -0.8349483249        1.4136667388        2.9233738587
  H        -0.0306276856        1.6421899964       10.8261079419
  H        -2.8421951079        9.4825522310        9.3553005098
  H        -4.0462313766        9.5340157539       11.5008718107
  H        -1.1529213293        1.5822972840       13.0103440796
  H        -6.0868691822        7.6005307097       18.0398626413
  H        -5.9508092307        2.6359694523       18.2004500432
  H        -2.0187126229        3.8094431336       15.7036201793
  H        -2.1199142304        6.2904676309       15.4730558442
  H       -11.5488080756        7.4137369192       29.9352531493
  H       -11.5162739756        2.4277093303       29.8661188191
  H         0.0697951598        3.9336944263        0.3997567918
  H         0.0211922684        6.4350828529        0.3933738315
  H        -9.2399512554        1.5701182644       22.6230053444
  H        -9.1945957794        2.2867153106       24.2569890498
  H       -10.6763177206        1.5338018473       23.6818918180
  H        -6.8876240896        8.6274038215       24.1605685881
  H        -8.3622242435        7.8359671818       23.6184341311
  H        -8.3094938138        8.5924012390       25.2347245018
  H        -3.3490961195       10.0433043799        7.4267101422
  H         3.1977138407        0.6484217636        6.3888207673
  H        -3.1968273842        0.8536428206        8.1539705011
  H         1.2985651410       10.0796115883        8.5389458405
  H         1.2213636374        0.7386689884        9.5091609523
  H         1.1978184196        0.8484294696        7.7339812630
  C        -3.8929404718        7.9619146874       16.1988360198
  C        -6.2623876147       10.5910310852       18.2507242586
  C        -3.8597660873        2.2295683450       16.7341400503
  C        -3.2838865643       10.8713948694       13.7737847957
  C       -13.7394491741        7.7787252159       31.3299857112
  C       -11.3806898675       10.3288854402       29.5934364058
  C       -13.6486458607        1.9993686843       31.3259337374
  C         1.2390136156       10.7026214205        2.2040488538
  C       -10.7096111265       10.4137184198       28.2649407398
  C        -9.4186325664        0.2128628979       28.0584016202
  C        -8.9068158781        0.3628341185       26.7669020956
  C        -9.6236285615       -0.0989911526       25.6508862776
  C       -10.9042760865       10.0772642014       25.8678630278
  C       -11.4293466379        9.9412653671       27.1487020754
  C        -9.1412499380        0.1305436833       24.2527939229
  C        -8.4445704570       10.0000097966       23.5863498800
  C        -6.7009669636        0.0658992124       21.9624818234
  C        -7.9694658396       10.2185926746       22.1847266246
  C        -8.6830723573        9.7366982144       21.0743344976
  C        -8.1760222659        9.8794937064       19.7800142225
  C        -6.9365181217       10.5009274397       19.5689507891
  C        -6.1850887422        0.1998049337       20.6798948505
  C         0.6718992262        0.0082751383        3.5634630678
  C         1.1050596443       10.0127856687        4.6247558835
  C         0.4294778582       10.0244461022        5.8428009635
  C        -0.6442675121        0.0769460643        6.0716948441
  C        -1.0865296733        0.8712115084        4.9917649024
  C        -0.4578666269        0.8185642763        3.7546862156
  C        -1.3341971190        0.1328592705        7.3879184944
  C        -0.6488308285        0.1706182475        8.5692495013
  C        -0.8925577101        0.9878937761       10.9562880458
  C        -1.3408980614        0.1807577914        9.8861397390
  C        -2.5065619092       10.1654142677       10.1315726312
  C        -3.1854270028       10.1832674780       11.3467081105
  C        -2.6776220273        0.1841000996       12.4036821623
  C        -1.5329251530        0.9734686321       12.1911546677
  C        -3.9086034716        6.5005290427       16.6278793333
  C        -4.9348355649        5.8500752947       17.3823689316
  C        -2.8727197145        5.7693920051       16.0667161783
  C        -6.0035477640        6.5213625924       18.0474240136
  C        -6.9951037589        5.8250184669       18.6891426844
  C        -3.8282146572        3.7103940601       16.8437501196
  C        -2.8183183116        4.3747666777       16.1789144867
  C        -4.9058452132        4.4114296899       17.4584313039
  C        -5.9469185554        3.7229950326       18.1391669633
  C        -6.9708372516        4.4202264476       18.7293922912
  C       -13.7164169342        6.2890776626       31.2419969557
  C       -12.6272556425        5.6249342226       30.5962451670
  C       -14.7362104414        5.5750889873       31.8447092242
  C       -11.5924551711        6.3279117375       29.9208596862
  C       -10.6278344217        5.6387231988       29.2295718421
  C       -13.6634258900        3.4887363132       31.2425329528
  C       -14.7064800123        4.1683696394       31.8484297929
  C       -12.6037994108        4.1866197239       30.5876063894
  C       -11.5655552918        3.5137734931       29.8799805926
  C       -10.6062290741        4.2307344840       29.2071989696
  C        -9.5779836649        1.4450544865       23.6588679987
  C        -7.9875126656        8.6978001826       24.1918943294
  C        -2.8207494311        0.2344461562        7.3363339713
  C         0.8396371828        0.2749654040        8.5933703817
  O        -2.9027104789        8.6608622526       16.7269507942
  O        -5.2612551617        8.6227907710       16.3964392252
  O        -6.9395023474       10.5507639664       17.0980129960
  O        -4.9932696776       -0.0615922679       18.1982989472
  O        -4.8394746025        1.8017766532       16.0393665707
  O        -2.9218415450        1.5619114953       17.2658834426
  O        -2.4200865700        0.2802296836       14.7195571656
  O        -4.5181426456       10.5592809008       13.9265368391
  O       -14.7946277457        8.3790123857       30.9276601279
  O       -12.6982039701        8.3136541901       31.8214280355
  O       -10.7019634639       10.3312366957       30.7337592518
  O       -12.6263693853       10.2583816272       29.6568800233
  O       -12.6345287312        1.4647718651       31.8738537542
  O       -14.6731678887        1.3954802658       30.8629361463
  O         0.4081804419       -0.0065085918        1.2577729798
  O         2.4945499754       10.5456259763        2.0606971638
  F        -8.0453332158        6.4664835833       19.2523067287
  F        -8.0106047037        3.7741498563       19.2990464357
  F        -9.6333838864        6.3072456450       28.6062766277
  F        -9.6090082390        3.5959422324       28.5431066632
  O        -5.6487760598        8.2474322313       14.9821514674
  C        -4.3027459582        7.9189779863       14.6861372357
  O        -3.8712603066        7.6445793965       13.6099082212
     123
 i =      134, E =      -996.1865759801
 Zn        -2.5306656038       10.5367470543       16.6473655902
 Zn        -5.3694132893       10.7316246420       15.7627361752
 Zn       -15.1496917220       10.2847504893       31.2306326277
 Zn         3.1814872268       10.6005900174        0.1165435995
  H        -8.8535618306        0.6412687359       28.8836118484
  H        -7.9526442675        0.8737841707       26.6272096070
  H       -11.4652785374        9.6988867563       25.0104791618
  H       -12.3940163653        9.4602165773       27.3039520030
  H        -6.1507961128        0.4554629982       22.8126020164
  H        -9.6298685885        9.2011088678       21.2148626105
  H        -8.7274413652        9.4217814916       18.9478816601
  H        -5.2383801256        0.7025872366       20.5125638604
  H         1.9667488462        9.3636895077        4.4763672036
  H         0.7585266780        9.3514236572        6.6340284470
  H        -1.9394502828        1.5367616356        5.1195721828
  H        -0.8465893554        1.4029113154        2.9232461502
  H        -0.0252773272        1.6398021487       10.8345821076
  H        -2.8486530135        9.4918858594        9.3567862174
  H        -4.0526547828        9.5409198123       11.5024368466
  H        -1.1487136053        1.5779786195       13.0180229008
  H        -6.0795343872        7.6064807275       18.0417703240
  H        -5.9448754302        2.6374806764       18.2088085127
  H        -2.0234384613        3.8092543978       15.6933508530
  H        -2.1151707014        6.2903163115       15.4754347702
  H       -11.5441474385        7.4122784650       29.9413576506
  H       -11.5272264981        2.4270635587       29.8500577089
  H         0.0730925149        3.9337733259        0.4056817574
  H         0.0246815486        6.4349596657        0.3993118525
  H        -9.2301984843        1.5712585227       22.6227700649
  H        -9.1891106973        2.2865421697       24.2573108093
  H       -10.6712672367        1.5380490991       23.6749650868
  H        -6.8969877684        8.6207133303       24.1586857906
  H        -8.3712228638        7.8320322492       23.6094819326
  H        -8.3233142548        8.5846483321       25.2286423121
  H        -3.3573726167       10.0539585166        7.4631059897
  H         3.1950233921        0.6364598726        6.3874895796
  H        -3.1904415496        0.8834242423        8.1519214050
  H         1.2991044048       10.0770808817        8.5162265851
  H         1.2266642709        0.7154886958        9.5219663045
  H         1.1971774169        0.8647687056        7.7454692254
  C        -3.8883906739        7.9636479476       16.1836302095
  C        -6.2697407651       10.5921348358       18.2465705235
  C        -3.8626211794        2.2330526743       16.7388806990
  C        -3.2794864891       10.8729321770       13.7815323370
  C       -13.7386483892        7.7799657194       31.3302166550
  C       -11.3808639150       10.3291546358       29.5933226332
  C       -13.6497049024        1.9998660959       31.3262528934
  C         1.2375064465       10.7026238328        2.2049488800
  C       -10.7095140029       10.4155209317       28.2643968313
  C        -9.4228712901        0.2241095413       28.0558303021
  C        -8.9114984828        0.3709776950       26.7635782813
  C        -9.6250921868       -0.0972186165       25.6481950518
  C       -10.9003414170       10.0679340822       25.8678158618
  C       -11.4260011460        9.9355289925       27.1490942560
  C        -9.1420135130        0.1290576678       24.2496689709
  C        -8.4500988934        9.9952354875       23.5822912346
  C        -6.7111031553        0.0709439944       21.9579832598
  C        -7.9758602721       10.2175219639       22.1811173342
  C        -8.6820708132        9.7206846261       21.0714010207
  C        -8.1764481088        9.8679429267       19.7770440797
  C        -6.9397811793       10.4927636550       19.5657009914
  C        -6.1962477923        0.2100819974       20.6751100850
  C         0.6684014542        0.0051749563        3.5644167640
  C         1.1036386223       10.0124606714        4.6271030488
  C         0.4282022462       10.0242412539        5.8453429854
  C        -0.6472138054        0.0745308180        6.0756577180
  C        -1.0932623059        0.8627097864        4.9925104453
  C        -0.4650350440        0.8110051288        3.7549444426
  C        -1.3348994822        0.1337237454        7.3933053751
  C        -0.6488157314        0.1691136923        8.5748113623
  C        -0.8872869602        0.9855382336       10.9632928136
  C        -1.3423524534        0.1836834955        9.8916065165
  C        -2.5100690154       10.1709045350       10.1349588120
  C        -3.1879676107       10.1863485675       11.3510369610
  C        -2.6742451899        0.1830682650       12.4090778276
  C        -1.5304334155        0.9733037115       12.1966057478
  C        -3.9035505992        6.5040893415       16.6327985736
  C        -4.9322796951        5.8570191810       17.3876334054
  C        -2.8719483740        5.7721647981       16.0635398275
  C        -6.0016400149        6.5266928856       18.0533633147
  C        -6.9903691730        5.8246884417       18.6947250662
  C        -3.8271120241        3.7149891149       16.8472685616
  C        -2.8163991107        4.3760560995       16.1806114895
  C        -4.9011627936        4.4181709628       17.4653309616
  C        -5.9383756317        3.7240952832       18.1464030922
  C        -6.9682814954        4.4194747413       18.7288488691
  C       -13.7160873735        6.2906887073       31.2427363636
  C       -12.6270873079        5.6264318065       30.5971452966
  C       -14.7334587522        5.5758574116       31.8487903385
  C       -11.5915189447        6.3263895961       29.9200479392
  C       -10.6240920247        5.6385751205       29.2319528342
  C       -13.6648746086        3.4894565672       31.2416066428
  C       -14.7062242177        4.1690312771       31.8503365750
  C       -12.6088922129        4.1880179842       30.5810938027
  C       -11.5719351708        3.5133096672       29.8734966284
  C       -10.6107887950        4.2305272532       29.2029318867
  C        -9.5728910751        1.4464647792       23.6572830673
  C        -7.9970075387        8.6913640897       24.1871900573
  C        -2.8215314996        0.2418889652        7.3441405898
  C         0.8400401683        0.2730556195        8.5953808692
  O        -2.9123726388        8.6735084326       16.7152138867
  O        -5.2736498555        8.6139417927       16.3586368574
  O        -6.9522709555       10.5505407956       17.0993770774
  O        -4.9994624947       -0.0715813931       18.1921905097
  O        -4.8309312091        1.8007390775       16.0279622383
  O        -2.9374810415        1.5591195848       17.2885939493
  O        -2.4183694842        0.3318922346       14.7284965176
  O        -4.5095707857       10.5258967684       13.9395512316
  O       -14.7949317874        8.3787618173       30.9291027810
  O       -12.6979420358        8.3147487243       31.8229237803
  O       -10.7019671663       10.3322034131       30.7337826264
  O       -12.6265641409       10.2590201449       29.6557477846
  O       -12.6340397062        1.4663330514       31.8722816126
  O       -14.6731598406        1.3951232334       30.8622527106
  O         0.4072470078       -0.0081326138        1.2580355928
  O         2.4931802051       10.5443495484        2.0617733510
  F        -8.0419221511        6.4682176651       19.2549166306
  F        -8.0022708509        3.7690613844       19.3027785294
  F        -9.6413322895        6.3054415385       28.5901686464
  F        -9.6047448298        3.6174385315       28.5309295222
  O        -5.6495722569        8.2032760342       14.9598288397
  C        -4.2920403282        7.9004213810       14.6701604262
  O        -3.8476394240        7.6252738169       13.5978824808
     123
 i =      135, E =      -996.1882402461
 Zn        -2.5319570109       10.5474809909       16.6466596783
 Zn        -5.3628465459       10.7160224184       15.7865581847
 Zn       -15.1493812499       10.2843931725       31.2295492404
 Zn         3.1806051217       10.6021211902        0.1158292144
  H        -8.8641692459        0.6643681443       28.8787203320
  H        -7.9645311936        0.8945879022       26.6201599839
  H       -11.4570590659        9.6768175753       25.0120450319
  H       -12.3849262641        9.4430846305       27.3064985654
  H        -6.1728476378        0.4792229824       22.8067100146
  H        -9.6230707120        9.1711236978       21.2145595835
  H        -8.7214655389        9.3929946759       18.9456716884
  H        -5.2559408183        0.7219441196       20.5067998032
  H         1.9670924043        9.3669065025        4.4801136892
  H         0.7607402086        9.3526554336        6.6372297081
  H        -1.9514680758        1.5219096331        5.1185058534
  H        -0.8604997684        1.3875455080        2.9227200785
  H        -0.0195579408        1.6361042919       10.8444079711
  H        -2.8586787404        9.5042993219        9.3605955856
  H        -4.0607900933        9.5456076856       11.5077127432
  H        -1.1411940237        1.5710268208       13.0273226224
  H        -6.0700484823        7.6196015819       18.0467898806
  H        -5.9338690928        2.6434981613       18.2131690328
  H        -2.0271680413        3.8087436395       15.6873194159
  H        -2.1053942669        6.2884754489       15.4730084513
  H       -11.5379887010        7.4125903253       29.9461446396
  H       -11.5401920664        2.4245998524       29.8306846267
  H         0.0782067023        3.9342091487        0.4132082918
  H         0.0297209861        6.4345210779        0.4057023137
  H        -9.2175957599        1.5726309125       22.6225297008
  H        -9.1819799496        2.2864752383       24.2583637153
  H       -10.6646953199        1.5436434960       23.6666160529
  H        -6.9095062797        8.6106503881       24.1554334227
  H        -8.3836566796        7.8274768123       23.5968311326
  H        -8.3415764320        8.5725162806       25.2200133474
  H        -3.3653120201       10.0710382359        7.5051146782
  H         3.1905712263        0.6217427822        6.3866003574
  H        -3.1834746468        0.9176167313        8.1475403559
  H         1.2981896893       10.0758008944        8.4913088739
  H         1.2299968473        0.6882046108        9.5374698389
  H         1.1968580830        0.8841595589        7.7658145622
  C        -3.8843342616        7.9634578865       16.1701285689
  C        -6.2826631404       10.5861848603       18.2432337936
  C        -3.8628044211        2.2365802193       16.7440919392
  C        -3.2706418900       10.8855451263       13.7921934901
  C       -13.7376493369        7.7796340678       31.3305294622
  C       -11.3815575321       10.3304526564       29.5934176818
  C       -13.6520661940        2.0000670749       31.3265922160
  C         1.2352856454       10.7003070919        2.2047816769
  C       -10.7101540107       10.4172232342       28.2640562115
  C        -9.4290293003        0.2369532368       28.0526321491
  C        -8.9190808362        0.3844918480       26.7596483884
  C        -9.6262300794       -0.0978815102       25.6454197392
  C       -10.8962292832       10.0578523524       25.8674750604
  C       -11.4210341090        9.9263919808       27.1494729946
  C        -9.1438845230        0.1280315817       24.2466403099
  C        -8.4593275624        9.9888931888       23.5779066135
  C        -6.7269761193        0.0818538945       21.9536260040
  C        -7.9831619192       10.2114999428       22.1776461733
  C        -8.6822605473        9.7037631541       21.0686208206
  C        -8.1756741551        9.8461225640       19.7741817033
  C        -6.9473022975       10.4901282548       19.5649431432
  C        -6.2075363400        0.2164320700       20.6717921958
  C         0.6660738804        0.0018361357        3.5650313123
  C         1.1003135011       10.0114604884        4.6298721527
  C         0.4269432921       10.0243921997        5.8492350540
  C        -0.6495513350        0.0731027557        6.0813387498
  C        -1.1018796646        0.8517847000        4.9931562070
  C        -0.4740999184        0.7993136489        3.7549658216
  C        -1.3373115131        0.1325272095        7.3992336742
  C        -0.6504550147        0.1700368700        8.5809460693
  C        -0.8832496900        0.9840047194       10.9716557468
  C        -1.3406951523        0.1837781724        9.9003016915
  C        -2.5124390008       10.1758097622       10.1419899879
  C        -3.1916712732       10.1854467823       11.3579961290
  C        -2.6741785562        0.1823873542       12.4142864877
  C        -1.5234612484        0.9663606214       12.2057701210
  C        -3.9020839527        6.5042153010       16.6268313344
  C        -4.9302097081        5.8631533612       17.3928623576
  C        -2.8661769945        5.7755415631       16.0622644926
  C        -5.9970246487        6.5394956997       18.0559513884
  C        -6.9781117854        5.8248178665       18.6975930821
  C        -3.8267910585        3.7194628484       16.8486130087
  C        -2.8144471214        4.3777464332       16.1835756828
  C        -4.8939440317        4.4243762721       17.4731849578
  C        -5.9304278826        3.7292907219       18.1555952307
  C        -6.9676854992        4.4191962064       18.7315894131
  C       -13.7149299049        6.2906240265       31.2414428955
  C       -12.6278810457        5.6247604464       30.5936595707
  C       -14.7301914260        5.5755940488       31.8514614400
  C       -11.5898871607        6.3271294338       29.9233943315
  C       -10.6224974236        5.6396880339       29.2348411864
  C       -13.6671613109        3.4891885868       31.2365606809
  C       -14.7038392869        4.1687444073       31.8534378706
  C       -12.6124272514        4.1867915983       30.5748835471
  C       -11.5777540048        3.5110294640       29.8669650768
  C       -10.6166086910        4.2317451579       29.2013970135
  C        -9.5663747883        1.4489423796       23.6552583813
  C        -8.0094678367        8.6829197395       24.1806111376
  C        -2.8234710931        0.2528069021        7.3531788434
  C         0.8388293513        0.2706868067        8.6015100625
  O        -2.9180748613        8.6855963689       16.6834221681
  O        -5.2927036100        8.5890313196       16.3026062895
  O        -6.9691802818       10.5486641657       17.1019650523
  O        -5.0109762265       -0.0901378092       18.1768381083
  O        -4.8187923821        1.7960087765       16.0180657419
  O        -2.9539748017        1.5575446352       17.3180342148
  O        -2.4190325065        0.3795117764       14.7406821155
  O        -4.4863239269       10.4964756837       13.9758890304
  O       -14.7943822656        8.3779848871       30.9302732250
  O       -12.6979416798        8.3158250882       31.8238995369
  O       -10.7016140244       10.3328393650       30.7335246288
  O       -12.6271125150       10.2592370491       29.6550037440
  O       -12.6347444561        1.4684194890       31.8711744739
  O       -14.6737454479        1.3939057352       30.8608878503
  O         0.4058350897       -0.0082399872        1.2573704982
  O         2.4915043058       10.5443805793        2.0617117239
  F        -8.0294822503        6.4696069020       19.2578989023
  F        -8.0079070529        3.7750513910       19.3049914663
  F        -9.6368704190        6.3049709582       28.5972261623
  F        -9.6137191452        3.6039871500       28.5400032607
  O        -5.6503543790        8.1401537505       14.9288812416
  C        -4.2773525213        7.8690041229       14.6485209306
  O        -3.8027631039        7.5931150690       13.5900036331
     123
 i =      136, E =      -996.1896886267
 Zn        -2.5271874911       10.5574059281       16.6505052405
 Zn        -5.3388873146       10.7120092294       15.8026734757
 Zn       -15.1493587031       10.2837970265       31.2294383965
 Zn         3.1815949738       10.6017094116        0.1154700174
  H        -8.8708804299        0.6761495581       28.8765034528
  H        -7.9730910243        0.9068993801       26.6163047869
  H       -11.4537372533        9.6654911139       25.0133735076
  H       -12.3805823768        9.4330022223       27.3087451108
  H        -6.1858338814        0.4912962536       22.8039729415
  H        -9.6194213378        9.1536429255       21.2184243470
  H        -8.7205106093        9.3767981479       18.9477653112
  H        -5.2663821968        0.7297678657       20.5043380882
  H         1.9662507877        9.3664542991        4.4823880572
  H         0.7629171901        9.3538792482        6.6398462292
  H        -1.9576130201        1.5138137459        5.1164371654
  H        -0.8680470004        1.3764034938        2.9215384473
  H        -0.0184573022        1.6310876731       10.8487037095
  H        -2.8653754337        9.5047192085        9.3680347852
  H        -4.0638261078        9.5466616202       11.5173646277
  H        -1.1394390488        1.5637247068       13.0334725636
  H        -6.0609443709        7.6253128493       18.0489927366
  H        -5.9303660522        2.6456640696       18.2127752587
  H        -2.0244743587        3.8105414965       15.6938851461
  H        -2.1030406090        6.2871819386       15.4683654699
  H       -11.5372625193        7.4133759298       29.9450644962
  H       -11.5424189079        2.4255278316       29.8252192117
  H         0.0812511837        3.9337448057        0.4161307709
  H         0.0319068827        6.4335237619        0.4067536491
  H        -9.2110689302        1.5730000052       22.6233429309
  H        -9.1782815898        2.2862022574       24.2594319564
  H       -10.6611119846        1.5474157917       23.6631222003
  H        -6.9180448122        8.6037468226       24.1528232545
  H        -8.3921376987        7.8250355997       23.5884049420
  H        -8.3517828236        8.5623968238       25.2151343516
  H        -3.3679815622       10.0811089397        7.5201330729
  H         3.1888163592        0.6153725190        6.3865052145
  H        -3.1832572927        0.9323300996        8.1420835554
  H         1.2939483142       10.0781197999        8.4877540366
  H         1.2245183689        0.6767505108        9.5502286529
  H         1.1935851603        0.8939139039        7.7827487270
  C        -3.8800266114        7.9634695196       16.1547619580
  C        -6.2890930896       10.5805383046       18.2394452343
  C        -3.8647130514        2.2392917654       16.7485376867
  C        -3.2588043658       10.8907083936       13.8042298699
  C       -13.7383520023        7.7790696730       31.3309835053
  C       -11.3822609606       10.3310856899       29.5932553485
  C       -13.6518321184        1.9997559928       31.3242376885
  C         1.2349297303       10.6999227420        2.2050035294
  C       -10.7107890062       10.4172807036       28.2638789625
  C        -9.4330760542        0.2435154718       28.0512934173
  C        -8.9244942639        0.3917111443       26.7578650946
  C        -9.6284159758       -0.0982839517       25.6448760673
  C       -10.8951447494       10.0519400099       25.8679128172
  C       -11.4190564289        9.9203570517       27.1502995057
  C        -9.1456446274        0.1271549966       24.2465783979
  C        -8.4643395231        9.9861228718       23.5768537312
  C        -6.7359258958        0.0870497786       21.9516405909
  C        -7.9879833549       10.2107494485       22.1771935466
  C        -8.6823261818        9.6921039222       21.0700328683
  C        -8.1781592669        9.8374768084       19.7747654706
  C        -6.9519841341       10.4846082438       19.5641411024
  C        -6.2160702600        0.2210284331       20.6692875438
  C         0.6645219791       -0.0012971480        3.5652359934
  C         1.1001438769       10.0118518077        4.6322200100
  C         0.4280991369       10.0257027975        5.8524472556
  C        -0.6498577390        0.0730762198        6.0844962342
  C        -1.1046503581        0.8474711964        4.9941078516
  C        -0.4775959371        0.7931397534        3.7554556123
  C        -1.3392554432        0.1341503379        7.4022156832
  C        -0.6536268382        0.1694506846        8.5850746715
  C        -0.8826691861        0.9800008382       10.9760446431
  C        -1.3437347841        0.1818358385        9.9046857535
  C        -2.5153511278       10.1738652798       10.1503570798
  C        -3.1927770008       10.1838881467       11.3679492485
  C        -2.6707001037        0.1797513848       12.4238362627
  C        -1.5199308056        0.9599091024       12.2105645122
  C        -3.8989794607        6.5080786136       16.6252177073
  C        -4.9300484210        5.8656359931       17.3881526265
  C        -2.8612277082        5.7778627912       16.0646467289
  C        -5.9927102160        6.5444361513       18.0553099048
  C        -6.9761025825        5.8307160282       18.6973640657
  C        -3.8255234416        3.7216849646       16.8502550403
  C        -2.8119616072        4.3803584314       16.1878154363
  C        -4.8918688820        4.4265577577       17.4736105203
  C        -5.9311362818        3.7315552414       18.1525010025
  C        -6.9665711158        4.4244118969       18.7265827283
  C       -13.7145239893        6.2903181277       31.2394169635
  C       -12.6274792426        5.6235422693       30.5924586335
  C       -14.7291315494        5.5751596318       31.8502296048
  C       -11.5895254144        6.3276488051       29.9250417036
  C       -10.6225624806        5.6353512200       29.2409427673
  C       -13.6677837978        3.4888513548       31.2343831052
  C       -14.7030687326        4.1683496039       31.8533794773
  C       -12.6119226385        4.1859905009       30.5742148222
  C       -11.5764512234        3.5114844299       29.8662151409
  C       -10.6132868965        4.2275501818       29.1989004605
  C        -9.5630128120        1.4497806490       23.6550027116
  C        -8.0179991299        8.6774803453       24.1766915877
  C        -2.8252156483        0.2577205868        7.3561968997
  C         0.8351121931        0.2705424774        8.6103208759
  O        -2.9161733414        8.6879867125       16.6666075809
  O        -5.2973700913        8.5905269180       16.2649663266
  O        -6.9732964668       10.5462155340       17.1021112350
  O        -5.0139056678       -0.1271489108       18.1633407329
  O        -4.8186746727        1.7979654099       16.0195907342
  O        -2.9558483533        1.5626716547       17.3214727568
  O        -2.4115741403        0.4038905059       14.7498703733
  O        -4.4695442680       10.4952182009       13.9947299491
  O       -14.7945118796        8.3775344095       30.9294784245
  O       -12.6979544048        8.3150590786       31.8229208552
  O       -10.7022885392       10.3325790985       30.7333309527
  O       -12.6277423864       10.2587905862       29.6550262192
  O       -12.6358387883        1.4680891150       31.8711151124
  O       -14.6739373432        1.3927743251       30.8606889721
  O         0.4056470059       -0.0086346578        1.2572443959
  O         2.4910949512       10.5441652493        2.0616738571
  F        -8.0203342938        6.4728881286       19.2752018730
  F        -8.0010058406        3.7708157224       19.2996840096
  F        -9.6404390051        6.3054239737       28.6056119016
  F        -9.6060199467        3.5988488628       28.5428281010
  O        -5.6372412178        8.1125357098       14.8976600222
  C        -4.2677445765        7.8480025652       14.6249592210
  O        -3.8046870674        7.5620125907       13.5646252110
     123
 i =      137, E =      -996.1902970319
 Zn        -2.5220811008       10.5751839342       16.6551092553
 Zn        -5.3018255141       10.7074640253       15.8136512485
 Zn       -15.1492256825       10.2839002914       31.2298243692
 Zn         3.1834693450       10.6001618918        0.1145932526
  H        -8.8840351665        0.6992005357       28.8733885916
  H        -7.9895469520        0.9334793096       26.6106563359
  H       -11.4462685830        9.6436239115       25.0152787646
  H       -12.3715675284        9.4114560514       27.3121807964
  H        -6.2107151444        0.5130135172       22.7975932685
  H        -9.6111633372        9.1170321571       21.2238163616
  H        -8.7183805544        9.3449387596       18.9499345026
  H        -5.2880833908        0.7459812384       20.4983241628
  H         1.9655614082        9.3651954818        4.4871154901
  H         0.7670211199        9.3583208055        6.6445457423
  H        -1.9700093897        1.4993992358        5.1094451690
  H        -0.8822785290        1.3550229026        2.9164301647
  H        -0.0095265882        1.6180552358       10.8536522411
  H        -2.8767969905        9.5046156336        9.3893033452
  H        -4.0623958214        9.5577128139       11.5424168631
  H        -1.1267558504        1.5586503549       13.0424791609
  H        -6.0472798694        7.6288767281       18.0562136650
  H        -5.9240768706        2.6495395778       18.2178840773
  H        -2.0144841669        3.8091491044       15.7128058759
  H        -2.1105973372        6.2808340634       15.4506147770
  H       -11.5383560446        7.4098996754       29.9410486965
  H       -11.5428895375        2.4247835439       29.8225964025
  H         0.0877831570        3.9322914019        0.4228723627
  H         0.0345459538        6.4319615280        0.4111313785
  H        -9.1981276800        1.5752282936       22.6246730595
  H        -9.1715017663        2.2856248495       24.2619021207
  H       -10.6538627268        1.5546712368       23.6566845713
  H        -6.9356598490        8.5907743745       24.1499275105
  H        -8.4083845160        7.8190427418       23.5736253883
  H        -8.3723436803        8.5441983852       25.2055158727
  H        -3.3741949340       10.0974475045        7.5501431472
  H         3.1856457168        0.6018240224        6.3852968178
  H        -3.1831668768        0.9624103982        8.1320209147
  H         1.2897482564       10.0805426045        8.4753594241
  H         1.2186210181        0.6515079190        9.5717448079
  H         1.1868850124        0.9131021317        7.8076111696
  C        -3.8769778505        7.9574196175       16.1185434781
  C        -6.2925195643       10.5513216473       18.2327014489
  C        -3.8661858875        2.2405088151       16.7550933522
  C        -3.2386147481       10.9061304258       13.8302858032
  C       -13.7398718776        7.7772091748       31.3309182262
  C       -11.3821888782       10.3315446400       29.5921807689
  C       -13.6502181376        1.9978840358       31.3232897471
  C         1.2341174763       10.6976247316        2.2061644523
  C       -10.7112483164       10.4175191478       28.2627498028
  C        -9.4402175418        0.2568557725       28.0490218226
  C        -8.9343184009        0.4065077697       26.7547785074
  C        -9.6323697105       -0.0987852019       25.6445443240
  C       -10.8926170548       10.0397437694       25.8688298537
  C       -11.4148130753        9.9074125709       27.1518471870
  C        -9.1485119762        0.1264062502       24.2472273212
  C        -8.4723245489        9.9828700076       23.5755589609
  C        -6.7538308216        0.0982734184       21.9462899079
  C        -7.9958973625       10.2042851601       22.1754302362
  C        -8.6823686464        9.6702640742       21.0708298061
  C        -8.1815600682        9.8192001163       19.7740753982
  C        -6.9620164642       10.4803351006       19.5588602227
  C        -6.2333047368        0.2284881920       20.6628755694
  C         0.6602914586       -0.0074886657        3.5655845477
  C         1.1015501564       10.0133748220        4.6361302600
  C         0.4304116252       10.0291784058        5.8572130514
  C        -0.6517082208        0.0728447879        6.0876762742
  C        -1.1104525925        0.8403807401        4.9938457620
  C        -0.4848640126        0.7822622883        3.7544211071
  C        -1.3413923857        0.1378011614        7.4068856148
  C        -0.6581041477        0.1685924274        8.5918334162
  C        -0.8789230632        0.9740716373       10.9833826920
  C        -1.3471870224        0.1787133282        9.9126981812
  C        -2.5222873252       10.1762724529       10.1678040364
  C        -3.1898260330       10.1924586057       11.3913447527
  C        -2.6557207119        0.1810438771       12.4488501429
  C        -1.5101870768        0.9575468886       12.2196468178
  C        -3.8975154447        6.5106470646       16.6179659306
  C        -4.9285804950        5.8671715748       17.3814521668
  C        -2.8575891164        5.7756357151       16.0656306324
  C        -5.9880018233        6.5461917485       18.0548332294
  C        -6.9764216185        5.8428901637       18.7051554659
  C        -3.8182669796        3.7218800237       16.8614244211
  C        -2.8060214699        4.3802710383       16.1951222868
  C        -4.8903285360        4.4277223536       17.4720947419
  C        -5.9328513543        3.7362848906       18.1497248281
  C        -6.9624997655        4.4354020005       18.7243992178
  C       -13.7150907234        6.2880609472       31.2396667890
  C       -12.6272865570        5.6208530138       30.5931540919
  C       -14.7289620923        5.5729967427       31.8514291703
  C       -11.5899057201        6.3238928871       29.9242812118
  C       -10.6197298623        5.6329967910       29.2430078155
  C       -13.6656033557        3.4865727251       31.2345535203
  C       -14.6992696980        4.1663284601       31.8555358599
  C       -12.6087963802        4.1835008821       30.5753530756
  C       -11.5747820522        3.5100765362       29.8628254291
  C       -10.6118836621        4.2253449858       29.1946444431
  C        -9.5562250407        1.4515167256       23.6540922409
  C        -8.0359439727        8.6673737690       24.1687292204
  C        -2.8273118848        0.2659456616        7.3624695005
  C         0.8303052160        0.2686775760        8.6207769250
  O        -2.9159422236        8.6872314345       16.6366865436
  O        -5.3045472566        8.6022170271       16.2199349506
  O        -6.9706316998       10.5473412576       17.0986427362
  O        -5.0100865056       -0.1712620874       18.1581785297
  O        -4.8311609938        1.8022815634       16.0437654449
  O        -2.9562838883        1.5684704595       17.3285862387
  O        -2.3919999224        0.4349174772       14.7649235761
  O        -4.4449416087       10.4772128358       14.0097928307
  O       -14.7942979056        8.3777871159       30.9277779747
  O       -12.6981742819        8.3129977365       31.8200321539
  O       -10.7030296932       10.3317319362       30.7325553513
  O       -12.6275277842       10.2578083523       29.6549519856
  O       -12.6355145442        1.4656893523       31.8716738032
  O       -14.6734057659        1.3921831117       30.8598399942
  O         0.4061217972       -0.0078738226        1.2572725457
  O         2.4905129436       10.5446701599        2.0622630350
  F        -7.9901200611        6.4798817680       19.3448960310
  F        -8.0014022068        3.7835013978       19.2927384660
  F        -9.6425806302        6.2953854028       28.5932670556
  F        -9.5957077274        3.6029230045       28.5441652723
  O        -5.6225293967        8.0473089979       14.8538794917
  C        -4.2764412599        7.8040533183       14.6028949255
  O        -3.8170294983        7.5105597621       13.5410866099
     123
 i =      138, E =      -996.1895264518
 Zn        -2.5190561789       10.6063047646       16.6529341392
 Zn        -5.2507596239       10.6942170269       15.8399775256
 Zn       -15.1489954528       10.2838422956       31.2302681622
 Zn         3.1831555101       10.5978742286        0.1148591416
  H        -8.9043769158        0.7280852891       28.8697096721
  H        -8.0156983153        0.9684427516       26.6033660532
  H       -11.4381396212        9.6150403140       25.0198972594
  H       -12.3608026113        9.3821477660       27.3184971430
  H        -6.2454742840        0.5451026974       22.7886933827
  H        -9.5987144785        9.0704725588       21.2340420702
  H        -8.7153411367        9.3059437105       18.9553353841
  H        -5.3172785379        0.7630547356       20.4896416241
  H         1.9663181187        9.3626480418        4.4955611491
  H         0.7733774556        9.3675281026        6.6530301974
  H        -1.9834955157        1.4801793417        5.1015959770
  H        -0.9002208011        1.3261335045        2.9098542377
  H        -0.0064172697        1.6023219779       10.8578876345
  H        -2.8974623904        9.4979903149        9.4206597729
  H        -4.0590482702        9.5592587785       11.5849400944
  H        -1.0994110967        1.5461209176       13.0572382755
  H        -6.0262078902        7.6433542191       18.0672361902
  H        -5.9221711915        2.6653703687       18.2058382743
  H        -1.9907421714        3.8054952607       15.7414192081
  H        -2.1049682052        6.2743276410       15.4398275746
  H       -11.5382642570        7.4029261537       29.9353091633
  H       -11.5409661968        2.4193717290       29.8230079215
  H         0.0945570992        3.9288679537        0.4264401100
  H         0.0364357596        6.4290085590        0.4112325545
  H        -9.1818810561        1.5774327909       22.6282615427
  H        -9.1618674612        2.2842753407       24.2664907276
  H       -10.6449375243        1.5650312888       23.6498109721
  H        -6.9607652981        8.5700395358       24.1430811181
  H        -8.4333330110        7.8121541767       23.5499163257
  H        -8.4014480360        8.5162536225       25.1908925629
  H        -3.3824018813       10.1198517733        7.5801784644
  H         3.1800098591        0.5875303726        6.3843398633
  H        -3.1842625229        0.9945952116        8.1128780182
  H         1.2785119992       10.0907108830        8.4777264042
  H         1.1988706107        0.6221590575        9.6072903766
  H         1.1824217262        0.9373456877        7.8537309078
  C        -3.8799048438        7.9457545216       16.0584797179
  C        -6.2953763796       10.5105385703       18.2274733158
  C        -3.8754041407        2.2488981911       16.7772224437
  C        -3.2083165710       10.9073406088       13.8622759946
  C       -13.7403524188        7.7740587132       31.3269636692
  C       -11.3827043811       10.3305761995       29.5917452543
  C       -13.6483618443        1.9952263980       31.3237693419
  C         1.2316084088       10.6933699143        2.2083522856
  C       -10.7132311985       10.4169061644       28.2621655594
  C        -9.4522830736        0.2745394609       28.0461319424
  C        -8.9504451404        0.4240513573       26.7505088748
  C        -9.6404199571       -0.0986899280       25.6437493738
  C       -10.8905891094       10.0223050816       25.8716421452
  C       -11.4110672165        9.8905980186       27.1554543823
  C        -9.1524623875        0.1251738353       24.2484587185
  C        -8.4838299835        9.9775825262       23.5743457630
  C        -6.7771267035        0.1109840688       21.9398273565
  C        -8.0061438899       10.1971285431       22.1744039474
  C        -8.6817833292        9.6421479862       21.0741247331
  C        -8.1855895967        9.7957337958       19.7758481342
  C        -6.9703844542       10.4601491741       19.5547172101
  C        -6.2576091904        0.2390894724       20.6547698234
  C         0.6552946137       -0.0166845072        3.5677384916
  C         1.1037386719       10.0133670250        4.6422366178
  C         0.4328259978       10.0344965145        5.8640179456
  C        -0.6530365030        0.0747109989        6.0949188319
  C        -1.1175545107        0.8288535296        4.9935963820
  C        -0.4945112667        0.7665488682        3.7527466718
  C        -1.3453015649        0.1430572600        7.4149496822
  C        -0.6694259284        0.1649813790        8.6050381767
  C        -0.8759131171        0.9615134778       10.9951370470
  C        -1.3587613834        0.1712314729        9.9273463180
  C        -2.5362356620       10.1737891182       10.1923542839
  C        -3.1853607768       10.1914108903       11.4270342297
  C        -2.6348372970        0.1789205284       12.4789469506
  C        -1.4952664978        0.9524201375       12.2358301067
  C        -3.8918483846        6.5123533056       16.5960925771
  C        -4.9242293010        5.8765103776       17.3655157979
  C        -2.8462395144        5.7715754439       16.0624222104
  C        -5.9807597510        6.5575088552       18.0451123255
  C        -6.9543468809        5.8564580301       18.7272047085
  C        -3.8146805927        3.7307773654       16.8604180596
  C        -2.7884429112        4.3790967553       16.2078142286
  C        -4.8934299788        4.4380031293       17.4582422116
  C        -5.9379841678        3.7521441832       18.1387616886
  C        -6.9614058191        4.4466734450       18.7257718444
  C       -13.7155538383        6.2839556717       31.2371073075
  C       -12.6234631581        5.6169255827       30.5954940220
  C       -14.7289834343        5.5691140393       31.8496318097
  C       -11.5874646494        6.3168745200       29.9219679451
  C       -10.6155926272        5.6319252391       29.2362446164
  C       -13.6610047133        3.4831467481       31.2359066752
  C       -14.6946815267        4.1625742673       31.8558622674
  C       -12.6056289162        4.1792703492       30.5732067971
  C       -11.5729689174        3.5043427432       29.8588466185
  C       -10.6057560686        4.2244086726       29.2024061676
  C        -9.5481429677        1.4537667905       23.6546278932
  C        -8.0610350234        8.6521753427       24.1568713543
  C        -2.8309866406        0.2753353762        7.3649521987
  C         0.8188546280        0.2688420902        8.6427636814
  O        -2.9389826881        8.6960809438       16.5784003730
  O        -5.3365902209        8.5918200937       16.1188942340
  O        -6.9691145233       10.5443643870       17.0992485878
  O        -5.0009332292       -0.2640365005       18.1662150667
  O        -4.8434514040        1.8081047686       16.0740619206
  O        -2.9608755077        1.5777790114       17.3425625022
  O        -2.3743889079        0.4959491529       14.7852533684
  O        -4.4027154809       10.4890210152       14.0438049173
  O       -14.7943988972        8.3772847170       30.9260627152
  O       -12.6979659574        8.3088889298       31.8152745488
  O       -10.7041214265       10.3310638350       30.7323427100
  O       -12.6278271695       10.2572909339       29.6543572931
  O       -12.6342899661        1.4625548691       31.8722813904
  O       -14.6721650352        1.3910777655       30.8585249921
  O         0.4058646290       -0.0075326407        1.2576995153
  O         2.4887444382       10.5443778462        2.0645338461
  F        -7.9270438564        6.4777819623       19.4569637050
  F        -7.9926391649        3.7783825902       19.2972000760
  F        -9.6423850557        6.3023481778       28.5873992118
  F        -9.6031147225        3.5964913644       28.5366352223
  O        -5.5991389023        7.9692238245       14.7743173341
  C        -4.2583357720        7.7439738468       14.5547040204
  O        -3.7787331115        7.4120910744       13.5065548574
     123
 i =      139, E =      -996.1921789800
 Zn        -2.5199914620       10.5890666437       16.6438938189
 Zn        -5.2887569855       10.6926241600       15.8245057422
 Zn       -15.1490126643       10.2832475964       31.2300140692
 Zn         3.1812240786       10.5985201096        0.1161995347
  H        -8.8925918827        0.7011776529       28.8741728108
  H        -8.0015201241        0.9410505856       26.6106827096
  H       -11.4481381661        9.6394909244       25.0190847105
  H       -12.3710304151        9.4039431092       27.3162649547
  H        -6.2185098154        0.5209026735       22.7938857240
  H        -9.6065453738        9.1098454412       21.2309846506
  H        -8.7217674083        9.3420973529       18.9547042335
  H        -5.2943725409        0.7423593833       20.4942156063
  H         1.9668204211        9.3625236809        4.4924119163
  H         0.7709177544        9.3660365570        6.6512385910
  H        -1.9688738199        1.4979170213        5.1075290439
  H        -0.8833497523        1.3463749195        2.9143966849
  H        -0.0170573988        1.6126214495       10.8456097305
  H        -2.8892419408        9.4887454898        9.4088493921
  H        -4.0530350025        9.5456529652       11.5761145243
  H        -1.1021898407        1.5534055547       13.0463928071
  H        -6.0399913921        7.6394620216       18.0612620042
  H        -5.9385702274        2.6635600010       18.1902005825
  H        -1.9898802149        3.8086485169       15.7376643801
  H        -2.1006412649        6.2803936678       15.4578567880
  H       -11.5405649010        7.4060665632       29.9338615323
  H       -11.5299750267        2.4211265572       29.8382741163
  H         0.0861870243        3.9280359437        0.4146745796
  H         0.0311030225        6.4289098395        0.4007451925
  H        -9.1971104792        1.5750669897       22.6289904253
  H        -9.1694081976        2.2849415115       24.2654560394
  H       -10.6528227960        1.5576607918       23.6592963733
  H        -6.9444058787        8.5809144948       24.1454079849
  H        -8.4194716586        7.8191696189       23.5635257993
  H        -8.3816546527        8.5325917905       25.2006444709
  H        -3.3749305821       10.0997937144        7.5354579671
  H         3.1843151186        0.6042101515        6.3832000646
  H        -3.1902143075        0.9544335693        8.1197692191
  H         1.2806942423       10.0903034433        8.5051365596
  H         1.1946811668        0.6555721440        9.5905299401
  H         1.1873347256        0.9146781792        7.8350105505
  C        -3.8818856648        7.9491832120       16.0871704396
  C        -6.2841656158       10.5205405486       18.2393388629
  C        -3.8691766803        2.2476473826       16.7620424657
  C        -3.2279546882       10.9062706104       13.8356869406
  C       -13.7379108198        7.7756802470       31.3240788628
  C       -11.3832722061       10.3282233210       29.5936438137
  C       -13.6478907374        1.9959292046       31.3255942383
  C         1.2329350865       10.6950469070        2.2075540336
  C       -10.7141027277       10.4148717562       28.2641406840
  C        -9.4468464911        0.2589515222       28.0495951993
  C        -8.9419170929        0.4074148345       26.7551907163
  C        -9.6380740401       -0.0971129745       25.6454965093
  C       -10.8942360833       10.0343887572       25.8715700646
  C       -11.4167568734        9.9037022350       27.1546208074
  C        -9.1509430063        0.1246447194       24.2487496749
  C        -8.4747949473        9.9811269918       23.5771917215
  C        -6.7590664075        0.1006454906       21.9450782181
  C        -7.9973956789       10.2043927675       22.1774486294
  C        -8.6823639920        9.6675314754       21.0752528997
  C        -8.1822641309        9.8107222298       19.7779895710
  C        -6.9608732745       10.4650445310       19.5614957783
  C        -6.2378430250        0.2239619139       20.6615212719
  C         0.6607797104       -0.0107090194        3.5678465201
  C         1.1028433957       10.0116680505        4.6391096503
  C         0.4330376297       10.0333748188        5.8612370013
  C        -0.6497979126        0.0768776285        6.0907676357
  C        -1.1098000207        0.8390656394        4.9939733087
  C        -0.4855609993        0.7774912796        3.7540032378
  C        -1.3437087959        0.1394173227        7.4086845655
  C        -0.6677579492        0.1639705119        8.5979752380
  C        -0.8813896041        0.9659374064       10.9852867431
  C        -1.3611418740        0.1742150448        9.9173631913
  C        -2.5294561283       10.1661981066       10.1795764271
  C        -3.1837271861       10.1816151621       11.4100761405
  C        -2.6385968848        0.1741666842       12.4585024945
  C        -1.4986753646        0.9550028132       12.2281585573
  C        -3.8954705171        6.5116378616       16.5975796127
  C        -4.9317898541        5.8800857500       17.3604463820
  C        -2.8507865052        5.7717679423       16.0622790656
  C        -5.9874796674        6.5553771464       18.0475781526
  C        -6.9496981099        5.8453335295       18.7320734705
  C        -3.8214859816        3.7300616022       16.8530076728
  C        -2.7924802599        4.3785054940       16.2029848745
  C        -4.8996459908        4.4422258642       17.4513533661
  C        -5.9406615308        3.7494589278       18.1291163350
  C        -6.9628503558        4.4370904318       18.7275623444
  C       -13.7144183373        6.2855784521       31.2374162918
  C       -12.6229939336        5.6191840958       30.5949508665
  C       -14.7291057220        5.5701152701       31.8470751635
  C       -11.5883549873        6.3203828132       29.9204042726
  C       -10.6220226798        5.6323405900       29.2308789026
  C       -13.6602579852        3.4841236172       31.2405345609
  C       -14.6986462294        4.1634750193       31.8524662664
  C       -12.6053925838        4.1811671553       30.5777798261
  C       -11.5697465507        3.5066317429       29.8679912594
  C       -10.6053662659        4.2251958946       29.2056708999
  C        -9.5556887664        1.4515595120       23.6578648266
  C        -8.0441506748        8.6614324541       24.1651627749
  C        -2.8299499770        0.2641469087        7.3542312837
  C         0.8204007945        0.2722231935        8.6391144148
  O        -2.9362383525        8.6893026102       16.6045741390
  O        -5.3300865370        8.5803708677       16.1608176591
  O        -6.9604626630       10.5455639052       17.1060324772
  O        -4.9963967369       -0.2353967064       18.1785057713
  O        -4.8465097936        1.8002173908       16.0780134813
  O        -2.9540701996        1.5723899462       17.3315988657
  O        -2.3889402090        0.4424586517       14.7666104742
  O        -4.4302935605       10.5183631032       14.0162226748
  O       -14.7952566730        8.3762088200       30.9280397616
  O       -12.6972951622        8.3098350448       31.8170016952
  O       -10.7034648372       10.3323123838       30.7335864756
  O       -12.6286172657       10.2585118473       29.6553368611
  O       -12.6334218785        1.4630263611       31.8732303384
  O       -14.6718964474        1.3920159675       30.8606004499
  O         0.4060890637       -0.0090053873        1.2578162998
  O         2.4897046469       10.5428841279        2.0638189769
  F        -7.9501806591        6.4722441369       19.4035257905
  F        -7.9973938179        3.7757000115       19.3010418003
  F        -9.6377610495        6.3040787478       28.5990373207
  F        -9.6057927600        3.6074841219       28.5283368361
  O        -5.6138995538        8.0360858606       14.8059531602
  C        -4.2483008356        7.7841901671       14.5712561405
  O        -3.7804459420        7.4593309500       13.5206055753
     123
 i =      140, E =      -996.1929554415
 Zn        -2.5198456633       10.5835810635       16.6383412942
 Zn        -5.2801309450       10.6739280280       15.8423665067
 Zn       -15.1489286666       10.2831914248       31.2293266317
 Zn         3.1805007684       10.6002317864        0.1167236118
  H        -8.8985522568        0.7148628277       28.8715630138
  H        -8.0067563996        0.9517960391       26.6076063459
  H       -11.4434908466        9.6253468363       25.0197259769
  H       -12.3661044156        9.3946977865       27.3174252498
  H        -6.2282172877        0.5357729394       22.7898659251
  H        -9.6046953590        9.0950443802       21.2261169267
  H        -8.7171464596        9.3252712846       18.9502592192
  H        -5.3027421658        0.7529165243       20.4891133156
  H         1.9673954035        9.3663318460        4.4961525024
  H         0.7734158860        9.3678597433        6.6554162827
  H        -1.9763099722        1.4916694007        5.1084317286
  H        -0.8909413082        1.3388792618        2.9157936133
  H        -0.0096629689        1.6128115343       10.8468200202
  H        -2.8961675308        9.4963766067        9.4112642719
  H        -4.0522711053        9.5516027686       11.5851724296
  H        -1.0917676392        1.5552638294       13.0492774342
  H        -6.0389996883        7.6415783318       18.0643693686
  H        -5.9398981426        2.6635484456       18.1919120629
  H        -1.9932688279        3.8108552247       15.7343749906
  H        -2.1004584544        6.2801211198       15.4614675143
  H       -11.5382257586        7.4088084437       29.9381201124
  H       -11.5346926387        2.4212563699       29.8298980222
  H         0.0868788395        3.9280042478        0.4173624893
  H         0.0324453482        6.4284957075        0.4030726108
  H        -9.1904533199        1.5767003523       22.6288706580
  H        -9.1651418526        2.2846260820       24.2666919420
  H       -10.6488469142        1.5598470554       23.6552327313
  H        -6.9518186069        8.5746820113       24.1449698553
  H        -8.4273351629        7.8164162411       23.5574923463
  H        -8.3941957131        8.5293444781       25.1952726395
  H        -3.3817783728       10.1036650204        7.5629847808
  H         3.1834948616        0.5930863301        6.3784687599
  H        -3.1871836588        0.9766241374        8.1208377511
  H         1.2843593793       10.0837456312        8.4854903690
  H         1.1990433300        0.6390889124        9.6011772756
  H         1.1853195004        0.9271085483        7.8426450998
  C        -3.8726384912        7.9485278792       16.0854001403
  C        -6.2890402392       10.5163037160       18.2413845931
  C        -3.8741944484        2.2425417805       16.7732691819
  C        -3.2289145071       10.9106825394       13.8320917539
  C       -13.7370808676        7.7765703880       31.3269576073
  C       -11.3839909256       10.3293692412       29.5942937751
  C       -13.6478655239        1.9963030511       31.3256131451
  C         1.2317706171       10.6930666153        2.2079512535
  C       -10.7148288292       10.4155545891       28.2642118879
  C        -9.4504969726        0.2658176193       28.0481050015
  C        -8.9452893531        0.4152592336       26.7535612633
  C        -9.6373861756       -0.0987486569       25.6440639126
  C       -10.8915975813       10.0288193062       25.8708861982
  C       -11.4139103954        9.8986116278       27.1544715637
  C        -9.1520138142        0.1230197439       24.2458714441
  C        -8.4795145727        9.9771534470       23.5727773515
  C        -6.7669001988        0.1080137485       21.9424983658
  C        -8.0015654195       10.2024860609       22.1731578418
  C        -8.6835346717        9.6581512197       21.0712804008
  C        -8.1801477897        9.7951370248       19.7748450421
  C        -6.9620650680       10.4597590833       19.5623209991
  C        -6.2411181100        0.2236279795       20.6603322547
  C         0.6591276617       -0.0120217445        3.5685722708
  C         1.1000815892       10.0116291672        4.6413839835
  C         0.4329817877       10.0332277426        5.8650093532
  C        -0.6514002947        0.0749943562        6.0929275991
  C        -1.1161489185        0.8337238310        4.9951943356
  C        -0.4913332178        0.7710538022        3.7554152154
  C        -1.3450235922        0.1366497223        7.4109128507
  C        -0.6670707503        0.1646619316        8.5995269358
  C        -0.8762479579        0.9686448816       10.9865207755
  C        -1.3598075613        0.1772317287        9.9192927768
  C        -2.5291379009       10.1706699319       10.1814096619
  C        -3.1812222071       10.1834315533       11.4117357209
  C        -2.6386748428        0.1794168473       12.4567406299
  C        -1.4882099853        0.9530912237       12.2328906981
  C        -3.8980901783        6.5134161485       16.5994068328
  C        -4.9332186784        5.8837737933       17.3632049567
  C        -2.8535781824        5.7727493841       16.0639311900
  C        -5.9818547826        6.5585118414       18.0612857738
  C        -6.9422608892        5.8411293537       18.7382487459
  C        -3.8238590210        3.7271818122       16.8543387155
  C        -2.7964440761        4.3784033610       16.2033646975
  C        -4.8966571369        4.4461729403       17.4556393639
  C        -5.9344401034        3.7485692363       18.1318972536
  C        -6.9550949977        4.4339593049       18.7357430685
  C       -13.7126557568        6.2867693689       31.2393682864
  C       -12.6256713057        5.6198882824       30.5911104272
  C       -14.7259731028        5.5710222183       31.8510033522
  C       -11.5906253058        6.3237885617       29.9201675916
  C       -10.6243978170        5.6347966262       29.2338515569
  C       -13.6618742190        3.4844343436       31.2397756925
  C       -14.6980120770        4.1643571032       31.8554387690
  C       -12.6077918333        4.1820345856       30.5776698455
  C       -11.5743537296        3.5073981832       29.8666708553
  C       -10.6156392101        4.2279926122       29.1990781310
  C        -9.5515633562        1.4528428714       23.6570389506
  C        -8.0514502022        8.6570277003       24.1612259885
  C        -2.8317008283        0.2688682857        7.3611269703
  C         0.8216464056        0.2696245400        8.6414384683
  O        -2.9402547830        8.6964734180       16.6159380181
  O        -5.3330140748        8.5629531011       16.1377725187
  O        -6.9619985895       10.5444540712       17.1038795259
  O        -5.0046710977       -0.2588427920       18.1693921247
  O        -4.8456217608        1.7903475133       16.0786847887
  O        -2.9610879618        1.5670786829       17.3487459982
  O        -2.3939912972        0.4694664684       14.7687519427
  O        -4.4284146278       10.4766836033       14.0281401427
  O       -14.7944830953        8.3759565382       30.9293735580
  O       -12.6963725834        8.3123472053       31.8182651230
  O       -10.7026152845       10.3328058155       30.7335462983
  O       -12.6293296081       10.2583467072       29.6564316072
  O       -12.6331251772        1.4644613735       31.8737271927
  O       -14.6722683713        1.3924173680       30.8620937985
  O         0.4056005363       -0.0098522952        1.2578291501
  O         2.4888345808       10.5426099341        2.0636888092
  F        -7.9339833133        6.4753671922       19.4089694712
  F        -8.0048483013        3.7828025857       19.2957988823
  F        -9.6372171803        6.2996242534       28.6000536621
  F        -9.6076186792        3.6122894176       28.5370334027
  O        -5.6124397993        7.9922660199       14.7918312031
  C        -4.2432529974        7.7721156328       14.5556209792
  O        -3.7652301251        7.4437884528       13.5074963870
     123
 i =      141, E =      -996.1934997401
 Zn        -2.5201343287       10.5717321012       16.6331576020
 Zn        -5.2855930192       10.6589806757       15.8423464455
 Zn       -15.1492051975       10.2834644177       31.2295585931
 Zn         3.1805389661       10.6001368778        0.1176657634
  H        -8.8973273747        0.7063423648       28.8743907319
  H        -8.0054929010        0.9460575003       26.6111797978
  H       -11.4479395380        9.6318658573       25.0199312224
  H       -12.3703099351        9.3985800857       27.3174451742
  H        -6.2213166428        0.5307444899       22.7906488939
  H        -9.6078190509        9.1068501457       21.2272610492
  H        -8.7208953769        9.3339577930       18.9519998157
  H        -5.2953163840        0.7411485525       20.4901365799
  H         1.9682733209        9.3658156792        4.4970707725
  H         0.7747421768        9.3722857169        6.6578143317
  H        -1.9703944443        1.4981226172        5.1083688540
  H        -0.8849438729        1.3427705693        2.9154517390
  H        -0.0114484359        1.6148101300       10.8348455264
  H        -2.8967715069        9.4872368493        9.4160438709
  H        -4.0408713744        9.5444386134       11.6006632203
  H        -1.0805997659        1.5581232998       13.0426928597
  H        -6.0411683526        7.6413135333       18.0670374470
  H        -5.9537922593        2.6618778258       18.1715619126
  H        -1.9829420201        3.8113147004       15.7524967501
  H        -2.0991070285        6.2784716967       15.4630464885
  H       -11.5432924161        7.4088581120       29.9329613041
  H       -11.5209575967        2.4209806637       29.8474359498
  H         0.0831264063        3.9263770456        0.4104003581
  H         0.0279081182        6.4273277632        0.3955184092
  H        -9.1955909309        1.5766657903       22.6304839546
  H        -9.1671121114        2.2840180254       24.2689017302
  H       -10.6516069015        1.5580287409       23.6609592985
  H        -6.9501633281        8.5738797974       24.1453604583
  H        -8.4275581998        7.8184352160       23.5591707020
  H        -8.3920646672        8.5315052793       25.1964526323
  H        -3.3791698731       10.0924247838        7.5408898577
  H         3.1858373399        0.5984478576        6.3743748033
  H        -3.1935026122        0.9596816601        8.1206325260
  H         1.2837771883       10.0840205008        8.5052240730
  H         1.1897191764        0.6512951925        9.6023636676
  H         1.1850859594        0.9209107621        7.8426406618
  C        -3.8716067374        7.9424577747       16.0848159701
  C        -6.2818200557       10.5057981782       18.2441969996
  C        -3.8776368424        2.2358735726       16.7822242316
  C        -3.2339871432       10.9047836078       13.8255903856
  C       -13.7375684993        7.7758111055       31.3273333147
  C       -11.3843983690       10.3284716376       29.5951706517
  C       -13.6485766006        1.9966448398       31.3303813250
  C         1.2325207872       10.6924150774        2.2078980687
  C       -10.7158189330       10.4131330811       28.2651308878
  C        -9.4502946637        0.2605047307       28.0500792248
  C        -8.9448203270        0.4111211706       26.7558339231
  C        -9.6381373450       -0.1005715447       25.6460413261
  C       -10.8946950978       10.0317793011       25.8717330885
  C       -11.4168288699        9.8998177644       27.1552064150
  C        -9.1517486937        0.1239607408       24.2483906626
  C        -8.4785038640        9.9786682492       23.5748675986
  C        -6.7614826205        0.1023345287       21.9439041546
  C        -7.9999838534       10.2058110569       22.1753148324
  C        -8.6833987113        9.6622906899       21.0731605503
  C        -8.1800277421        9.8003931165       19.7768046110
  C        -6.9561002911       10.4520833757       19.5640340480
  C        -6.2358660753        0.2178634945       20.6617155004
  C         0.6605260979       -0.0127782343        3.5685961319
  C         1.1020594053       10.0124079130        4.6423544080
  C         0.4341259636       10.0352241042        5.8654051814
  C        -0.6496278165        0.0775784437        6.0919196339
  C        -1.1119496687        0.8379267155        4.9946585977
  C        -0.4869452309        0.7741287704        3.7552038774
  C        -1.3462728426        0.1355403626        7.4079298036
  C        -0.6706418315        0.1661950901        8.5973291464
  C        -0.8763050273        0.9693849641       10.9805615931
  C        -1.3617426584        0.1741147184        9.9171155866
  C        -2.5272829182       10.1634327821       10.1835324119
  C        -3.1751492043       10.1798807406       11.4155007584
  C        -2.6388453923        0.1843505365       12.4546774021
  C        -1.4828805341        0.9535353582       12.2300191754
  C        -3.9057896999        6.5087891204       16.5896525548
  C        -4.9368278439        5.8800792446       17.3611027049
  C        -2.8553758504        5.7705785606       16.0622199164
  C        -5.9817126157        6.5587018045       18.0614878347
  C        -6.9351086919        5.8410028242       18.7471234857
  C        -3.8270510393        3.7221672489       16.8506735598
  C        -2.7956295527        4.3767797916       16.2084941771
  C        -4.9040047593        4.4424545232       17.4445728674
  C        -5.9395417458        3.7464930127       18.1246599843
  C        -6.9559683302        4.4343825547       18.7334097061
  C       -13.7138603214        6.2859700763       31.2383106263
  C       -12.6259405874        5.6202232825       30.5914583093
  C       -14.7272826591        5.5697180088       31.8490410432
  C       -11.5940878796        6.3236062393       29.9152243526
  C       -10.6231096835        5.6349135122       29.2363875224
  C       -13.6593353835        3.4842585602       31.2410401130
  C       -14.6982800429        4.1630764820       31.8539015100
  C       -12.6032388637        4.1823454183       30.5830062537
  C       -11.5670407076        3.5074744438       29.8770172119
  C       -10.6164286867        4.2271924869       29.1966511571
  C        -9.5543752608        1.4524587336       23.6593802870
  C        -8.0495538690        8.6584402284       24.1622819990
  C        -2.8333124341        0.2625614366        7.3545422770
  C         0.8185224813        0.2703351000        8.6448111535
  O        -2.9448191832        8.6918668745       16.6276283397
  O        -5.3299024977        8.5501932239       16.1410480648
  O        -6.9567724900       10.5428144473       17.1050160694
  O        -4.9997438023       -0.2802635132       18.1742711171
  O        -4.8574703665        1.7800727915       16.0995179713
  O        -2.9532054272        1.5620208301       17.3416642042
  O        -2.3977438502        0.4423574148       14.7635822076
  O        -4.4406975999       10.5018477986       14.0221588706
  O       -14.7942677226        8.3762162372       30.9293398995
  O       -12.6959582474        8.3119114292       31.8165470729
  O       -10.7023534904       10.3325480608       30.7339413474
  O       -12.6297316274       10.2578079158       29.6583438817
  O       -12.6319007255        1.4636121041       31.8734678130
  O       -14.6711044516        1.3930044614       30.8620079246
  O         0.4056417271       -0.0105558487        1.2584868269
  O         2.4894262375       10.5417103461        2.0634883181
  F        -7.9062034361        6.4800915601       19.4407733202
  F        -7.9953742398        3.7750804755       19.3001150782
  F        -9.6451532587        6.3050327157       28.5938745433
  F        -9.6071012998        3.5998379337       28.5490844007
  O        -5.6048045097        8.0066933381       14.7901598192
  C        -4.2470733728        7.7756339825       14.5526528562
  O        -3.7784146775        7.4357592139       13.5037851608
     123
 i =      142, E =      -996.1942772632
 Zn        -2.5191754193       10.5766089265       16.6341200955
 Zn        -5.2822596198       10.6634337442       15.8415473902
 Zn       -15.1498569997       10.2837677188       31.2300805060
 Zn         3.1805870251       10.5991237646        0.1191033310
  H        -8.8965329703        0.7034126446       28.8755791728
  H        -8.0048360177        0.9432468943       26.6123179612
  H       -11.4495729231        9.6344266139       25.0199065714
  H       -12.3727574798        9.4003603525       27.3171983261
  H        -6.2194730130        0.5289985798       22.7919379486
  H        -9.6097650661        9.1115073757       21.2284819891
  H        -8.7210494865        9.3366530312       18.9532993804
  H        -5.2919266651        0.7355185154       20.4918861419
  H         1.9692373617        9.3649822248        4.4974596398
  H         0.7746970452        9.3738626518        6.6577742418
  H        -1.9675085927        1.4991867196        5.1091653510
  H        -0.8834459323        1.3451494707        2.9154454312
  H        -0.0163526672        1.6148198942       10.8322114796
  H        -2.8940172550        9.4849637968        9.4142778456
  H        -4.0380930443        9.5392722471       11.5993839093
  H        -1.0808838927        1.5538634596       13.0408873720
  H        -6.0411760796        7.6388923163       18.0703074708
  H        -5.9555427963        2.6613616744       18.1608962677
  H        -1.9797276443        3.8088673782       15.7549006074
  H        -2.0940828683        6.2775414819       15.4670057368
  H       -11.5446252810        7.4072409138       29.9317675760
  H       -11.5188141174        2.4218893733       29.8529315754
  H         0.0812568726        3.9267892452        0.4076859612
  H         0.0259860229        6.4285083334        0.3944517021
  H        -9.1974243208        1.5765912265       22.6309752114
  H        -9.1679117388        2.2832322630       24.2694219492
  H       -10.6527039005        1.5578008062       23.6630241036
  H        -6.9504105604        8.5739607720       24.1451381736
  H        -8.4272275441        7.8185124075       23.5597668799
  H        -8.3903999406        8.5319484870       25.1961162802
  H        -3.3781047516       10.0904080717        7.5309850252
  H         3.1857076664        0.6009267042        6.3770445039
  H        -3.1955299279        0.9514631027        8.1194044160
  H         1.2812222242       10.0873302678        8.5161812800
  H         1.1856192145        0.6543910065        9.6013740931
  H         1.1876922040        0.9180225552        7.8425679107
  C        -3.8768558504        7.9407060475       16.0857158429
  C        -6.2810575115       10.4998015140       18.2420050873
  C        -3.8778263384        2.2364212148       16.7792990974
  C        -3.2332822929       10.9031228551       13.8316599348
  C       -13.7388128674        7.7758639639       31.3274465285
  C       -11.3841563029       10.3286029707       29.5949114134
  C       -13.6467713894        1.9967723127       31.3264653920
  C         1.2322846119       10.6924459576        2.2086074752
  C       -10.7158566501       10.4133558584       28.2649049923
  C        -9.4495220762        0.2591625524       28.0506861721
  C        -8.9444822564        0.4081896562       26.7562190277
  C        -9.6396787775       -0.1006554244       25.6468588033
  C       -10.8963371114       10.0316403683       25.8724755800
  C       -11.4185163795        9.9002049448       27.1558768016
  C        -9.1517870873        0.1245580825       24.2501606899
  C        -8.4766270545        9.9818044942       23.5762277781
  C        -6.7590614625        0.1007004908       21.9446672389
  C        -7.9977641697       10.2033679860       22.1761018209
  C        -8.6836493878        9.6648412072       21.0740577924
  C        -8.1802449199        9.8044660488       19.7780751763
  C        -6.9542480145       10.4500714518       19.5633452470
  C        -6.2346142355        0.2172961766       20.6616879537
  C         0.6595947470       -0.0138723870        3.5691319370
  C         1.1044571912       10.0131045077        4.6428946460
  C         0.4342483802       10.0360070093        5.8646452590
  C        -0.6507395241        0.0763242851        6.0921193537
  C        -1.1092241879        0.8387546824        4.9951573911
  C        -0.4854209729        0.7762701020        3.7551550220
  C        -1.3461835411        0.1383927561        7.4084026521
  C        -0.6715687132        0.1638761639        8.5980100446
  C        -0.8780832964        0.9661432669       10.9814581727
  C        -1.3625642356        0.1719148627        9.9172304358
  C        -2.5280988771       10.1608607896       10.1833593665
  C        -3.1772599686       10.1807442136       11.4155441216
  C        -2.6387352360        0.1786336756       12.4595014423
  C        -1.4918153477        0.9563915643       12.2271676094
  C        -3.9011461464        6.5059074242       16.5914056616
  C        -4.9343704087        5.8747535522       17.3587221282
  C        -2.8522707707        5.7677788957       16.0623206595
  C        -5.9793159842        6.5559308450       18.0566348693
  C        -6.9355992995        5.8473877964       18.7491755220
  C        -3.8263383677        3.7219440446       16.8486536938
  C        -2.7935014339        4.3743933034       16.2074686194
  C        -4.9060198682        4.4363758823       17.4422888745
  C        -5.9467939474        3.7469705353       18.1214225572
  C        -6.9562608310        4.4404179140       18.7346622808
  C       -13.7149665101        6.2859551130       31.2376594771
  C       -12.6249729822        5.6201375003       30.5941025540
  C       -14.7301736226        5.5704033980       31.8463786070
  C       -11.5918948155        6.3214779896       29.9166614679
  C       -10.6242807273        5.6346315843       29.2286255038
  C       -13.6588073638        3.4850221327       31.2431969437
  C       -14.6997191969        4.1637429859       31.8522901384
  C       -12.6029012780        4.1818363980       30.5824239809
  C       -11.5662770280        3.5081457679       29.8744162587
  C       -10.6069356323        4.2267755865       29.2043146504
  C        -9.5556150574        1.4518125817       23.6599930890
  C        -8.0498630593        8.6596812908       24.1615376133
  C        -2.8328479279        0.2594444187        7.3522941780
  C         0.8171332161        0.2709493855        8.6441358196
  O        -2.9529449423        8.6933167189       16.6228308176
  O        -5.3355877297        8.5503959512       16.1411305981
  O        -6.9585344681       10.5414148490       17.1039014627
  O        -4.9984589574       -0.2795831345       18.1741949261
  O        -4.8623335827        1.7868895598       16.0997819693
  O        -2.9554301644        1.5643415904       17.3436423681
  O        -2.3929355983        0.4427970792       14.7667929513
  O        -4.4393996343       10.5037801665       14.0182798473
  O       -14.7947413358        8.3769459362       30.9282993776
  O       -12.6966498784        8.3110168524       31.8164192197
  O       -10.7030885188       10.3318616984       30.7341593937
  O       -12.6293344824       10.2576536120       29.6581325429
  O       -12.6332477028        1.4629270982       31.8748711266
  O       -14.6716822494        1.3934006651       30.8630609366
  O         0.4057370627       -0.0091200047        1.2590140612
  O         2.4893521172       10.5426191942        2.0645710531
  F        -7.9199179440        6.4772742795       19.4337605490
  F        -7.9950369920        3.7805602024       19.3014429607
  F        -9.6354386835        6.3042973451       28.6003417301
  F        -9.6062597172        3.6055774698       28.5339986899
  O        -5.6011057705        8.0166138012       14.7884323661
  C        -4.2377269729        7.7723099808       14.5518907910
  O        -3.7677799118        7.4370005143       13.5051354797
     123
 i =      143, E =      -996.1943599747
 Zn        -2.5196146324       10.5758932086       16.6372569349
 Zn        -5.2821567570       10.6650451823       15.8404932356
 Zn       -15.1495504561       10.2841334881       31.2297809063
 Zn         3.1804082223       10.5989235606        0.1187326396
  H        -8.8957031944        0.7023130841       28.8758973010
  H        -8.0035558439        0.9415596590       26.6127636892
  H       -11.4496577422        9.6355431383       25.0196857695
  H       -12.3733979589        9.4013196900       27.3166985541
  H        -6.2184832541        0.5270774215       22.7922282356
  H        -9.6115503759        9.1141249660       21.2277460798
  H        -8.7212655909        9.3371222794       18.9531255823
  H        -5.2889088457        0.7330682563       20.4932985126
  H         1.9701269225        9.3661073484        4.4976644748
  H         0.7748576517        9.3742703837        6.6576347441
  H        -1.9667294719        1.5007144365        5.1091788972
  H        -0.8821225127        1.3470385622        2.9154922198
  H        -0.0165443648        1.6149600246       10.8325758733
  H        -2.8908742596        9.4851565356        9.4129307846
  H        -4.0386822367        9.5378881505       11.5951193076
  H        -1.0837823040        1.5558979958       13.0407754269
  H        -6.0371174467        7.6360982298       18.0705188090
  H        -5.9603003990        2.6576326979       18.1600357311
  H        -1.9797835697        3.8040971627       15.7561352960
  H        -2.0950799979        6.2730605630       15.4662004765
  H       -11.5458452558        7.4073831148       29.9309400968
  H       -11.5176874972        2.4215287098       29.8556765899
  H         0.0809270705        3.9274823354        0.4076254597
  H         0.0254171123        6.4288338350        0.3951492933
  H        -9.1985177132        1.5766910456       22.6316825325
  H        -9.1684682260        2.2837710084       24.2697404160
  H       -10.6533758323        1.5575067272       23.6639309049
  H        -6.9499167557        8.5748759848       24.1455827336
  H        -8.4270809496        7.8189469814       23.5605775335
  H        -8.3903027524        8.5333460986       25.1974581952
  H        -3.3770175936       10.0877899349        7.5292195373
  H         3.1855470173        0.6011420131        6.3773875565
  H        -3.1963014231        0.9477459816        8.1211302562
  H         1.2820485912       10.0852659462        8.5141084925
  H         1.1876458384        0.6562833084        9.5980976394
  H         1.1881990897        0.9153218837        7.8382574357
  C        -3.8775286116        7.9398853099       16.0896253168
  C        -6.2813966251       10.5014030427       18.2403741465
  C        -3.8775578990        2.2361403958       16.7760306196
  C        -3.2316608170       10.9055033676       13.8310877455
  C       -13.7380852622        7.7764187726       31.3246616619
  C       -11.3840215800       10.3273779395       29.5951018233
  C       -13.6480827876        1.9970402951       31.3281996590
  C         1.2324359705       10.6929942292        2.2084250459
  C       -10.7159201244       10.4133048729       28.2650915925
  C        -9.4489243709        0.2582448076       28.0509255413
  C        -8.9435079681        0.4064541035       26.7565531503
  C        -9.6393394955       -0.0992400510       25.6463953110
  C       -10.8956992092       10.0314901811       25.8723662255
  C       -11.4187802513        9.9011279194       27.1555372848
  C        -9.1516783978        0.1238560531       24.2492584735
  C        -8.4759970204        9.9812080135       23.5759022399
  C        -6.7575224925        0.0998499219       21.9442100557
  C        -7.9974555612       10.2045841922       22.1762178759
  C        -8.6840953249        9.6671153261       21.0738974461
  C        -8.1795415815        9.8026616153       19.7780530879
  C        -6.9548860038       10.4527716255       19.5621659937
  C        -6.2319717227        0.2136333437       20.6611835011
  C         0.6611740136       -0.0122322345        3.5694709191
  C         1.1039338069       10.0126464101        4.6423953585
  C         0.4343905774       10.0363089216        5.8644732082
  C        -0.6503691114        0.0768448659        6.0918187056
  C        -1.1093468306        0.8391288428        4.9946247798
  C        -0.4851738281        0.7767372292        3.7548149212
  C        -1.3458249269        0.1372928869        7.4080016656
  C        -0.6699032730        0.1622305613        8.5968737872
  C        -0.8797425551        0.9674715594       10.9805625789
  C        -1.3613066846        0.1723238393        9.9157238971
  C        -2.5281630691       10.1625428451       10.1818533326
  C        -3.1780444974       10.1806793306       11.4138281945
  C        -2.6386135407        0.1795905377       12.4575013595
  C        -1.4930560144        0.9592087782       12.2263197058
  C        -3.8982067677        6.5030800535       16.5956942757
  C        -4.9331586226        5.8730345549       17.3618824038
  C        -2.8524731634        5.7632764622       16.0628305230
  C        -5.9773405294        6.5528040933       18.0603449707
  C        -6.9393136500        5.8419971202       18.7417162373
  C        -3.8261105946        3.7205241321       16.8533690669
  C        -2.7938383634        4.3699567521       16.2072529694
  C        -4.9076202536        4.4343005747       17.4430967551
  C        -5.9484844625        3.7435905349       18.1212277984
  C        -6.9564470145        4.4350358187       18.7385527107
  C       -13.7152178979        6.2861960426       31.2387113128
  C       -12.6255755153        5.6207853169       30.5939168983
  C       -14.7313368623        5.5706697756       31.8458666369
  C       -11.5918779230        6.3215789971       29.9168103663
  C       -10.6227564512        5.6350411882       29.2303381019
  C       -13.6595386485        3.4851991459       31.2417487199
  C       -14.7001979679        4.1640320473       31.8515612905
  C       -12.6032429138        4.1826273047       30.5822957814
  C       -11.5656377788        3.5075850584       29.8768570116
  C       -10.6074810518        4.2270658225       29.2057632001
  C        -9.5560721940        1.4518687324       23.6610149001
  C        -8.0493356758        8.6598591229       24.1628412005
  C        -2.8324125481        0.2584347236        7.3523153534
  C         0.8183890579        0.2708354910        8.6420095176
  O        -2.9518833960        8.6930765353       16.6266764089
  O        -5.3338649625        8.5499156154       16.1509036371
  O        -6.9610981602       10.5414754661       17.1034572952
  O        -4.9991728942       -0.2675555391       18.1716699593
  O        -4.8612473119        1.7856547453       16.0975959185
  O        -2.9615319623        1.5622025922       17.3478912114
  O        -2.3923603295        0.4436161253       14.7685590481
  O        -4.4369020678       10.5002171510       14.0180960004
  O       -14.7957044426        8.3768981127       30.9296192915
  O       -12.6978285566        8.3106609551       31.8185479647
  O       -10.7029686338       10.3326154790       30.7343282350
  O       -12.6293104252       10.2583848745       29.6576109800
  O       -12.6328380581        1.4632044498       31.8735666246
  O       -14.6716415942        1.3937020763       30.8616852807
  O         0.4058774507       -0.0092188424        1.2586790705
  O         2.4893804619       10.5425088661        2.0645406433
  F        -7.9311418993        6.4743585178       19.4110466201
  F        -7.9989086735        3.7766784876       19.3011175547
  F        -9.6413557357        6.3102217021       28.5966011535
  F        -9.6051021432        3.6056551246       28.5376139046
  O        -5.6056625916        8.0191158637       14.7928253415
  C        -4.2420431095        7.7732255970       14.5586345115
  O        -3.7748430422        7.4368070601       13.5116625359
     123
 i =      144, E =      -996.1945831379
 Zn        -2.5177510940       10.5786633853       16.6374321175
 Zn        -5.2765974777       10.6569103476       15.8484415063
 Zn       -15.1492489234       10.2836803032       31.2295517736
 Zn         3.1800135314       10.5989673887        0.1183921429
  H        -8.8997099857        0.7077677499       28.8749630596
  H        -8.0077212289        0.9469843108       26.6115334873
  H       -11.4480477012        9.6293067075       25.0205200751
  H       -12.3713400749        9.3959977393       27.3177777209
  H        -6.2245447822        0.5328257056       22.7894091013
  H        -9.6111068176        9.1078126239       21.2281354904
  H        -8.7207870414        9.3280497491       18.9531517658
  H        -5.2913263593        0.7336147122       20.4916708208
  H         1.9711114365        9.3678737101        4.5004154725
  H         0.7770476094        9.3770063422        6.6605117278
  H        -1.9694399162        1.4986200051        5.1082139264
  H        -0.8844599005        1.3425033266        2.9151083136
  H        -0.0152071473        1.6131847747       10.8327976561
  H        -2.8933902233        9.4841830884        9.4180259273
  H        -4.0375014337        9.5368539838       11.6017244478
  H        -1.0795028404        1.5564457978       13.0426619965
  H        -6.0286196658        7.6348672143       18.0742441491
  H        -5.9680810782        2.6552608984       18.1539443501
  H        -1.9763342914        3.7986050555       15.7644198979
  H        -2.0936213637        6.2666791470       15.4649105128
  H       -11.5473797181        7.4087818041       29.9290119658
  H       -11.5151056740        2.4223278131       29.8587245457
  H         0.0809977459        3.9272135511        0.4076515009
  H         0.0252024980        6.4282161456        0.3945941918
  H        -9.1961720008        1.5775516353       22.6331469556
  H        -9.1667314091        2.2839349526       24.2716234969
  H       -10.6519407740        1.5592474931       23.6637894592
  H        -6.9552429523        8.5704209421       24.1446994663
  H        -8.4333368543        7.8181250348       23.5561109792
  H        -8.3978979087        8.5292533938       25.1950779725
  H        -3.3779657912       10.0886723383        7.5346413531
  H         3.1845503038        0.5972131928        6.3763397806
  H        -3.1976800631        0.9510316811        8.1198857820
  H         1.2816717893       10.0835625569        8.5115735817
  H         1.1853076188        0.6520539937        9.6029023078
  H         1.1871822961        0.9177456358        7.8445643479
  C        -3.8759467392        7.9370709077       16.0850382155
  C        -6.2830707202       10.4985605018       18.2404004458
  C        -3.8797672086        2.2346705083       16.7804239730
  C        -3.2254572818       10.9107705038       13.8348439785
  C       -13.7384075985        7.7764020601       31.3250654075
  C       -11.3846815697       10.3272727134       29.5956403678
  C       -13.6481802409        1.9967405987       31.3280087762
  C         1.2324375307       10.6930981611        2.2084594372
  C       -10.7167833715       10.4124006161       28.2655784195
  C        -9.4515046794        0.2606178470       28.0504870700
  C        -8.9463130158        0.4098413289       26.7561558233
  C        -9.6397691212       -0.0999222188       25.6459797546
  C       -10.8948123649       10.0284095140       25.8725157991
  C       -11.4178497142        9.8981135343       27.1557826394
  C        -9.1527812272        0.1228779578       24.2485282853
  C        -8.4788746255        9.9789758002       23.5747581806
  C        -6.7612332728        0.1014728554       21.9421814923
  C        -8.0000521031       10.2050801073       22.1757011058
  C        -8.6843738666        9.6624085912       21.0738927680
  C        -8.1800182147        9.7946590486       19.7777961963
  C        -6.9561551570       10.4468739706       19.5622695102
  C        -6.2334240682        0.2114494214       20.6594992716
  C         0.6612737323       -0.0130553499        3.5698005095
  C         1.1033759954       10.0128718503        4.6437134694
  C         0.4353932793       10.0376411736        5.8667298919
  C        -0.6500855065        0.0776304764        6.0930258046
  C        -1.1118142448        0.8371947858        4.9946326806
  C        -0.4869950161        0.7735349751        3.7551326810
  C        -1.3465341936        0.1356051125        7.4090014307
  C        -0.6710253909        0.1611110483        8.5983521214
  C        -0.8802288069        0.9679601896       10.9808517443
  C        -1.3628672552        0.1719582078        9.9170924007
  C        -2.5299832313       10.1629905850       10.1853469169
  C        -3.1763103081       10.1792763507       11.4192354919
  C        -2.6349331774        0.1814152825       12.4601070156
  C        -1.4876095867        0.9587114636       12.2291045486
  C        -3.8951735380        6.5011088231       16.5959979560
  C        -4.9333659732        5.8744645519       17.3605200230
  C        -2.8510609500        5.7586391980       16.0632733143
  C        -5.9747130541        6.5511591657       18.0654063232
  C        -6.9367822818        5.8392244216       18.7461628995
  C        -3.8278326366        3.7187852260       16.8549163708
  C        -2.7916464915        4.3655123868       16.2123120267
  C        -4.9073801091        4.4356772727       17.4437196268
  C        -5.9486970259        3.7414136675       18.1177060638
  C        -6.9556586535        4.4320977275       18.7372836843
  C       -13.7154382554        6.2863292121       31.2371841780
  C       -12.6257134881        5.6202487798       30.5931579287
  C       -14.7308520586        5.5707277692       31.8458211711
  C       -11.5928757984        6.3229942694       29.9170364520
  C       -10.6239037625        5.6335805237       29.2332854056
  C       -13.6598805369        3.4848655941       31.2420756813
  C       -14.7008656850        4.1640978979       31.8508054177
  C       -12.6032309878        4.1822451228       30.5832218174
  C       -11.5632957060        3.5081591730       29.8803245806
  C       -10.6073442756        4.2259312875       29.2045398554
  C        -9.5545851932        1.4526990442       23.6622167860
  C        -8.0545105406        8.6567117619       24.1612918469
  C        -2.8332243867        0.2591438212        7.3534601973
  C         0.8171491692        0.2699349255        8.6457276777
  O        -2.9523972836        8.6938515876       16.6195040635
  O        -5.3382948167        8.5397574647       16.1368802983
  O        -6.9632681038       10.5391873073       17.1053265128
  O        -5.0000337260       -0.2779504041       18.1670741306
  O        -4.8625246669        1.7810676914       16.1030996093
  O        -2.9688633853        1.5594493823       17.3594917041
  O        -2.3892491957        0.4576445247       14.7726168559
  O        -4.4272652160       10.4937480290       14.0270529408
  O       -14.7959832881        8.3764004819       30.9293985839
  O       -12.6978989543        8.3103424355       31.8187696186
  O       -10.7028555453       10.3327963017       30.7344545802
  O       -12.6299410671       10.2582004591       29.6578657190
  O       -12.6327934293        1.4634259262       31.8735712918
  O       -14.6718478412        1.3934260345       30.8617231256
  O         0.4058919904       -0.0101132506        1.2585564307
  O         2.4892675646       10.5417592508        2.0643906484
  F        -7.9202881820        6.4749566184       19.4254510866
  F        -8.0012588167        3.7793898591       19.3004659905
  F        -9.6403277951        6.3031429424       28.5983286877
  F        -9.6027020733        3.6066703336       28.5372075378
  O        -5.6045262966        8.0001625932       14.7785502017
  C        -4.2404259722        7.7611825202       14.5513705435
  O        -3.7724490011        7.4180505603       13.5067668801
     123
 i =      145, E =      -996.1947776873
 Zn        -2.5175198940       10.5724818629       16.6362951888
 Zn        -5.2837122847       10.6553234424       15.8467588283
 Zn       -15.1495253368       10.2837158918       31.2300527810
 Zn         3.1799975021       10.5996072084        0.1187223432
  H        -8.8972218271        0.7008280508       28.8763400621
  H        -8.0039247280        0.9398944294       26.6138952330
  H       -11.4511919680        9.6342633018       25.0200487625
  H       -12.3744982753        9.4009258751       27.3172469877
  H        -6.2168094318        0.5267814098       22.7898309068
  H        -9.6150965074        9.1194326566       21.2277799810
  H        -8.7227101184        9.3342491817       18.9535152959
  H        -5.2833009443        0.7234414815       20.4920866416
  H         1.9719113450        9.3688889860        4.5007340597
  H         0.7777420567        9.3785386071        6.6613737547
  H        -1.9657681065        1.5039619478        5.1093872678
  H        -0.8794563269        1.3475285075        2.9162159223
  H        -0.0173977579        1.6169572109       10.8275768264
  H        -2.8913803271        9.4794454191        9.4166583507
  H        -4.0327273460        9.5328885353       11.6024253541
  H        -1.0800894472        1.5595185783       13.0374195011
  H        -6.0285942557        7.6304776160       18.0769434098
  H        -5.9791939306        2.6512206285       18.1422898411
  H        -1.9754525050        3.7951979906       15.7706445656
  H        -2.0919002278        6.2637278849       15.4689740270
  H       -11.5496361382        7.4095721499       29.9263228398
  H       -11.5080966186        2.4221716566       29.8687805502
  H         0.0779860380        3.9274027923        0.4027022533
  H         0.0224570673        6.4283348585        0.3904772438
  H        -9.2005404406        1.5778273911       22.6336661254
  H        -9.1686943484        2.2835710563       24.2729743239
  H       -10.6541479323        1.5575421813       23.6681214717
  H        -6.9530980320        8.5714230520       24.1458055985
  H        -8.4322270473        7.8198205110       23.5592624637
  H        -8.3950525709        8.5330010952       25.1962556814
  H        -3.3758207614       10.0791273707        7.5205269835
  H         3.1862315574        0.6003341827        6.3750187089
  H        -3.2009111268        0.9382126781        8.1228606959
  H         1.2827855621       10.0816216911        8.5212063711
  H         1.1830455695        0.6606017025        9.5993388824
  H         1.1874355757        0.9111635681        7.8387982358
  C        -3.8740369638        7.9338264651       16.0883180989
  C        -6.2821789064       10.5042993674       18.2426056379
  C        -3.8853821941        2.2278634293       16.7906791001
  C        -3.2304603285       10.9028685535       13.8303390191
  C       -13.7400477416        7.7761078522       31.3289603393
  C       -11.3854513935       10.3283421379       29.5960584604
  C       -13.6473084930        1.9969539031       31.3270719652
  C         1.2334029477       10.6925167457        2.2084285861
  C       -10.7171841410       10.4108503494       28.2661940724
  C        -9.4503229593        0.2558998865       28.0515937167
  C        -8.9445301294        0.4069193253       26.7577015814
  C        -9.6387874447       -0.1032690878       25.6474940886
  C       -10.8971688508       10.0321594448       25.8724428318
  C       -11.4194707939        9.8998153606       27.1557300880
  C        -9.1527273144        0.1238501123       24.2503004669
  C        -8.4774514142        9.9814500720       23.5757394938
  C        -6.7564094247        0.0969594029       21.9440194944
  C        -7.9985252085       10.2058926785       22.1761605192
  C        -8.6847193753        9.6664876944       21.0736554133
  C        -8.1801149953        9.8001094478       19.7779207826
  C        -6.9511424254       10.4409142701       19.5650136512
  C        -6.2279011358        0.2073087783       20.6618520954
  C         0.6616904314       -0.0125391211        3.5693182316
  C         1.1048094657       10.0146428563        4.6438398326
  C         0.4362532024       10.0379991796        5.8665238072
  C        -0.6492221615        0.0779412329        6.0917063867
  C        -1.1095441949        0.8406994128        4.9952095017
  C        -0.4839299626        0.7771546211        3.7562290155
  C        -1.3462698225        0.1341091950        7.4070934917
  C        -0.6717486823        0.1619595254        8.5967852236
  C        -0.8806561884        0.9700322613       10.9769671277
  C        -1.3646835419        0.1726943465        9.9146308008
  C        -2.5276964349       10.1593315370       10.1833575630
  C        -3.1733713110       10.1773407885       11.4172961466
  C        -2.6375625390        0.1837344693       12.4570482244
  C        -1.4874017433        0.9587948502       12.2256479196
  C        -3.8972826317        6.4971002903       16.5971972900
  C        -4.9337987888        5.8694597615       17.3632857610
  C        -2.8516980440        5.7563133567       16.0655810902
  C        -5.9754140483        6.5471395215       18.0665749827
  C        -6.9372105235        5.8376771441       18.7498951593
  C        -3.8304150654        3.7128653491       16.8501609540
  C        -2.7920026143        4.3630289995       16.2159260758
  C        -4.9080041361        4.4307049580       17.4417296910
  C        -5.9508917107        3.7374300675       18.1138550846
  C        -6.9578471930        4.4308385377       18.7312954993
  C       -13.7162754579        6.2866208841       31.2352651787
  C       -12.6259744895        5.6200408066       30.5930766950
  C       -14.7315385163        5.5712606401       31.8448016156
  C       -11.5946542745        6.3238773123       29.9158285309
  C       -10.6243506970        5.6354278401       29.2334949674
  C       -13.6594797376        3.4851241761       31.2437578888
  C       -14.7024074489        4.1646616628       31.8487358297
  C       -12.6012905510        4.1821804117       30.5874800251
  C       -11.5608386399        3.5079909008       29.8858725275
  C       -10.6098611708        4.2279818052       29.2062973698
  C        -9.5567739039        1.4524918439       23.6634059597
  C        -8.0522554811        8.6593561728       24.1621433274
  C        -2.8333427660        0.2537238641        7.3505259104
  C         0.8168541738        0.2692726361        8.6448306458
  O        -2.9526278811        8.6897545734       16.6296917997
  O        -5.3338723326        8.5335045492       16.1481756924
  O        -6.9615360414       10.5384559066       17.1056063149
  O        -5.0003925965       -0.2745648799       18.1700356054
  O        -4.8631032111        1.7798788070       16.0968630938
  O        -2.9632010746        1.5565793986       17.3509823534
  O        -2.3921788943        0.4440828717       14.7696247592
  O        -4.4363944771       10.4976715086       14.0207382681
  O       -14.7951176469        8.3771067145       30.9280714390
  O       -12.6975045542        8.3110251539       31.8175565601
  O       -10.7028250102       10.3319872330       30.7344128477
  O       -12.6305864617       10.2570601639       29.6593504572
  O       -12.6329867864        1.4639440020       31.8748280463
  O       -14.6722201443        1.3939826794       30.8632367133
  O         0.4063024530       -0.0099455657        1.2591865968
  O         2.4902712609       10.5422178218        2.0637322205
  F        -7.9193971502        6.4757014583       19.4285670770
  F        -8.0009165286        3.7795635282       19.2975631921
  F        -9.6346172199        6.2981529125       28.6009164347
  F        -9.6082751230        3.6056249570       28.5389042513
  O        -5.6005137196        8.0180893932       14.7847728335
  C        -4.2448129408        7.7693083020       14.5530806643
  O        -3.7737185656        7.4303684222       13.5078518722
     123
 i =      146, E =      -996.1950369337
 Zn        -2.5178178535       10.5736881157       16.6353303973
 Zn        -5.2816216758       10.6564629827       15.8478524971
 Zn       -15.1500232705       10.2839848006       31.2304195677
 Zn         3.1802367371       10.5991678029        0.1195673401
  H        -8.8978394798        0.7005967593       28.8768686994
  H        -8.0046878563        0.9397099034       26.6143169478
  H       -11.4516967743        9.6337679985       25.0202485573
  H       -12.3754424815        9.4003648922       27.3173594868
  H        -6.2162215027        0.5270210246       22.7901125640
  H        -9.6167688515        9.1205988681       21.2286399791
  H        -8.7226347630        9.3328970039       18.9544704097
  H        -5.2824358399        0.7188194495       20.4916887051
  H         1.9731874147        9.3693263734        4.5016003605
  H         0.7787136373        9.3805607011        6.6619356856
  H        -1.9649659432        1.5036831543        5.1095722762
  H        -0.8792272381        1.3478080339        2.9161865260
  H        -0.0189908614        1.6177140446       10.8259147054
  H        -2.8917088467        9.4771954350        9.4182327837
  H        -4.0306346901        9.5307875466       11.6045110257
  H        -1.0796776820        1.5589155220       13.0362250017
  H        -6.0256551832        7.6301425004       18.0813685209
  H        -5.9838723270        2.6506399693       18.1340482679
  H        -1.9742331266        3.7909280840       15.7759397047
  H        -2.0888729708        6.2596863469       15.4710027087
  H       -11.5506481686        7.4091022150       29.9249380264
  H       -11.5054981178        2.4219584450       29.8737343321
  H         0.0761049947        3.9275086493        0.4006436103
  H         0.0216132703        6.4286495732        0.3889478561
  H        -9.2011087636        1.5784201934       22.6345794485
  H        -9.1686533177        2.2830277100       24.2742716142
  H       -10.6544643205        1.5579985700       23.6697915225
  H        -6.9551890368        8.5697196700       24.1457097892
  H        -8.4345284527        7.8197391743       23.5584283799
  H        -8.3968882112        8.5321886244       25.1948600119
  H        -3.3753464603       10.0759354046        7.5167513751
  H         3.1864615393        0.6002610805        6.3753273439
  H        -3.2021902156        0.9343115421        8.1231402066
  H         1.2818668160       10.0820863823        8.5267787043
  H         1.1810184536        0.6605979721        9.6003993053
  H         1.1874117684        0.9097068450        7.8393696005
  C        -3.8752029943        7.9307199042       16.0875914168
  C        -6.2827248812       10.4963298449       18.2422559429
  C        -3.8818849816        2.2270695676       16.7850997403
  C        -3.2301060783       10.9034644152       13.8325920278
  C       -13.7395924845        7.7761158806       31.3269304721
  C       -11.3854189229       10.3274583704       29.5957193372
  C       -13.6477651620        1.9976333783       31.3280114605
  C         1.2332827989       10.6923197808        2.2089051030
  C       -10.7173815334       10.4110060678       28.2659078280
  C        -9.4505606199        0.2561076388       28.0518225260
  C        -8.9448116974        0.4053644810       26.7578016778
  C        -9.6402019384       -0.1030127041       25.6479954532
  C       -10.8978477367       10.0305882841       25.8729724740
  C       -11.4202806394        9.8989213910       27.1562516700
  C        -9.1526855821        0.1243860686       24.2514640119
  C        -8.4778200306        9.9826659186       23.5757125401
  C        -6.7560617546        0.0960970917       21.9450583599
  C        -7.9981894846       10.2037318566       22.1758096129
  C        -8.6856574249        9.6662519447       21.0737466607
  C        -8.1795619490        9.7989072573       19.7785403382
  C        -6.9510389869       10.4414859756       19.5650572465
  C        -6.2275623650        0.2043431351       20.6627478785
  C         0.6613719508       -0.0131919532        3.5697784021
  C         1.1067165402       10.0157185264        4.6446993246
  C         0.4366746721       10.0390847738        5.8665657043
  C        -0.6499948466        0.0773064560        6.0920916245
  C        -1.1081876672        0.8409973069        4.9955911938
  C        -0.4834420874        0.7775936461        3.7562018228
  C        -1.3470975571        0.1349401351        7.4073763149
  C        -0.6732012350        0.1621245141        8.5973181203
  C        -0.8809792808        0.9700079956       10.9774894841
  C        -1.3647419539        0.1718659167        9.9158211278
  C        -2.5272934558       10.1579345809       10.1842102938
  C        -3.1733174491       10.1771425155       11.4179960560
  C        -2.6361310371        0.1804229146       12.4596364392
  C        -1.4902659533        0.9593724512       12.2248312539
  C        -3.8973084882        6.4939522890       16.5951317163
  C        -4.9315813820        5.8648686520       17.3650122197
  C        -2.8490159682        5.7535199236       16.0684101931
  C        -5.9724001099        6.5468318238       18.0657573446
  C        -6.9350357455        5.8398236845       18.7516751882
  C        -3.8293222725        3.7104696035       16.8537948850
  C        -2.7917439350        4.3603243352       16.2175383920
  C        -4.9107314497        4.4261229308       17.4397416988
  C        -5.9568807245        3.7370998366       18.1112223088
  C        -6.9605818126        4.4328802327       18.7308106770
  C       -13.7164794615        6.2863997377       31.2360893863
  C       -12.6260268612        5.6205489653       30.5931110351
  C       -14.7332128762        5.5708790951       31.8424675465
  C       -11.5943656358        6.3232030791       29.9151634611
  C       -10.6233425526        5.6355597978       29.2328583936
  C       -13.6593240238        3.4857736343       31.2432600024
  C       -14.7029911245        4.1643056913       31.8484579618
  C       -12.5995976326        4.1826603944       30.5891012889
  C       -11.5593611692        3.5079374548       29.8869259304
  C       -10.6074775711        4.2277424998       29.2079480676
  C        -9.5572224467        1.4524827106       23.6642506191
  C        -8.0542989755        8.6593382692       24.1608063001
  C        -2.8341064743        0.2511985661        7.3496588502
  C         0.8155655880        0.2683621279        8.6453894388
  O        -2.9541586035        8.6883383563       16.6244274853
  O        -5.3354341570        8.5322857685       16.1461955761
  O        -6.9620039065       10.5412867514       17.1052774580
  O        -5.0006641538       -0.2753610127       18.1696950694
  O        -4.8644546649        1.7814946826       16.0989284675
  O        -2.9643579306        1.5556171785       17.3553778120
  O        -2.3904562006        0.4455726139       14.7697317382
  O        -4.4350715267       10.4972706135       14.0217155663
  O       -14.7953276700        8.3774948576       30.9285136738
  O       -12.6979843960        8.3106126232       31.8179054977
  O       -10.7033833087       10.3320630944       30.7343315081
  O       -12.6305645319       10.2572802440       29.6594174380
  O       -12.6333477754        1.4634734114       31.8744633364
  O       -14.6717820427        1.3939887713       30.8629999244
  O         0.4062202348       -0.0093443012        1.2596256080
  O         2.4902839883       10.5427135797        2.0643160706
  F        -7.9229960848        6.4697389224       19.4309956754
  F        -7.9983301976        3.7752582837       19.2986488550
  F        -9.6422739197        6.3089563394       28.5976044845
  F        -9.6062190580        3.6049275843       28.5397267614
  O        -5.5981887080        8.0185400789       14.7791212864
  C        -4.2382953041        7.7667365821       14.5508775997
  O        -3.7664769333        7.4292024990       13.5059851623
     123
 i =      147, E =      -996.1951420670
 Zn        -2.5186703802       10.5721720978       16.6361953593
 Zn        -5.2799639717       10.6590640194       15.8463470591
 Zn       -15.1500606609       10.2842198274       31.2302360512
 Zn         3.1803042807       10.5985413560        0.1196991438
  H        -8.8983290524        0.6996465486       28.8776203383
  H        -8.0054514324        0.9389180147       26.6150013661
  H       -11.4519431579        9.6340360547       25.0205540359
  H       -12.3763123638        9.3997323334       27.3173273491
  H        -6.2160436916        0.5248049934       22.7902493983
  H        -9.6187632427        9.1223112571       21.2293488847
  H        -8.7230118410        9.3314496194       18.9553740178
  H        -5.2802478122        0.7120327726       20.4923982276
  H         1.9752297963        9.3706086017        4.5024005215
  H         0.7800367185        9.3829967624        6.6622291264
  H        -1.9636627521        1.5041927373        5.1090316489
  H        -0.8781732898        1.3486082142        2.9156483563
  H        -0.0206740505        1.6179515091       10.8245254682
  H        -2.8898746748        9.4746372138        9.4210666607
  H        -4.0291611424        9.5284800383       11.6061820762
  H        -1.0801867370        1.5616302858       13.0355353316
  H        -6.0192340600        7.6278045865       18.0867318028
  H        -5.9919244295        2.6471547501       18.1267861481
  H        -1.9716414956        3.7829380801       15.7847946402
  H        -2.0884731286        6.2514036113       15.4701511127
  H       -11.5538694841        7.4087456854       29.9216839914
  H       -11.5005036385        2.4231398864       29.8818276117
  H         0.0744273444        3.9277291334        0.3985584759
  H         0.0202635457        6.4290013454        0.3875629733
  H        -9.2023368960        1.5791952695       22.6363312699
  H        -9.1688957405        2.2833393559       24.2761119435
  H       -10.6553123425        1.5585450556       23.6722319490
  H        -6.9572257999        8.5682851497       24.1456506703
  H        -8.4374957132        7.8199779703       23.5573583234
  H        -8.3995340740        8.5317072228       25.1948605658
  H        -3.3732842494       10.0712011525        7.5108946617
  H         3.1861331049        0.6006602527        6.3757176949
  H        -3.2045824989        0.9263585193        8.1241868592
  H         1.2805586112       10.0812820905        8.5311718313
  H         1.1801551178        0.6627528609        9.5992300957
  H         1.1871499181        0.9053493024        7.8373410092
  C        -3.8769175590        7.9262963561       16.0890142452
  C        -6.2820283163       10.4957628098       18.2411794551
  C        -3.8792059287        2.2276049547       16.7824487916
  C        -3.2274335233       10.9066829267       13.8340477802
  C       -13.7391382114        7.7763915247       31.3240281083
  C       -11.3851453657       10.3262543489       29.5956869585
  C       -13.6487016262        1.9975360763       31.3298296298
  C         1.2332685273       10.6932289889        2.2089729167
  C       -10.7177580536       10.4106630383       28.2658049940
  C        -9.4506605945        0.2552024572       28.0523477130
  C        -8.9452055196        0.4034009837       26.7582065024
  C        -9.6410121259       -0.1019344383       25.6479069529
  C       -10.8977453002       10.0292385151       25.8734401531
  C       -11.4209959743        9.8983137049       27.1564529979
  C        -9.1529075988        0.1243639625       24.2515318657
  C        -8.4788245037        9.9819714251       23.5759576244
  C        -6.7543734005        0.0926910264       21.9446171005
  C        -7.9983371112       10.2050813784       22.1767964931
  C        -8.6862803349        9.6666540162       21.0753081591
  C        -8.1803385358        9.7972953723       19.7798007025
  C        -6.9517359585       10.4394748452       19.5637527546
  C        -6.2272005414        0.2006316617       20.6617422710
  C         0.6632763779       -0.0121745175        3.5706360766
  C         1.1079863556       10.0160639469        4.6451308354
  C         0.4372844961       10.0407451437        5.8665815452
  C        -0.6495970249        0.0784499179        6.0924241300
  C        -1.1071626964        0.8412105647        4.9948106263
  C        -0.4824295664        0.7780068431        3.7553902676
  C        -1.3478878802        0.1345050844        7.4071103975
  C        -0.6735389803        0.1609043238        8.5967170193
  C        -0.8827112207        0.9706141386       10.9773749866
  C        -1.3630326973        0.1701363475        9.9162544819
  C        -2.5270966452       10.1578372882       10.1855436501
  C        -3.1729852356       10.1759394596       11.4193343255
  C        -2.6345015684        0.1795239315       12.4605044274
  C        -1.4920564890        0.9618613520       12.2247808853
  C        -3.8956414148        6.4890611274       16.5971996677
  C        -4.9310639766        5.8597728242       17.3658443845
  C        -2.8484259160        5.7481000316       16.0688311295
  C        -5.9681959639        6.5443897191       18.0683326581
  C        -6.9356039173        5.8372912197       18.7469056589
  C        -3.8286331344        3.7089175115       16.8589145220
  C        -2.7890777368        4.3554136573       16.2225473823
  C        -4.9142416827        4.4210135920       17.4397041546
  C        -5.9653087945        3.7339651711       18.1064864912
  C        -6.9633448597        4.4302000137       18.7343696001
  C       -13.7179737908        6.2863407921       31.2360599692
  C       -12.6257613082        5.6210223639       30.5952502532
  C       -14.7352995160        5.5704073962       31.8406883881
  C       -11.5946891908        6.3225313589       29.9148203633
  C       -10.6228406893        5.6349683636       29.2326538812
  C       -13.6588351864        3.4856083664       31.2435485017
  C       -14.7037541548        4.1638383232       31.8471944573
  C       -12.5986938336        4.1830488272       30.5899993222
  C       -11.5550837561        3.5090630921       29.8914913694
  C       -10.6036153036        4.2270515737       29.2095103561
  C        -9.5580231785        1.4530243901       23.6661424610
  C        -8.0562236818        8.6583132942       24.1609771195
  C        -2.8347294170        0.2483090693        7.3483199685
  C         0.8149327823        0.2677727448        8.6452170989
  O        -2.9514377036        8.6832233647       16.6206151490
  O        -5.3331640623        8.5337285928       16.1520418459
  O        -6.9622250238       10.5393308460       17.1055075649
  O        -4.9989910650       -0.2735063995       18.1697086407
  O        -4.8623052223        1.7815253308       16.1007458458
  O        -2.9667128566        1.5523668072       17.3571101987
  O        -2.3884061854        0.4462456703       14.7699962762
  O        -4.4310905127       10.5012030961       14.0242048697
  O       -14.7961959260        8.3776087727       30.9291306319
  O       -12.6986038149        8.3097157595       31.8185002659
  O       -10.7038147818       10.3324164407       30.7346630608
  O       -12.6303677071       10.2576495092       29.6585247578
  O       -12.6330722668        1.4629349434       31.8736706272
  O       -14.6716700960        1.3940541559       30.8619822521
  O         0.4061642226       -0.0094156852        1.2594099581
  O         2.4901096886       10.5424094434        2.0647185408
  F        -7.9214545778        6.4796211879       19.4184978571
  F        -8.0032739421        3.7750539944       19.3017064437
  F        -9.6395231780        6.3045141376       28.5963558030
  F        -9.6045084603        3.6050600132       28.5352298306
  O        -5.5974517266        8.0199979968       14.7753064211
  C        -4.2380603566        7.7649279369       14.5542620472
  O        -3.7726646643        7.4274069854       13.5075794989
     123
 i =      148, E =      -996.1953667921
 Zn        -2.5184727434       10.5716863762       16.6361762547
 Zn        -5.2812151173       10.6571018704       15.8495001211
 Zn       -15.1497970247       10.2841059480       31.2302128652
 Zn         3.1798471175       10.5986385342        0.1195422924
  H        -8.8995790293        0.7003162398       28.8773904323
  H        -8.0060745087        0.9387459464       26.6149223468
  H       -11.4520132193        9.6319314049       25.0208376093
  H       -12.3760991040        9.3985500035       27.3177606346
  H        -6.2167309982        0.5241309035       22.7891483182
  H        -9.6200040939        9.1229096387       21.2292782936
  H        -8.7231116945        9.3283821273       18.9548741959
  H        -5.2785300338        0.7078564974       20.4918558756
  H         1.9766827392        9.3730085651        4.5040870132
  H         0.7817480389        9.3846068471        6.6639441162
  H        -1.9642160038        1.5045886874        5.1094225677
  H        -0.8778917513        1.3483652675        2.9163550348
  H        -0.0226100915        1.6188747100       10.8242396579
  H        -2.8894380736        9.4734039814        9.4222828855
  H        -4.0276189379        9.5261576667       11.6080161828
  H        -1.0808826828        1.5636622647       13.0356536032
  H        -6.0128692106        7.6254028979       18.0910390648
  H        -6.0014170966        2.6448502103       18.1196067942
  H        -1.9705661631        3.7778769465       15.7900019298
  H        -2.0862751215        6.2466958452       15.4731090886
  H       -11.5549668037        7.4092521930       29.9202685062
  H       -11.4972515277        2.4232733535       29.8866113537
  H         0.0731519388        3.9280012081        0.3959197688
  H         0.0188529108        6.4290402793        0.3856475104
  H        -9.2028217498        1.5802292796       22.6377140641
  H        -9.1686274835        2.2836679876       24.2778471946
  H       -10.6552669505        1.5592494048       23.6739274812
  H        -6.9601364712        8.5662365149       24.1452598730
  H        -8.4412275187        7.8199944846       23.5555351889
  H        -8.4035579108        8.5309724698       25.1941574478
  H        -3.3727813019       10.0679572146        7.5093452988
  H         3.1854778320        0.5991288984        6.3758615077
  H        -3.2066917420        0.9218709758        8.1254000282
  H         1.2799101274       10.0788442486        8.5323003773
  H         1.1794793996        0.6636721008        9.5999688912
  H         1.1871874589        0.9029078893        7.8371751578
  C        -3.8746922949        7.9229826404       16.0871386835
  C        -6.2823090236       10.4951071893       18.2418316668
  C        -3.8815777357        2.2247195811       16.7867988722
  C        -3.2268511453       10.9065201988       13.8348238262
  C       -13.7399090765        7.7766023394       31.3253917974
  C       -11.3858185037       10.3265835825       29.5962602709
  C       -13.6478855291        1.9971821155       31.3287066438
  C         1.2335134555       10.6932246343        2.2091162411
  C       -10.7184859738       10.4096343929       28.2663127471
  C        -9.4517104801        0.2547614051       28.0524496628
  C        -8.9459234389        0.4038265892       26.7585317161
  C        -9.6409313490       -0.1028711711       25.6480855506
  C       -10.8977011741       10.0282690215       25.8733533073
  C       -11.4209974309        9.8976892491       27.1564182160
  C        -9.1543650433        0.1234174292       24.2510883083
  C        -8.4796986341        9.9813355018       23.5759873333
  C        -6.7545601967        0.0915983767       21.9435974256
  C        -7.9992668779       10.2055558668       22.1770298475
  C        -8.6866607875        9.6662890527       21.0753067234
  C        -8.1807618027        9.7937202247       19.7795452227
  C        -6.9520060699       10.4361015076       19.5637760756
  C        -6.2259761719        0.1964955800       20.6610416496
  C         0.6639467147       -0.0114281727        3.5709907570
  C         1.1078868543       10.0167999631        4.6457269080
  C         0.4385739230       10.0416540066        5.8679744679
  C        -0.6491739738        0.0785131402        6.0925259225
  C        -1.1081891675        0.8410296626        4.9951953979
  C        -0.4825662882        0.7777144331        3.7562204057
  C        -1.3474054297        0.1330312967        7.4073155914
  C        -0.6730732639        0.1586475532        8.5969813790
  C        -0.8839192134        0.9705228126       10.9766972196
  C        -1.3657195353        0.1712392659        9.9149447567
  C        -2.5269705006       10.1565045938       10.1869178115
  C        -3.1720811899       10.1745035842       11.4210515542
  C        -2.6339888827        0.1802070138       12.4608280705
  C        -1.4909361755        0.9623517323       12.2254030070
  C        -3.8920461319        6.4861307439       16.5991192885
  C        -4.9300791834        5.8597317370       17.3659219889
  C        -2.8464556320        5.7431046969       16.0705893693
  C        -5.9661736844        6.5419069641       18.0721852278
  C        -6.9350226814        5.8348396192       18.7486130926
  C        -3.8303334913        3.7057803357       16.8604345384
  C        -2.7881492123        4.3504793963       16.2269966390
  C        -4.9147106224        4.4210348153       17.4397854758
  C        -5.9664942359        3.7315702275       18.1027158919
  C        -6.9626066125        4.4282189103       18.7327845571
  C       -13.7179179988        6.2868588360       31.2349545738
  C       -12.6254419161        5.6209714057       30.5952791716
  C       -14.7351520103        5.5713740749       31.8406293342
  C       -11.5950187391        6.3230670795       29.9145957630
  C       -10.6238018446        5.6350663557       29.2320834049
  C       -13.6587342316        3.4854443886       31.2454486349
  C       -14.7050471854        4.1647717221       31.8451030299
  C       -12.5988910646        4.1830779379       30.5914287794
  C       -11.5543534985        3.5089852371       29.8945384364
  C       -10.6042015943        4.2273431137       29.2114538856
  C        -9.5578873035        1.4535934896       23.6677023084
  C        -8.0590015716        8.6569477807       24.1606575520
  C        -2.8344702839        0.2463108947        7.3486848377
  C         0.8150661547        0.2671714815        8.6464258319
  O        -2.9527825807        8.6826662662       16.6243461717
  O        -5.3333486495        8.5263811640       16.1482258700
  O        -6.9630069265       10.5380689553       17.1065297523
  O        -4.9991463544       -0.2742688603       18.1691021020
  O        -4.8604653425        1.7792037707       16.0978241001
  O        -2.9678965997        1.5501851827       17.3593745071
  O        -2.3888748803        0.4509941990       14.7718266482
  O        -4.4297492206       10.4943568166       14.0256003042
  O       -14.7964427812        8.3775258724       30.9286389609
  O       -12.6985320257        8.3097435049       31.8183407270
  O       -10.7036516930       10.3325210818       30.7348228808
  O       -12.6310095724       10.2574373637       29.6586524517
  O       -12.6329754695        1.4631312441       31.8744751412
  O       -14.6721451457        1.3944271395       30.8627344207
  O         0.4064145561       -0.0097963141        1.2595165791
  O         2.4903207360       10.5421455174        2.0643172576
  F        -7.9218538323        6.4720286079       19.4239008920
  F        -8.0041272741        3.7770333101       19.3003168681
  F        -9.6378727548        6.3040599203       28.5992946053
  F        -9.6034907122        3.6065962838       28.5389260377
  O        -5.5918541570        8.0189185984       14.7705122273
  C        -4.2366040146        7.7632623428       14.5516293500
  O        -3.7679635905        7.4272542065       13.5052080398
     123
 i =      149, E =      -996.1954278722
 Zn        -2.5182699455       10.5710028741       16.6355725571
 Zn        -5.2834113639       10.6574831438       15.8506370921
 Zn       -15.1499467847       10.2842445140       31.2305732866
 Zn         3.1797808959       10.5987970462        0.1196706988
  H        -8.9002269012        0.6994337165       28.8776086616
  H        -8.0059789101        0.9375855631       26.6153496856
  H       -11.4526466268        9.6306637267       25.0208664821
  H       -12.3767207510        9.3979330652       27.3180469812
  H        -6.2145502396        0.5213457103       22.7886920679
  H        -9.6223894846        9.1248460551       21.2299606262
  H        -8.7242183499        9.3261760684       18.9551853963
  H        -5.2758021088        0.7011278040       20.4910388608
  H         1.9784635293        9.3754447394        4.5054196110
  H         0.7835691588        9.3867320745        6.6652431364
  H        -1.9641628372        1.5051832583        5.1097330704
  H        -0.8768363049        1.3490218501        2.9168595609
  H        -0.0243018356        1.6215747273       10.8227191249
  H        -2.8888978988        9.4705791229        9.4231164162
  H        -4.0251525001        9.5234954059       11.6109949052
  H        -1.0817979211        1.5664813769       13.0339908845
  H        -6.0068877762        7.6226947340       18.0973596173
  H        -6.0117440465        2.6424199359       18.1102046313
  H        -1.9693928996        3.7719515561       15.7980968675
  H        -2.0836603601        6.2404655396       15.4755432430
  H       -11.5562997080        7.4100567661       29.9179147383
  H       -11.4923335383        2.4230299946       29.8937890980
  H         0.0707185942        3.9281003703        0.3921135758
  H         0.0172869004        6.4290367338        0.3825602323
  H        -9.2041030751        1.5817433229       22.6390907976
  H        -9.1687162936        2.2833014721       24.2801132883
  H       -10.6556920969        1.5600372447       23.6766897161
  H        -6.9634808492        8.5637154368       24.1452690315
  H        -8.4449460772        7.8203276092       23.5546507436
  H        -8.4070909591        8.5300379385       25.1929127206
  H        -3.3713123707       10.0620110066        7.5043412137
  H         3.1852759990        0.5983645716        6.3763369022
  H        -3.2089212978        0.9146868596        8.1273554288
  H         1.2795474740       10.0763281505        8.5365663595
  H         1.1782800556        0.6658037949        9.5989410370
  H         1.1872948148        0.8989425833        7.8362499698
  C        -3.8727542478        7.9208275946       16.0884920585
  C        -6.2834229357       10.4936465482       18.2427770301
  C        -3.8831917172        2.2210245897       16.7900850297
  C        -3.2276836489       10.9041488677       13.8350237721
  C       -13.7404614437        7.7764506889       31.3262402835
  C       -11.3866849491       10.3267804041       29.5963960281
  C       -13.6476351896        1.9975811264       31.3292809398
  C         1.2341165648       10.6928739177        2.2092060064
  C       -10.7189215525       10.4087470538       28.2666773208
  C        -9.4521176689        0.2536344732       28.0526060867
  C        -8.9463286144        0.4039176467       26.7588176308
  C        -9.6412454938       -0.1054304638       25.6489726135
  C       -10.8990268763       10.0283531772       25.8735921546
  C       -11.4213680218        9.8963961963       27.1568679211
  C        -9.1547215149        0.1239487295       24.2524780160
  C        -8.4807601371        9.9824704978       23.5757469519
  C        -6.7545911185        0.0900703276       21.9444289745
  C        -7.9998479838       10.2030156000       22.1762419395
  C        -8.6881591561        9.6660681314       21.0743608690
  C        -8.1812054234        9.7926035120       19.7789379269
  C        -6.9506843639       10.4316199609       19.5652978035
  C        -6.2243093239        0.1923002041       20.6623946469
  C         0.6637820857       -0.0111762193        3.5707333130
  C         1.1095024814       10.0191086960        4.6463378628
  C         0.4398494002       10.0424901757        5.8684300545
  C        -0.6486632812        0.0783375663        6.0924740528
  C        -1.1080947110        0.8415496221        4.9958327186
  C        -0.4819000440        0.7786670303        3.7571244234
  C        -1.3471939023        0.1312277982        7.4071708839
  C        -0.6744905690        0.1597708623        8.5975425008
  C        -0.8852281200        0.9725343827       10.9753942715
  C        -1.3657671902        0.1692686391        9.9162283955
  C        -2.5273142127       10.1546030637       10.1872758830
  C        -3.1700327406       10.1721610031       11.4227313838
  C        -2.6355456733        0.1820178553       12.4606474213
  C        -1.4900810098        0.9621068602       12.2251630507
  C        -3.8917336707        6.4834875406       16.5978550158
  C        -4.9288935264        5.8576905466       17.3675199664
  C        -2.8445980351        5.7388557680       16.0744264643
  C        -5.9650372107        6.5392700808       18.0745178633
  C        -6.9339082668        5.8348141483       18.7537187224
  C        -3.8310698123        3.7015483973       16.8619935375
  C        -2.7874100631        4.3463715313       16.2319590175
  C        -4.9154338537        4.4190258940       17.4383297083
  C        -5.9680768038        3.7289993444       18.0990544330
  C        -6.9629912834        4.4284370690       18.7279387088
  C       -13.7174699211        6.2869585119       31.2348490814
  C       -12.6261379668        5.6206119081       30.5937738069
  C       -14.7357222144        5.5717319321       31.8388779372
  C       -11.5961940342        6.3239434783       29.9141322771
  C       -10.6245043467        5.6351775582       29.2337320916
  C       -13.6590256111        3.4857269441       31.2453962108
  C       -14.7057815562        4.1651241620       31.8445663355
  C       -12.5964200101        4.1829639950       30.5958416599
  C       -11.5524558931        3.5085376576       29.8985557864
  C       -10.6056485402        4.2276070940       29.2120836559
  C        -9.5583895673        1.4539520193       23.6691935692
  C        -8.0621809410        8.6570028128       24.1596916440
  C        -2.8345112320        0.2423594206        7.3483032786
  C         0.8141151263        0.2652121245        8.6472636049
  O        -2.9512447717        8.6810226055       16.6252949160
  O        -5.3315938582        8.5231494605       16.1491237972
  O        -6.9622711492       10.5382846469       17.1062237785
  O        -5.0006688735       -0.2747997577       18.1687047987
  O        -4.8611600412        1.7785657878       16.0970115635
  O        -2.9647518340        1.5497881697       17.3569744195
  O        -2.3901595354        0.4495030522       14.7725638907
  O        -4.4309622740       10.4929137159       14.0260202461
  O       -14.7962710544        8.3778560327       30.9283351538
  O       -12.6984971547        8.3099260370       31.8175762869
  O       -10.7037705874       10.3323307294       30.7345766430
  O       -12.6318030406       10.2570457788       29.6596634596
  O       -12.6329132104        1.4631910779       31.8749894946
  O       -14.6719200098        1.3947855824       30.8634309164
  O         0.4065735799       -0.0097804822        1.2600654246
  O         2.4909790217       10.5422679610        2.0640286004
  F        -7.9196441339        6.4743780190       19.4295592445
  F        -8.0016793591        3.7766097328       19.2971731230
  F        -9.6418217669        6.3046283174       28.5974755546
  F        -9.6081519563        3.6049453957       28.5374050380
  O        -5.5886383531        8.0211956611       14.7657096966
  C        -4.2329816106        7.7628961093       14.5518688828
  O        -3.7623856501        7.4279269391       13.5048310271
     123
 i =      150, E =      -996.1955017265
 Zn        -2.5191946056       10.5695637773       16.6347360150
 Zn        -5.2841707823       10.6593165209       15.8502820553
 Zn       -15.1501680216       10.2841782158       31.2306387277
 Zn         3.1799943704       10.5989191365        0.1199119280
  H        -8.9004629839        0.6990701585       28.8779314441
  H        -8.0064254581        0.9372879752       26.6155303099
  H       -11.4526970352        9.6301410204       25.0210820021
  H       -12.3770463110        9.3971655993       27.3181936011
  H        -6.2138651653        0.5190894293       22.7889768632
  H        -9.6236409735        9.1251257064       21.2302902610
  H        -8.7245192843        9.3250135613       18.9555566035
  H        -5.2750372947        0.6971914110       20.4910904080
  H         1.9799286616        9.3768372235        4.5055958052
  H         0.7845639633        9.3879173694        6.6650845873
  H        -1.9640894992        1.5045998379        5.1096830105
  H        -0.8766206739        1.3494550521        2.9168790919
  H        -0.0254198023        1.6229925669       10.8221765427
  H        -2.8886171934        9.4691838073        9.4242031004
  H        -4.0239187695        9.5223989066       11.6124234267
  H        -1.0833985724        1.5679873491       13.0333431469
  H        -6.0033055495        7.6228385231       18.1010870695
  H        -6.0154708053        2.6427585628       18.1062354846
  H        -1.9684362134        3.7681662962       15.8028073108
  H        -2.0821693181        6.2365393807       15.4759921168
  H       -11.5571755740        7.4095377289       29.9168376997
  H       -11.4902585425        2.4229707284       29.8974580942
  H         0.0692205332        3.9281925760        0.3904851291
  H         0.0164414630        6.4293258991        0.3811821176
  H        -9.2046454263        1.5826579206       22.6400725566
  H        -9.1686449139        2.2832376141       24.2815241748
  H       -10.6560145212        1.5607018899       23.6782214086
  H        -6.9654139338        8.5622892854       24.1452775446
  H        -8.4474565791        7.8203537578       23.5538900500
  H        -8.4094262312        8.5292223991       25.1924099721
  H        -3.3701985827       10.0581337117        7.5020149504
  H         3.1852048559        0.5980540334        6.3769741253
  H        -3.2094889686        0.9106569985        8.1288855146
  H         1.2787983646       10.0750976032        8.5387227339
  H         1.1787131566        0.6663901500        9.5984003796
  H         1.1873383878        0.8963593957        7.8345628184
  C        -3.8722821095        7.9194292685       16.0891464810
  C        -6.2831490046       10.4929862217       18.2424795388
  C        -3.8823923225        2.2204625043       16.7894533931
  C        -3.2286908498       10.9038148787       13.8356542975
  C       -13.7401987556        7.7763125284       31.3257037569
  C       -11.3866094865       10.3263506920       29.5961652586
  C       -13.6479622292        1.9978304862       31.3299316667
  C         1.2341938472       10.6932791729        2.2093043675
  C       -10.7189491162       10.4082999089       28.2664710319
  C        -9.4523546099        0.2538422807       28.0527482279
  C        -8.9464479809        0.4026217340       26.7588840193
  C        -9.6419512895       -0.1048148729       25.6489405928
  C       -10.8989934937       10.0271975973       25.8738609795
  C       -11.4217942034        9.8958884263       27.1570154917
  C        -9.1546277344        0.1242166850       24.2526866177
  C        -8.4820172313        9.9819860723       23.5753499479
  C        -6.7539415838        0.0872563548       21.9446262805
  C        -8.0008241292       10.2038411186       22.1761468766
  C        -8.6886908477        9.6646484245       21.0745415901
  C        -8.1818114542        9.7925134402       19.7791118247
  C        -6.9505065434       10.4294190990       19.5649066926
  C        -6.2246477936        0.1908824249       20.6624221164
  C         0.6641624581       -0.0107363087        3.5709498751
  C         1.1107769035       10.0201638015        4.6466168743
  C         0.4403265693       10.0433943609        5.8682907375
  C        -0.6489348760        0.0781275385        6.0928076940
  C        -1.1074374031        0.8416143566        4.9960021113
  C        -0.4816978148        0.7789169398        3.7570239098
  C        -1.3476092402        0.1314854059        7.4075473508
  C        -0.6745688097        0.1587420530        8.5978410361
  C        -0.8847791695        0.9723461360       10.9760406398
  C        -1.3665708915        0.1700774571        9.9164006166
  C        -2.5259688370       10.1530591390       10.1882548674
  C        -3.1702947110       10.1723831176       11.4229900337
  C        -2.6349897774        0.1804804872       12.4618046447
  C        -1.4926483169        0.9638306212       12.2245170240
  C        -3.8915162356        6.4818236745       16.5987764906
  C        -4.9282672029        5.8552536837       17.3684622243
  C        -2.8441653624        5.7372404189       16.0752621906
  C        -5.9630003337        6.5393367824       18.0752701425
  C        -6.9320495258        5.8340199754       18.7534508929
  C        -3.8308432522        3.7004482342       16.8625592867
  C        -2.7859456239        4.3448896826       16.2348241879
  C        -4.9162300390        4.4166595298       17.4380911019
  C        -5.9711421942        3.7291560432       18.0979883770
  C        -6.9656802956        4.4276782317       18.7284772347
  C       -13.7183467880        6.2867992389       31.2341701337
  C       -12.6255704348        5.6208176742       30.5952055274
  C       -14.7363376212        5.5714330665       31.8385642873
  C       -11.5964690623        6.3233610286       29.9133189363
  C       -10.6241282898        5.6351996678       29.2331208597
  C       -13.6582758250        3.4859871633       31.2464326658
  C       -14.7064449036        4.1648066891       31.8437466415
  C       -12.5958840659        4.1831097436       30.5960941963
  C       -11.5507659368        3.5085451469       29.9006229197
  C       -10.6048237554        4.2275007455       29.2125590688
  C        -9.5587483985        1.4543644932       23.6701722661
  C        -8.0640445259        8.6563950598       24.1593413591
  C        -2.8350002202        0.2397801965        7.3481372784
  C         0.8140882158        0.2643115031        8.6470183287
  O        -2.9500468445        8.6797658742       16.6263252089
  O        -5.3296553028        8.5238778888       16.1509352255
  O        -6.9619726939       10.5386371758       17.1057247317
  O        -5.0003155205       -0.2744606578       18.1696638586
  O        -4.8619780155        1.7785628817       16.0995055333
  O        -2.9640151486        1.5486397007       17.3567519316
  O        -2.3900284033        0.4479736533       14.7716375768
  O        -4.4320341315       10.4943279570       14.0266009881
  O       -14.7961569650        8.3778619753       30.9284850088
  O       -12.6985008305        8.3100415250       31.8173423772
  O       -10.7039868699       10.3323579878       30.7344870099
  O       -12.6317366192       10.2571256806       29.6596517742
  O       -12.6330484357        1.4631076499       31.8748896440
  O       -14.6717799466        1.3946880892       30.8633767227
  O         0.4065875678       -0.0096510542        1.2601563481
  O         2.4910330703       10.5423717581        2.0641968855
  F        -7.9198396020        6.4721813841       19.4275500595
  F        -8.0031074727        3.7760760569       19.3004087693
  F        -9.6391032833        6.3044252677       28.5995309967
  F        -9.6048871775        3.6059860997       28.5404257224
  O        -5.5853527833        8.0232424209       14.7643483699
  C        -4.2324315006        7.7634021045       14.5536509890
  O        -3.7605387320        7.4284314081       13.5062889201
     123
 i =      151, E =      -996.1955355754
 Zn        -2.5190325513       10.5700044682       16.6340001540
 Zn        -5.2842434605       10.6601396567       15.8520181673
 Zn       -15.1501195492       10.2842101922       31.2304277427
 Zn         3.1798935629       10.5987741175        0.1201458220
  H        -8.9010628307        0.7000296390       28.8776531827
  H        -8.0072043081        0.9375874048       26.6150195479
  H       -11.4522443877        9.6285400059       25.0214006671
  H       -12.3765284264        9.3958984584       27.3185295215
  H        -6.2148276625        0.5171333793       22.7889614171
  H        -9.6236546211        9.1234800388       21.2298309674
  H        -8.7244343468        9.3234515062       18.9550704272
  H        -5.2757544932        0.6957550982       20.4912382852
  H         1.9811709383        9.3785233603        4.5056786341
  H         0.7856201742        9.3880087576        6.6649358125
  H        -1.9650735983        1.5031012466        5.1102392059
  H        -0.8776813871        1.3492094707        2.9174465804
  H        -0.0273392105        1.6236424412       10.8230687590
  H        -2.8879957714        9.4696304911        9.4244459938
  H        -4.0246902444        9.5215090654       11.6121956735
  H        -1.0860559931        1.5689514163       13.0340815991
  H        -6.0009379512        7.6235304746       18.1037748553
  H        -6.0160170879        2.6434218833       18.1048920046
  H        -1.9682907757        3.7673874970       15.8040875467
  H        -2.0797984491        6.2357758103       15.4776483450
  H       -11.5569787166        7.4091669717       29.9170627908
  H       -11.4904065313        2.4233953196       29.8978956900
  H         0.0685201672        3.9285179663        0.3893021491
  H         0.0160624191        6.4298531452        0.3805762861
  H        -9.2043515638        1.5834974964       22.6407350931
  H        -9.1680903798        2.2834871057       24.2826611647
  H       -10.6557932490        1.5615338007       23.6788825810
  H        -6.9676461901        8.5609069299       24.1449415365
  H        -8.4502190044        7.8197484319       23.5524282911
  H        -8.4123308027        8.5282561452       25.1915313287
  H        -3.3692850243       10.0569920932        7.5026219050
  H         3.1845257972        0.5969989669        6.3783060368
  H        -3.2096853770        0.9082236110        8.1302797147
  H         1.2775816681       10.0742751747        8.5392190702
  H         1.1797372116        0.6655418840        9.5984711377
  H         1.1876050108        0.8944275074        7.8340883366
  C        -3.8719306079        7.9189466337       16.0900636305
  C        -6.2824003911       10.4922056065       18.2423090626
  C        -3.8825619259        2.2217272271       16.7887359472
  C        -3.2296574451       10.9036833594       13.8362477553
  C       -13.7400741418        7.7765005233       31.3252108381
  C       -11.3864768115       10.3263350819       29.5962846165
  C       -13.6478480112        1.9976455309       31.3297036360
  C         1.2339241831       10.6937997940        2.2094762879
  C       -10.7193608564       10.4085821600       28.2663229429
  C        -9.4527854565        0.2539314550       28.0527510471
  C        -8.9470913781        0.4028559456       26.7588361036
  C        -9.6421045625       -0.1046795481       25.6487291346
  C       -10.8985210375       10.0260589134       25.8738310598
  C       -11.4215884925        9.8951122628       27.1569328469
  C        -9.1559492790        0.1237890719       24.2520016065
  C        -8.4832166696        9.9812688741       23.5754968981
  C        -6.7545462473        0.0862693732       21.9437506616
  C        -8.0013768619       10.2032737625       22.1765778681
  C        -8.6892703758        9.6646709594       21.0749782399
  C        -8.1821230659        9.7895265452       19.7792609797
  C        -6.9522914580       10.4300186531       19.5636916571
  C        -6.2252931606        0.1884468140       20.6614486993
  C         0.6648042099       -0.0099121233        3.5715517610
  C         1.1110411440       10.0205114491        4.6469273328
  C         0.4408587529       10.0438568468        5.8687341801
  C        -0.6488745700        0.0779821509        6.0931883490
  C        -1.1079591996        0.8408460907        4.9961516342
  C        -0.4821521656        0.7784456889        3.7571248718
  C        -1.3477325281        0.1304814643        7.4078896416
  C        -0.6740683239        0.1579584054        8.5978495077
  C        -0.8864679211        0.9724283445       10.9768198643
  C        -1.3657878534        0.1695312269        9.9167085832
  C        -2.5256961559       10.1530709262       10.1889258907
  C        -3.1708775692       10.1712673008       11.4232784128
  C        -2.6360441992        0.1793800918       12.4621897566
  C        -1.4943264274        0.9639006696       12.2253454158
  C        -3.8890869074        6.4813872942       16.6012333841
  C        -4.9274956241        5.8554513581       17.3688697532
  C        -2.8425668266        5.7370758214       16.0757996025
  C        -5.9611241836        6.5400438865       18.0770519321
  C        -6.9330136617        5.8349109837       18.7514574471
  C        -3.8308700433        3.7014536916       16.8635263165
  C        -2.7854723753        4.3447650796       16.2355458885
  C        -4.9166872303        4.4168768033       17.4387521800
  C        -5.9729107636        3.7297245167       18.0969615281
  C        -6.9648792852        4.4286169856       18.7308016235
  C       -13.7183379710        6.2869068813       31.2344629270
  C       -12.6252149677        5.6209706308       30.5959942599
  C       -14.7367460941        5.5716556725       31.8382106816
  C       -11.5961140001        6.3229009708       29.9133440243
  C       -10.6239193535        5.6349843368       29.2324067467
  C       -13.6579715375        3.4859217575       31.2471475511
  C       -14.7067091154        4.1649974429       31.8430420047
  C       -12.5960623455        4.1831491775       30.5957818825
  C       -11.5505055096        3.5090058170       29.9003499183
  C       -10.6032983911        4.2271232244       29.2128812889
  C        -9.5585177538        1.4551388395       23.6708018453
  C        -8.0662749776        8.6549807115       24.1586409792
  C        -2.8351325975        0.2387822628        7.3491517358
  C         0.8144081491        0.2636999608        8.6471731038
  O        -2.9504713742        8.6802974279       16.6266827832
  O        -5.3302507951        8.5233679667       16.1497990826
  O        -6.9621411879       10.5384404074       17.1061527236
  O        -4.9993320826       -0.2746029349       18.1702387558
  O        -4.8608856893        1.7787972546       16.0977285945
  O        -2.9656419949        1.5486423309       17.3582307629
  O        -2.3902567021        0.4492301807       14.7713375317
  O        -4.4321616761       10.4923845868       14.0285383878
  O       -14.7963885318        8.3777984017       30.9284622076
  O       -12.6984285779        8.3100146761       31.8171834696
  O       -10.7041039298       10.3324364342       30.7348007372
  O       -12.6315976433       10.2572380097       29.6590531020
  O       -12.6330985430        1.4629732401       31.8750894822
  O       -14.6720320354        1.3948664015       30.8633748657
  O         0.4065811465       -0.0096130291        1.2600017958
  O         2.4907063638       10.5424170803        2.0643371374
  F        -7.9221743754        6.4729128469       19.4239989329
  F        -8.0045478048        3.7765499450       19.2994065847
  F        -9.6394617450        6.3045034391       28.5980194129
  F        -9.6049227641        3.6048008920       28.5383489990
  O        -5.5823077593        8.0218809484       14.7626969663
  C        -4.2282877686        7.7628207913       14.5541509301
  O        -3.7584831139        7.4309337967       13.5057032419
     123
 i =      152, E =      -996.1955691800
 Zn        -2.5190518080       10.5698088828       16.6339833546
 Zn        -5.2847594045       10.6607003335       15.8524577399
 Zn       -15.1500526313       10.2843423941       31.2304419171
 Zn         3.1798668873       10.5985330665        0.1199962409
  H        -8.9016602465        0.7007398948       28.8774049528
  H        -8.0078108309        0.9384319240       26.6146535426
  H       -11.4518440838        9.6270944718       25.0214668492
  H       -12.3759238222        9.3944895096       27.3187635178
  H        -6.2151023776        0.5154426953       22.7891018192
  H        -9.6238458851        9.1215570575       21.2297388476
  H        -8.7248103496        9.3217544845       18.9547991880
  H        -5.2763804063        0.6948575416       20.4912276897
  H         1.9820294019        9.3799089202        4.5057371770
  H         0.7864149566        9.3881593476        6.6648682097
  H        -1.9661453619        1.5018560996        5.1102386346
  H        -0.8785074057        1.3486236549        2.9175465447
  H        -0.0282095795        1.6243358793       10.8238749529
  H        -2.8877452640        9.4692791749        9.4248627919
  H        -4.0249838986        9.5207523577       11.6126756095
  H        -1.0878552811        1.5700005639       13.0345102289
  H        -5.9991486668        7.6241038459       18.1058284986
  H        -6.0160951471        2.6439894624       18.1046984170
  H        -1.9675587154        3.7671626246       15.8060966165
  H        -2.0789231873        6.2354028072       15.4778795410
  H       -11.5567416718        7.4089730238       29.9168996473
  H       -11.4902233652        2.4230440067       29.8982174840
  H         0.0682506957        3.9284802002        0.3885858607
  H         0.0159331372        6.4298476114        0.3799705704
  H        -9.2040540063        1.5844343182       22.6413405041
  H        -9.1676608285        2.2833827591       24.2835063846
  H       -10.6554733888        1.5625049221       23.6792903814
  H        -6.9699451152        8.5594904588       24.1446592702
  H        -8.4524428189        7.8193560047       23.5513071862
  H        -8.4148461659        8.5269002567       25.1908107269
  H        -3.3687116946       10.0558262286        7.5035161016
  H         3.1839092556        0.5960268928        6.3793338851
  H        -3.2095546176        0.9066103244        8.1311527929
  H         1.2770113001       10.0730993968        8.5389489965
  H         1.1805026904        0.6650160377        9.5983209827
  H         1.1877832819        0.8930152714        7.8339319443
  C        -3.8714926582        7.9194890064       16.0899144609
  C        -6.2829766579       10.4919075335       18.2425907129
  C        -3.8826880172        2.2220746736       16.7889976233
  C        -3.2300033830       10.9044035528       13.8368418761
  C       -13.7400107385        7.7765508480       31.3247142978
  C       -11.3865931839       10.3262705600       29.5963055484
  C       -13.6479256688        1.9975198409       31.3303292323
  C         1.2339581326       10.6939577781        2.2094387873
  C       -10.7192989264       10.4083277220       28.2664322717
  C        -9.4531046306        0.2543243603       28.0524737120
  C        -8.9475361712        0.4034266800       26.7585269772
  C        -9.6425762904       -0.1048801901       25.6487485904
  C       -10.8985779000       10.0252124690       25.8739386893
  C       -11.4213271014        9.8943821669       27.1571789684
  C        -9.1561184012        0.1237581259       24.2521879188
  C        -8.4843050971        9.9809303913       23.5751051727
  C        -6.7554205337        0.0852354478       21.9439108384
  C        -8.0024252146       10.2023189934       22.1761070535
  C        -8.6898608726        9.6631366719       21.0745040619
  C        -8.1828295223        9.7888607124       19.7787795114
  C        -6.9527076051       10.4286985074       19.5640818272
  C        -6.2260082687        0.1880025652       20.6617569282
  C         0.6647002225       -0.0094733891        3.5714624120
  C         1.1114553961       10.0213325333        4.6468707141
  C         0.4414497994       10.0440456462        5.8687958058
  C        -0.6487205287        0.0776108060        6.0933269564
  C        -1.1086674352        0.8400783164        4.9963127862
  C        -0.4825553538        0.7783110497        3.7573587396
  C        -1.3473312677        0.1300204067        7.4082958649
  C        -0.6739819655        0.1577329280        8.5984237800
  C        -0.8872218187        0.9726917951       10.9772986982
  C        -1.3657248604        0.1689477505        9.9174458185
  C        -2.5259865534       10.1527559801       10.1894069819
  C        -3.1709991776       10.1704078814       11.4239685591
  C        -2.6370831456        0.1796658416       12.4622695359
  C        -1.4950303755        0.9641432959       12.2258613438
  C        -3.8882320362        6.4818465579       16.6010811994
  C        -4.9265684896        5.8565099351       17.3695274898
  C        -2.8415245426        5.7368012656       16.0767871056
  C        -5.9605079348        6.5406162746       18.0778339392
  C        -6.9324692835        5.8355271539       18.7522613146
  C        -3.8310260523        3.7017348436       16.8643285020
  C        -2.7854457626        4.3445555130       16.2360515092
  C        -4.9169078931        4.4180239310       17.4383067833
  C        -5.9723006343        3.7301709427       18.0968353069
  C        -6.9641058913        4.4292814045       18.7303915559
  C       -13.7177669858        6.2868759042       31.2348113804
  C       -12.6252562967        5.6206928011       30.5954905888
  C       -14.7367541833        5.5717657659       31.8376164284
  C       -11.5958049023        6.3228046577       29.9137056968
  C       -10.6240542059        5.6348419573       29.2323310447
  C       -13.6582889713        3.4856822403       31.2466805967
  C       -14.7065315062        4.1650995238       31.8432239648
  C       -12.5956321183        4.1829015904       30.5966796860
  C       -11.5505315435        3.5086146159       29.9006522811
  C       -10.6036068066        4.2270599253       29.2131018988
  C        -9.5582495534        1.4553734228       23.6713042440
  C        -8.0685251668        8.6541833670       24.1580982832
  C        -2.8347917186        0.2377818841        7.3498311727
  C         0.8145554902        0.2629631392        8.6475000156
  O        -2.9500046766        8.6808458625       16.6264452896
  O        -5.3307825151        8.5232040909       16.1489874623
  O        -6.9617147202       10.5379704264       17.1057934956
  O        -5.0000577927       -0.2751706806       18.1700045683
  O        -4.8615703978        1.7790171388       16.0989979871
  O        -2.9651388470        1.5488733545       17.3573688078
  O        -2.3906276902        0.4490733019       14.7717544848
  O        -4.4323225522       10.4939033472       14.0295563112
  O       -14.7965631266        8.3778297448       30.9285030730
  O       -12.6983980585        8.3098122732       31.8169535879
  O       -10.7040080636       10.3324926616       30.7347253280
  O       -12.6317075084       10.2572858554       29.6591245912
  O       -12.6328770869        1.4627043502       31.8750383316
  O       -14.6718833061        1.3949474497       30.8632095313
  O         0.4065462295       -0.0095185307        1.2600477220
  O         2.4907317786       10.5424364167        2.0642449849
  F        -7.9213677277        6.4738975284       19.4247771246
  F        -8.0033576116        3.7767206078       19.2991456580
  F        -9.6393291984        6.3048694546       28.5988686954
  F        -9.6046266453        3.6061057357       28.5385847618
  O        -5.5826289007        8.0203229112       14.7615446700
  C        -4.2284043133        7.7625241337       14.5555179335
  O        -3.7557546834        7.4297623074       13.5078617871
     123
 i =      153, E =      -996.1956093178
 Zn        -2.5190444738       10.5700600726       16.6332942899
 Zn        -5.2865214509       10.6619124049       15.8540820892
 Zn       -15.1501061869       10.2842349136       31.2306095432
 Zn         3.1798403460       10.5987234827        0.1202228023
  H        -8.9026233071        0.7017633898       28.8769686689
  H        -8.0091130382        0.9392914837       26.6138375379
  H       -11.4512142394        9.6238669089       25.0219413186
  H       -12.3750435066        9.3916976304       27.3195252340
  H        -6.2148668720        0.5100156310       22.7897032033
  H        -9.6249449640        9.1181318560       21.2292756334
  H        -8.7258259198        9.3188225990       18.9543294464
  H        -5.2773330901        0.6913524029       20.4913918646
  H         1.9844057437        9.3834936795        4.5057291176
  H         0.7886702919        9.3886615207        6.6645821983
  H        -1.9683599487        1.4986353332        5.1110516595
  H        -0.8804357387        1.3479417921        2.9183996489
  H        -0.0313022248        1.6270558042       10.8254654617
  H        -2.8870214668        9.4673708905        9.4249262784
  H        -4.0255137158        9.5179469843       11.6130231681
  H        -1.0939168317        1.5720853087       13.0350414494
  H        -5.9951703035        7.6262944734       18.1107508773
  H        -6.0169916723        2.6462931395       18.1028463454
  H        -1.9660202666        3.7674492208       15.8095172600
  H        -2.0756460385        6.2356960985       15.4815151993
  H       -11.5559093089        7.4091196590       29.9171819751
  H       -11.4895942016        2.4226129300       29.8988814723
  H         0.0667984634        3.9286624861        0.3859969381
  H         0.0152277488        6.4301463420        0.3775755001
  H        -9.2036622819        1.5866241001       22.6429286243
  H        -9.1665520580        2.2830309766       24.2859256227
  H       -10.6549722907        1.5647983576       23.6808298628
  H        -6.9755682752        8.5558090573       24.1439515879
  H        -8.4583142835        7.8185248604       23.5487030644
  H        -8.4211578192        8.5238576550       25.1889930962
  H        -3.3670453608       10.0513421560        7.5041189255
  H         3.1828176049        0.5939711174        6.3822575560
  H        -3.2093534858        0.9013868781        8.1341125284
  H         1.2756490946       10.0700211301        8.5404767834
  H         1.1818087571        0.6644844934        9.5979362580
  H         1.1883812008        0.8887675117        7.8334262299
  C        -3.8699728784        7.9210689243       16.0918603539
  C        -6.2837525368       10.4902139142       18.2430760312
  C        -3.8831277941        2.2229314459       16.7886104008
  C        -3.2321355355       10.9034988965       13.8371482808
  C       -13.7397272372        7.7764829111       31.3245741683
  C       -11.3869517532       10.3261099979       29.5962629034
  C       -13.6478471871        1.9976186750       31.3304283196
  C         1.2340312293       10.6948522444        2.2095520497
  C       -10.7192793603       10.4078366656       28.2665426075
  C        -9.4537721021        0.2550609802       28.0520313894
  C        -8.9485918180        0.4038921213       26.7578996163
  C        -9.6435882683       -0.1056447180       25.6486092658
  C       -10.8988442893       10.0236116954       25.8743424050
  C       -11.4210470435        9.8925728226       27.1577867620
  C        -9.1567758977        0.1236154658       24.2522982209
  C        -8.4872154271        9.9798917499       23.5739247331
  C        -6.7571029231        0.0823656172       21.9444883181
  C        -8.0047847602       10.1999058424       22.1749073465
  C        -8.6917162872        9.6604084540       21.0732456381
  C        -8.1839706182        9.7871832794       19.7778126389
  C        -6.9534047413       10.4261548304       19.5645735247
  C        -6.2271902559        0.1854638126       20.6626476019
  C         0.6644559645       -0.0081922089        3.5714929009
  C         1.1129400502       10.0236632081        4.6469303721
  C         0.4428171430       10.0445200582        5.8688508263
  C        -0.6484853343        0.0764255773        6.0942125640
  C        -1.1096940549        0.8383795472        4.9973231634
  C        -0.4836128063        0.7781310488        3.7581738008
  C        -1.3466757265        0.1284313208        7.4096707244
  C        -0.6741093166        0.1572165452        8.6002055397
  C        -0.8889920203        0.9733472303       10.9782473771
  C        -1.3666446628        0.1678652853        9.9191191250
  C        -2.5264046358       10.1506417758       10.1899883885
  C        -3.1718339544       10.1681824865       11.4246170634
  C        -2.6395873236        0.1789785700       12.4622490040
  C        -1.4982958646        0.9648601909       12.2260643174
  C        -3.8859602061        6.4837163264       16.6031144135
  C        -4.9252105979        5.8590164784       17.3706405994
  C        -2.8396360955        5.7375274187       16.0791339192
  C        -5.9587123363        6.5426867737       18.0805055219
  C        -6.9306919469        5.8362460621       18.7538842660
  C        -3.8313521297        3.7026700139       16.8642577726
  C        -2.7841982770        4.3451563759       16.2384092962
  C        -4.9163007418        4.4205908448       17.4379966714
  C        -5.9712827819        3.7321896868       18.0961706550
  C        -6.9642236275        4.4300245516       18.7288338510
  C       -13.7175279301        6.2868786255       31.2341364920
  C       -12.6245084629        5.6204727083       30.5960890343
  C       -14.7366202397        5.5718529076       31.8369190412
  C       -11.5957840336        6.3230710188       29.9139063120
  C       -10.6243660668        5.6344435652       29.2330652615
  C       -13.6578223734        3.4857655919       31.2471927401
  C       -14.7069503745        4.1651660930       31.8421370206
  C       -12.5949747495        4.1827208874       30.5972264594
  C       -11.5500695536        3.5081125345       29.9014925434
  C       -10.6042464138        4.2267760236       29.2127930550
  C        -9.5578682801        1.4561134723       23.6727047733
  C        -8.0739931205        8.6522571962       24.1567349978
  C        -2.8343121640        0.2341182087        7.3514672403
  C         0.8146615481        0.2607349282        8.6486017277
  O        -2.9492325891        8.6823205635       16.6276202782
  O        -5.3317508094        8.5229312096       16.1471789436
  O        -6.9614857003       10.5384127845       17.1054221976
  O        -5.0011740327       -0.2766336672       18.1702224709
  O        -4.8629610042        1.7796095975       16.0998877592
  O        -2.9641786321        1.5502552771       17.3557381258
  O        -2.3919903885        0.4483701146       14.7720090690
  O        -4.4348710154       10.4948865428       14.0298131498
  O       -14.7963727209        8.3777060012       30.9285516352
  O       -12.6981229545        8.3101315089       31.8163128878
  O       -10.7040225945       10.3325734963       30.7345254311
  O       -12.6320358758       10.2573581664       29.6594691284
  O       -12.6329256823        1.4627531455       31.8752555098
  O       -14.6718123105        1.3949536667       30.8634624629
  O         0.4064071215       -0.0095193533        1.2603236124
  O         2.4907400494       10.5423681905        2.0643268923
  F        -7.9192335508        6.4731152173       19.4276434458
  F        -8.0023212506        3.7774366407       19.2999628991
  F        -9.6400971263        6.3030195937       28.5978663604
  F        -9.6059473190        3.6045534865       28.5391057681
  O        -5.5802748359        8.0193780259       14.7586564273
  C        -4.2248637769        7.7630848484       14.5568733308
  O        -3.7490456001        7.4311067123       13.5095343528
     123
 i =      154, E =      -996.1957062569
 Zn        -2.5198107901       10.5704735381       16.6317760101
 Zn        -5.2896663662       10.6631097229       15.8569373875
 Zn       -15.1502298535       10.2841250778       31.2306294629
 Zn         3.1797244511       10.5988680652        0.1206047888
  H        -8.9041162999        0.7037701126       28.8761218248
  H        -8.0113372215        0.9408980286       26.6123606010
  H       -11.4502687168        9.6185463693       25.0227871360
  H       -12.3734797684        9.3870679725       27.3208146116
  H        -6.2158138429        0.5015344538       22.7907230114
  H        -9.6265023166        9.1126449716       21.2276975510
  H        -8.7268356556        9.3144596135       18.9530280637
  H        -5.2789451926        0.6860807131       20.4922821163
  H         1.9883375915        9.3893788952        4.5055142479
  H         0.7925455181        9.3894240099        6.6640527037
  H        -1.9721389006        1.4932903685        5.1124908640
  H        -0.8838327097        1.3468360115        2.9199116159
  H        -0.0362512797        1.6306562473       10.8278129240
  H        -2.8856099449        9.4648632833        9.4256070980
  H        -4.0262213654        9.5133187828       11.6130104845
  H        -1.1036838656        1.5755176198       13.0357138295
  H        -5.9892664565        7.6291314867       18.1188053845
  H        -6.0168060965        2.6492192224       18.1001643454
  H        -1.9638444131        3.7675532956       15.8145298707
  H        -2.0699880823        6.2363470569       15.4868179891
  H       -11.5545249286        7.4086449386       29.9179835425
  H       -11.4893347969        2.4219665528       29.8995616538
  H         0.0646070876        3.9289751306        0.3824839238
  H         0.0141888511        6.4306863236        0.3742513120
  H        -9.2026620638        1.5899913459       22.6451594819
  H        -9.1645144626        2.2825899163       24.2900196036
  H       -10.6540674563        1.5682401595       23.6832854453
  H        -6.9843740233        8.5498241694       24.1429175816
  H        -8.4680659125        7.8167201132       23.5443727472
  H        -8.4316525193        8.5192397807       25.1858999372
  H        -3.3641928656       10.0442404211        7.5055714660
  H         3.1813393151        0.5902865603        6.3866368455
  H        -3.2089185247        0.8935487159        8.1395416895
  H         1.2737822788       10.0650884579        8.5427888184
  H         1.1844973018        0.6628576179        9.5976571316
  H         1.1892409858        0.8821752970        7.8323284614
  C        -3.8679622027        7.9221050841       16.0930245373
  C        -6.2844080479       10.4887383035       18.2436994965
  C        -3.8844279222        2.2239768831       16.7899099464
  C        -3.2354726123       10.9029513564       13.8377809277
  C       -13.7395894964        7.7763912720       31.3247764564
  C       -11.3870790703       10.3263029923       29.5962751040
  C       -13.6479418293        1.9977921780       31.3307028025
  C         1.2338059767       10.6958528319        2.2097556045
  C       -10.7195466385       10.4070418618       28.2664299107
  C        -9.4549692765        0.2559585698       28.0515528467
  C        -8.9503676773        0.4049386479       26.7572176418
  C        -9.6446207693       -0.1069593127       25.6483705258
  C       -10.8988016388       10.0209540555       25.8746273655
  C       -11.4205165088        9.8895459354       27.1582470677
  C        -9.1587147578        0.1233551496       24.2519529948
  C        -8.4926085799        9.9775487657       23.5726195241
  C        -6.7595591465        0.0771762123       21.9446133718
  C        -8.0084312784       10.1966819850       22.1741119734
  C        -8.6942396161        9.6564835113       21.0720844683
  C        -8.1857614956        9.7831694237       19.7768055286
  C        -6.9552938132       10.4226336228       19.5644599204
  C        -6.2291651412        0.1807847052       20.6631167991
  C         0.6645238724       -0.0060539193        3.5718648736
  C         1.1150699325       10.0269573866        4.6471909822
  C         0.4448702479       10.0453300641        5.8691456828
  C        -0.6481579077        0.0747383412        6.0954838386
  C        -1.1114255671        0.8357066125        4.9986740230
  C        -0.4855558123        0.7772617506        3.7591720181
  C        -1.3462088844        0.1253263610        7.4113297433
  C        -0.6738798023        0.1559748171        8.6020153672
  C        -0.8925338036        0.9746490936       10.9796439952
  C        -1.3671912673        0.1665103574        9.9210580112
  C        -2.5261071282       10.1479097908       10.1913110006
  C        -3.1733895842       10.1650380087       11.4253591455
  C        -2.6438153511        0.1779239473       12.4623539739
  C        -1.5037252985        0.9658762680       12.2264389736
  C        -3.8840216943        6.4852695143       16.6052217030
  C        -4.9226869431        5.8609234406       17.3741936199
  C        -2.8362485306        5.7394036484       16.0833595416
  C        -5.9559818838        6.5452980042       18.0842439023
  C        -6.9290737521        5.8385177881       18.7565334892
  C        -3.8310976419        3.7040661285       16.8632860171
  C        -2.7819148021        4.3468157493       16.2415496401
  C        -4.9149849715        4.4225847406       17.4380302142
  C        -5.9706276253        3.7349392354       18.0954833098
  C        -6.9637700910        4.4321035170       18.7281774289
  C       -13.7170132117        6.2868525841       31.2335919651
  C       -12.6237548837        5.6202100126       30.5963260136
  C       -14.7369277088        5.5720427462       31.8352000706
  C       -11.5950311458        6.3227005182       29.9142649507
  C       -10.6237736902        5.6340223726       29.2336184453
  C       -13.6578771485        3.4858907001       31.2469929675
  C       -14.7075940214        4.1653414974       31.8409736241
  C       -12.5939556372        4.1824584007       30.5984106820
  C       -11.5494972024        3.5075454242       29.9022758486
  C       -10.6043355028        4.2263260233       29.2124968321
  C        -9.5571093756        1.4577958242       23.6746486691
  C        -8.0826294054        8.6484913052       24.1543811347
  C        -2.8341261140        0.2285386351        7.3546212266
  C         0.8151321439        0.2570987958        8.6500395252
  O        -2.9496450290        8.6848529033       16.6293262127
  O        -5.3341424208        8.5214063348       16.1446834449
  O        -6.9621755360       10.5386584052       17.1055953911
  O        -5.0020926288       -0.2772745585       18.1709683802
  O        -4.8638928417        1.7801464725       16.1003298183
  O        -2.9642240000        1.5515474771       17.3554927580
  O        -2.3932630649        0.4475714684       14.7713066843
  O        -4.4379556014       10.4956913135       14.0315686993
  O       -14.7960637857        8.3776470802       30.9282614835
  O       -12.6977580637        8.3104966819       31.8154440218
  O       -10.7040720973       10.3324156628       30.7345302086
  O       -12.6320908849       10.2572094104       29.6596598772
  O       -12.6330464528        1.4627634573       31.8754017710
  O       -14.6717013271        1.3948795449       30.8636381410
  O         0.4063018618       -0.0090792901        1.2604259754
  O         2.4905077564       10.5427933725        2.0644664616
  F        -7.9191648538        6.4747763664       19.4280642143
  F        -8.0020029724        3.7772833635       19.2981276378
  F        -9.6405723900        6.3043906557       28.5985159614
  F        -9.6051780723        3.6056635042       28.5390910699
  O        -5.5754755833        8.0171988086       14.7558159929
  C        -4.2193444430        7.7633843296       14.5602967841
  O        -3.7337330727        7.4324409741       13.5157341775
     123
 i =      155, E =      -996.0060508733
 Zn        -2.4925493428       10.6143629689       16.6443850032
 Zn        -5.2453065405       10.6175722800       15.8216158622
 Zn       -15.1472687501       10.2866866246       31.2322270905
 Zn         3.1794321203       10.5958011157        0.1196755574
  H        -8.9102498657        0.7069547068       28.8762803525
  H        -8.0165926761        0.9474528060       26.6124400318
  H       -11.4488031430        9.6166499530       25.0235512206
  H       -12.3746252754        9.3793278960       27.3198962762
  H        -6.2278792009        0.4958942803       22.7850981000
  H        -9.6403979639        9.1085311274       21.2249668974
  H        -8.7277502827        9.3088284517       18.9505702849
  H        -5.2789423561        0.6756987509       20.4975291901
  H         1.9933000004        9.3947060953        4.5070970454
  H         0.7986038328        9.3949051748        6.6646334867
  H        -1.9753822788        1.4872475442        5.1155931139
  H        -0.8927838577        1.3405132258        2.9210268047
  H        -0.0460663647        1.6258943824       10.8209317873
  H        -2.8792295190        9.4499748806        9.4326842999
  H        -4.0219377278        9.5092425513       11.6125723561
  H        -1.1051507412        1.5815761815       13.0307133161
  H        -5.9857553551        7.6167112582       18.1170917240
  H        -6.0262772410        2.6402990523       18.1010539058
  H        -1.9500414736        3.7858023740       15.8149383953
  H        -2.0919429800        6.2418645678       15.5133630921
  H       -11.5553878322        7.4129872297       29.9187400811
  H       -11.4869839635        2.4265211030       29.9015485574
  H         0.0686008468        3.9311992119        0.3812794775
  H         0.0146984207        6.4305394998        0.3709193811
  H        -9.1998625533        1.5926832572       22.6504155886
  H        -9.1607304876        2.2798556458       24.2912743576
  H       -10.6508267149        1.5744936946       23.6835493157
  H        -7.0012636741        8.5409731914       24.1413253997
  H        -8.4820187089        7.8092006662       23.5396621232
  H        -8.4471776661        8.5101502691       25.1810403255
  H        -3.3704826391       10.0320714464        7.5069328128
  H         3.1791910908        0.5813746200        6.3981225017
  H        -3.2081481125        0.8679981322        8.1314474891
  H         1.2724275408       10.0582988671        8.5585436160
  H         1.1781355297        0.6584159203        9.6080943968
  H         1.1844272511        0.8643521073        7.8510924399
  C        -3.9098604960        7.9033837716       16.1383985050
  C        -6.3355956375       10.4887656077       18.2354343441
  C        -3.8379504766        2.2260776520       16.7057029724
  C        -3.2171126405       10.9130920214       13.8221327157
  C       -13.7265940862        7.7869435928       31.2892694392
  C       -11.3882821842       10.3006784874       29.6021841744
  C       -13.6469428166        1.9874322656       31.3206189468
  C         1.2344628493       10.7151228495        2.2118797084
  C       -10.7164506358       10.4129483052       28.2743578591
  C        -9.4537540227        0.2614098594       28.0435558810
  C        -8.9513427949        0.3874323673       26.7495824606
  C        -9.6524616873       -0.0714656862       25.6510445647
  C       -10.9066793088        9.9876953386       25.8764404808
  C       -11.4180445167        9.8953533172       27.1660480401
  C        -9.1551311872        0.0989094446       24.2508526512
  C        -8.4842263339        9.9920072362       23.5661727499
  C        -6.7572900521        0.0741825324       21.9644100480
  C        -8.0177001931       10.1834094836       22.1651743143
  C        -8.6926458120        9.6529079139       21.0581078291
  C        -8.1883823665        9.7774003931       19.7802286857
  C        -6.9468886300       10.4220299319       19.5640467751
  C        -6.2309420661        0.1702430943       20.6675404744
  C         0.6633207082       -0.0135311603        3.5747886041
  C         1.1140887376       10.0282319537        4.6477248093
  C         0.4538783944       10.0511533587        5.8765087411
  C        -0.6572202183        0.0613053127        6.0949104517
  C        -1.1152268184        0.8288653172        4.9965665777
  C        -0.4854764136        0.7795910069        3.7620822857
  C        -1.3398737510        0.1341247933        7.4225316272
  C        -0.6707565640        0.1256124928        8.6100067395
  C        -0.8901505994        0.9678185456       10.9797942279
  C        -1.3664867447        0.1773051744        9.9078138661
  C        -2.5299403107       10.1448672494       10.2064848078
  C        -3.1724228150       10.1598936129       11.4066367223
  C        -2.6256088416        0.1773794080       12.4700787247
  C        -1.5325803652        0.9770182198       12.2311460377
  C        -3.8407884542        6.4924115452       16.6552747264
  C        -4.9270548843        5.8926080846       17.3202130203
  C        -2.8241085715        5.7285395274       16.0617254818
  C        -5.9332279486        6.5250635494       18.1231644780
  C        -6.9275510446        5.8199522796       18.7095221983
  C        -3.8500534087        3.6990274406       16.9234439600
  C        -2.7788326241        4.3151562163       16.2394130032
  C        -4.9392242450        4.4461459087       17.4620020509
  C        -5.9738173294        3.7194485914       18.0833389253
  C        -6.9718983102        4.4256193335       18.7647931257
  C       -13.7289759615        6.2862745649       31.2416400810
  C       -12.6186742280        5.6233383554       30.6147660798
  C       -14.7436126870        5.5698113018       31.8417080617
  C       -11.6031678253        6.3187429553       29.9281332560
  C       -10.6422693815        5.6530700786       29.2222463439
  C       -13.6508960898        3.4773603905       31.2705497400
  C       -14.7111523159        4.1666427085       31.8164541718
  C       -12.6095508113        4.1858119046       30.5742983662
  C       -11.5386435237        3.5102138633       29.8926809017
  C       -10.5866739637        4.2503259470       29.2293001174
  C        -9.5512482597        1.4504249481       23.6869074271
  C        -8.1073808838        8.6398320472       24.1527088138
  C        -2.8248796247        0.2389328118        7.3545216329
  C         0.8149755213        0.2719099513        8.6283884112
  O        -2.9406250160        8.6504573572       16.6154448594
  O        -5.3400628656        8.5713278829       16.1468114394
  O        -6.9538764546       10.5290858790       17.1315540066
  O        -4.9774416633       -0.2831113363       18.1657038165
  O        -4.8347860154        1.7925680429       16.1333756766
  O        -2.9931197914        1.5216733128       17.3628856891
  O        -2.3985871720        0.4646243377       14.7747835575
  O        -4.4079227856       10.4734008789       14.0299156699
  O       -14.8074199897        8.3762768983       30.9428758480
  O       -12.7020938410        8.3022242020       31.8340361152
  O       -10.7009672347       10.3441522977       30.7337567140
  O       -12.6353632381       10.2694054532       29.6526963323
  O       -12.6280693753        1.4694232134       31.8784069814
  O       -14.6818695986        1.3979209699       30.8586935665
  O         0.4029065748       -0.0202848982        1.2589841188
  O         2.4888018637       10.5326563839        2.0657735372
  F        -7.9248501117        6.3714234483       19.4365324962
  F        -7.9940924269        3.8263926690       19.3764529734
  F        -9.5952645808        6.1808224964       28.5605692741
  F        -9.6599146053        3.4880242181       28.5332398696
  O        -5.6259416082        8.0559131673       14.7141102362
  C        -4.1005940514        7.7253539719       14.4242357698
  O        -3.4837330727        7.4664501317       13.6965386657
     123
 i =      156, E =      -996.0415462934
 Zn        -2.5000605091       10.6264730770       16.6242622708
 Zn        -5.2845384363       10.6281442009       15.8575216367
 Zn       -15.1486534689       10.2853408499       31.2327133766
 Zn         3.1777793449       10.5975477909        0.1250048676
  H        -8.9322094723        0.7361078821       28.8641801651
  H        -8.0489763315        0.9713336769       26.5913170337
  H       -11.4349525304        9.5404492260       25.0357559700
  H       -12.3523720070        9.3122103722       27.3381705077
  H        -6.2431082297        0.3739212961       22.7988117396
  H        -9.6642171516        9.0293186863       21.2018239405
  H        -8.7422276105        9.2460358616       18.9315361266
  H        -5.3022822010        0.5997641018       20.5109385299
  H         2.0499750072        9.4793435027        4.5040105600
  H         0.8545799704        9.4063250083        6.6568914847
  H        -2.0298863006        1.4099942074        5.1365055386
  H        -0.9425805441        1.3239224271        2.9427062280
  H        -0.1175630699        1.6766348887       10.8536482376
  H        -2.8581697110        9.4126150497        9.4430950643
  H        -4.0316417999        9.4432032918       11.6121280465
  H        -1.2447273551        1.6315454279       13.0395395380
  H        -5.9017370067        7.6557750238       18.2315307801
  H        -6.0236780303        2.6812703068       18.0642282934
  H        -1.9174322860        3.7903704879       15.8857811172
  H        -2.0147683578        6.2524597603       15.5921393905
  H       -11.5355715809        7.4068185832       29.9304929449
  H       -11.4834377984        2.4178153777       29.9109066001
  H         0.0379642251        3.9358849754        0.3313786881
  H         0.0001673918        6.4381597451        0.3232977139
  H        -9.1850403408        1.6410621475       22.6826942438
  H        -9.1311009138        2.2732608753       24.3497915150
  H       -10.6374789418        1.6243729508       23.7184361874
  H        -7.1288682112        8.4545457019       24.1264537999
  H        -8.6227981297        7.7824081580       23.4773949529
  H        -8.5988573556        8.4432030124       25.1362975213
  H        -3.3306369202        9.9293062254        7.5283533967
  H         3.1578790896        0.5274625810        6.4622592696
  H        -3.2015068713        0.7534993622        8.2079867433
  H         1.2459047411        9.9868583171        8.5928984678
  H         1.2161894225        0.6343049641        9.6050831076
  H         1.1960387330        0.7681586399        7.8377364403
  C        -3.8868613065        7.9157308818       16.1608849434
  C        -6.3518970497       10.4679184400       18.2430280501
  C        -3.8504774613        2.2412525035       16.7132411458
  C        -3.2627182748       10.9066385619       13.8288021713
  C       -13.7230325097        7.7869608815       31.2880391102
  C       -11.3901846702       10.3003365177       29.6031027915
  C       -13.6481096459        1.9886381233       31.3229931550
  C         1.2312860918       10.7318111241        2.2150561096
  C       -10.7197969254       10.4023986981       28.2737080542
  C        -9.4706055403        0.2750019439       28.0356688307
  C        -8.9768642084        0.4003188380       26.7388280801
  C        -9.6677793390       -0.0857539188       25.6479227098
  C       -10.9070798494        9.9457117050       25.8806422157
  C       -11.4100028468        9.8528329740       27.1735217227
  C        -9.1822951021        0.0920186676       24.2456122860
  C        -8.5603462350        9.9603677186       23.5466401657
  C        -6.7921291959       -0.0000596379       21.9687720558
  C        -8.0709359747       10.1354692829       22.1527153589
  C        -8.7283252651        9.5966395036       21.0396108773
  C        -8.2141741976        9.7191969324       19.7663167653
  C        -6.9728738924       10.3723722390       19.5620710476
  C        -6.2595139638        0.1022081597       20.6746431601
  C         0.6641492648        0.0160768691        3.5804725152
  C         1.1443031899       10.0754107517        4.6514047076
  C         0.4841807568       10.0633231652        5.8815118030
  C        -0.6537484688        0.0354836276        6.1130107963
  C        -1.1404574054        0.7897808808        5.0155158957
  C        -0.5133769382        0.7674147216        3.7766019333
  C        -1.3323902426        0.0908563463        7.4477449558
  C        -0.6669630709        0.1041600725        8.6368572938
  C        -0.9400598159        0.9856260819       10.9997352541
  C        -1.3738470843        0.1595241549        9.9336885161
  C        -2.5261446630       10.1057308465       10.2273775196
  C        -3.1945511111       10.1146947896       11.4144565443
  C        -2.6836474226        0.1626139949       12.4726111728
  C        -1.6139542842        0.9930693716       12.2370961499
  C        -3.8081451797        6.5157704338       16.6918972335
  C        -4.8916904796        5.9241112891       17.3642855953
  C        -2.7745742450        5.7546443123       16.1188766521
  C        -5.8919277563        6.5597500766       18.1812761895
  C        -6.9042035530        5.8501859368       18.7415974871
  C        -3.8489636258        3.7184869362       16.9169570842
  C        -2.7457338391        4.3352293230       16.2836512892
  C        -4.9231696752        4.4777292866       17.4662809636
  C        -5.9644013223        3.7569964631       18.0726238971
  C        -6.9668673549        4.4546611461       18.7604292424
  C       -13.7232403522        6.2857710354       31.2347542189
  C       -12.6071180308        5.6199863008       30.6205628451
  C       -14.7486873857        5.5722176156       31.8183124144
  C       -11.5935225339        6.3129054132       29.9350659201
  C       -10.6363733671        5.6496496289       29.2286078439
  C       -13.6507902360        3.4781466873       31.2709959669
  C       -14.7207681730        4.1693406416       31.7969179090
  C       -12.5970774816        4.1824929511       30.5879134528
  C       -11.5291343384        3.5024191722       29.9021387148
  C       -10.5857354643        4.2471438078       29.2267576871
  C        -9.5395996159        1.4736205359       23.7160653292
  C        -8.2336890854        8.5849421880       24.1189670214
  C        -2.8210108373        0.1609788205        7.3998158227
  C         0.8218667919        0.2219466359        8.6454784504
  O        -2.9451981875        8.6819604806       16.6379097734
  O        -5.3749711651        8.5566344724       16.1126645756
  O        -6.9628103225       10.5316625934       17.1376873179
  O        -4.9869229603       -0.2924613234       18.1759444205
  O        -4.8441035619        1.8020629424       16.1439687201
  O        -2.9976834196        1.5362727734       17.3604844507
  O        -2.4175665600        0.4552990766       14.7648331134
  O        -4.4485122167       10.4815286631       14.0548291194
  O       -14.8043478293        8.3751848836       30.9404669022
  O       -12.6973117689        8.3064498934       31.8238885616
  O       -10.7012395240       10.3433139591       30.7336946722
  O       -12.6364805713       10.2687572451       29.6544865910
  O       -12.6292262685        1.4705714891       31.8809710577
  O       -14.6816259004        1.3971878086       30.8606995709
  O         0.4009571411       -0.0154158914        1.2601880322
  O         2.4852469156       10.5374857094        2.0679697690
  F        -7.9249213702        6.3815667282       19.4436001823
  F        -7.9891405055        3.8306653330       19.3599990028
  F        -9.5961333493        6.1845622564       28.5654410571
  F        -9.6560395775        3.4882724604       28.5318433358
  O        -5.5650800208        8.0300435448       14.6694781235
  C        -4.0073027349        7.7249766555       14.4547531179
  O        -3.2337330727        7.4897263618       13.8103642711
     123
 i =      157, E =      -996.0167193778
 Zn        -2.4988336161       10.6193451919       16.6234824111
 Zn        -5.2920314445       10.6278862494       15.8590517132
 Zn       -15.1490472611       10.2849893211       31.2326477076
 Zn         3.1776827013       10.5978860369        0.1251969641
  H        -8.9321844408        0.7368087061       28.8641314563
  H        -8.0488048145        0.9718456254       26.5904341084
  H       -11.4341548031        9.5388000434       25.0369925294
  H       -12.3522979638        9.3100125913       27.3388498494
  H        -6.2429556281        0.3700249991       22.7984462844
  H        -9.6640831868        9.0258553027       21.2016787749
  H        -8.7428360224        9.2442540202       18.9308992370
  H        -5.3030425247        0.5984226732       20.5107188116
  H         2.0525249695        9.4813216940        4.5034951137
  H         0.8557013808        9.4059190069        6.6562831885
  H        -2.0323009221        1.4083227624        5.1370404204
  H        -0.9435057360        1.3244496526        2.9431811849
  H        -0.1186753026        1.6794372634       10.8557739967
  H        -2.8585973225        9.4127745467        9.4414363100
  H        -4.0327588251        9.4409341054       11.6122713975
  H        -1.2497755830        1.6328808670       13.0411410487
  H        -5.8985337557        7.6599440219       18.2361307350
  H        -6.0225795752        2.6848336063       18.0628941735
  H        -1.9192040376        3.7898054123       15.8890117858
  H        -2.0111598016        6.2518884014       15.5921020261
  H       -11.5343206435        7.4066250027       29.9307123761
  H       -11.4839856013        2.4168666275       29.9112201344
  H         0.0358183417        3.9356175103        0.3297831419
  H        -0.0000195209        6.4384147088        0.3217785474
  H        -9.1847342848        1.6428966904       22.6823164928
  H        -9.1304954198        2.2739203849       24.3519089932
  H       -10.6382469872        1.6258623049       23.7195441356
  H        -7.1300974216        8.4523416685       24.1262608385
  H        -8.6263000856        7.7819885235       23.4754640938
  H        -8.6021219220        8.4417752851       25.1351073529
  H        -3.3288842348        9.9245201096        7.5292389963
  H         3.1575549644        0.5263307707        6.4632907933
  H        -3.2013713933        0.7527547884        8.2116594340
  H         1.2452984450        9.9829678840        8.5920920594
  H         1.2193237650        0.6347571710        9.6048475221
  H         1.1962964253        0.7666653998        7.8376961934
  C        -3.8811894382        7.9196463302       16.1659453653
  C        -6.3559032822       10.4669103861       18.2418564681
  C        -3.8565782528        2.2398181956       16.7174117299
  C        -3.2669808024       10.9055351865       13.8295329786
  C       -13.7230942934        7.7869431397       31.2910782275
  C       -11.3906260555       10.3021324932       29.6029706407
  C       -13.6481059808        1.9892926371       31.3232850028
  C         1.2310788872       10.7315691773        2.2156029043
  C       -10.7207175154       10.4014795284       28.2732505522
  C        -9.4704014102        0.2756768923       28.0349353675
  C        -8.9793779748        0.4004041286       26.7385339564
  C        -9.6638473783       -0.0851174049       25.6490383338
  C       -10.9093731370        9.9439871712       25.8789958357
  C       -11.4090409934        9.8518421605       27.1733551229
  C        -9.1835865338        0.0900749703       24.2443528497
  C        -8.5637126056        9.9617804573       23.5470488217
  C        -6.7913642296       -0.0017685022       21.9701244760
  C        -8.0739134807       10.1340161847       22.1524609356
  C        -8.7280172341        9.5965664151       21.0391818935
  C        -8.2158774530        9.7170985807       19.7671384197
  C        -6.9728794688       10.3717641133       19.5610614840
  C        -6.2609358349        0.1005290754       20.6733480454
  C         0.6654335056        0.0173930583        3.5804051954
  C         1.1448581227       10.0775314861        4.6509747277
  C         0.4855267642       10.0623615464        5.8812844624
  C        -0.6538927526        0.0363002145        6.1138369812
  C        -1.1405375106        0.7892715958        5.0160843124
  C        -0.5149344932        0.7670392095        3.7768386608
  C        -1.3316722918        0.0887521312        7.4487446806
  C        -0.6679717703        0.1059606698        8.6371425778
  C        -0.9408594691        0.9870715074       11.0004664478
  C        -1.3740973788        0.1578873687        9.9337903845
  C        -2.5266756599       10.1046542266       10.2291494122
  C        -3.1955801665       10.1122514528       11.4139582370
  C        -2.6870202427        0.1635133076       12.4740981445
  C        -1.6160086554        0.9916869981       12.2388866624
  C        -3.8117286494        6.5157250554       16.6902855083
  C        -4.8876478507        5.9242838477       17.3676286726
  C        -2.7717911630        5.7604603260       16.1205340616
  C        -5.8933795465        6.5627149791       18.1804983709
  C        -6.9036738590        5.8538497549       18.7475848485
  C        -3.8523676791        3.7175100201       16.9112057456
  C        -2.7400964770        4.3363230780       16.2846329435
  C        -4.9210613161        4.4775160360       17.4655673999
  C        -5.9591956020        3.7586015404       18.0703836701
  C        -6.9705808438        4.4591632382       18.7586141053
  C       -13.7232302318        6.2853522893       31.2334224134
  C       -12.6049414802        5.6202283309       30.6188011017
  C       -14.7482239849        5.5721332560       31.8175417720
  C       -11.5935310609        6.3098455074       29.9340165187
  C       -10.6362525642        5.6512093953       29.2311886223
  C       -13.6510861110        3.4785173756       31.2702832817
  C       -14.7205518184        4.1701732637       31.7979082260
  C       -12.5958952896        4.1829263770       30.5899968022
  C       -11.5285781816        3.4995437419       29.9030299258
  C       -10.5865786453        4.2489045656       29.2240620410
  C        -9.5399763916        1.4758904802       23.7167373733
  C        -8.2363242562        8.5831567599       24.1189677625
  C        -2.8218067911        0.1592315360        7.4017949541
  C         0.8218021863        0.2202672111        8.6437406932
  O        -2.9472555735        8.6855761495       16.6396740614
  O        -5.3836252751        8.5596987778       16.1139660958
  O        -6.9596794748       10.5316002681       17.1375181388
  O        -4.9824161122       -0.2897286135       18.1779967114
  O        -4.8412399605        1.8024241052       16.1439404487
  O        -2.9968035539        1.5376091497       17.3598382855
  O        -2.4192490177        0.4537466155       14.7638465983
  O        -4.4477453817       10.4822977989       14.0563201833
  O       -14.8031020708        8.3748541085       30.9393124002
  O       -12.6976854721        8.3077203298       31.8231765771
  O       -10.7012101928       10.3426745949       30.7334433341
  O       -12.6359494936       10.2679612521       29.6548281058
  O       -12.6297296357        1.4707647821       31.8810555550
  O       -14.6812089546        1.3968689653       30.8613213390
  O         0.4007915443       -0.0146743157        1.2595134629
  O         2.4859225293       10.5377427388        2.0676681180
  F        -7.9236413839        6.3784835477       19.4421303556
  F        -7.9951737076        3.8246326411       19.3611736580
  F        -9.5986364969        6.1839504974       28.5651597753
  F        -9.6560051243        3.4885495734       28.5325222380
  O        -5.5697672525        8.0354152306       14.6739749379
  C        -4.1163349685        7.8101370980       14.6994323573
  O        -3.1084752056        7.3975269267       13.5603642711
     123
 i =      158, E =      -996.0268133020
 Zn        -2.4943323800       10.6058745344       16.6429389717
 Zn        -5.2504257488       10.6159409253       15.8271768035
 Zn       -15.1480706096       10.2864869908       31.2322789334
 Zn         3.1794477804       10.5958946949        0.1202209361
  H        -8.9104051004        0.7081650472       28.8758764376
  H        -8.0168403484        0.9479718454       26.6114463753
  H       -11.4478860073        9.6138593091       25.0252049869
  H       -12.3749609143        9.3771415377       27.3210988506
  H        -6.2288604305        0.4942286373       22.7850063740
  H        -9.6403530050        9.1060048699       21.2245445682
  H        -8.7280599440        9.3065836029       18.9502522276
  H        -5.2790026865        0.6744538210       20.4972795478
  H         1.9955440592        9.3964434876        4.5071148416
  H         0.8002144246        9.3950638066        6.6648276790
  H        -1.9777142666        1.4857103069        5.1161404688
  H        -0.8936629845        1.3405452715        2.9216459843
  H        -0.0468566042        1.6284381699       10.8226994824
  H        -2.8800680838        9.4496382498        9.4314089680
  H        -4.0219235166        9.5065135261       11.6130868549
  H        -1.1094221046        1.5819774926       13.0323413462
  H        -5.9821593311        7.6210727747       18.1221921139
  H        -6.0259830343        2.6427017596       18.0977179031
  H        -1.9522358105        3.7832486873       15.8193340729
  H        -2.0865114815        6.2401225973       15.5125330506
  H       -11.5546846167        7.4125582813       29.9190410715
  H       -11.4871102391        2.4252048641       29.9019707423
  H         0.0660953086        3.9306797500        0.3798169038
  H         0.0142500584        6.4304689892        0.3694239366
  H        -9.1992013475        1.5941635081       22.6497227870
  H        -9.1597623784        2.2800756820       24.2936545204
  H       -10.6515593234        1.5757290873       23.6847893760
  H        -7.0024861445        8.5382378297       24.1408040624
  H        -8.4860921967        7.8089312229       23.5372194773
  H        -8.4512623711        8.5085459735       25.1798103359
  H        -3.3686269648       10.0281100624        7.5066151131
  H         3.1791218183        0.5797853065        6.3985520262
  H        -3.2088884335        0.8692515496        8.1356025932
  H         1.2727470283       10.0542039503        8.5594415494
  H         1.1794664025        0.6589726003        9.6077787841
  H         1.1841442216        0.8656009241        7.8521885706
  C        -3.9000421305        7.9064805672       16.1403811395
  C        -6.3372125422       10.4858602294       18.2347396553
  C        -3.8489938195        2.2228120694       16.7171530101
  C        -3.2207736253       10.9118154000       13.8246141522
  C       -13.7280528644        7.7861606482       31.2951720647
  C       -11.3885853887       10.3048688096       29.6015840882
  C       -13.6479097254        1.9891645221       31.3231096286
  C         1.2339889703       10.7123344474        2.2125565230
  C       -10.7177398844       10.4112063889       28.2731725144
  C        -9.4539926229        0.2617084092       28.0432232298
  C        -8.9548258248        0.3898348873       26.7494274156
  C        -9.6473147268       -0.0760481477       25.6517174764
  C       -10.9092908446        9.9893569496       25.8751117419
  C       -11.4175756257        9.8926907849       27.1656010370
  C        -9.1548362014        0.0996761301       24.2504668639
  C        -8.4904202468        9.9906736914       23.5663084594
  C        -6.7567147348        0.0714094106       21.9639078161
  C        -8.0209962281       10.1843987091       22.1657996850
  C        -8.6922602168        9.6511184728       21.0591260961
  C        -8.1900929349        9.7748031918       19.7813417848
  C        -6.9473600172       10.4202795650       19.5634299533
  C        -6.2316123822        0.1686612539       20.6656810798
  C         0.6644556236       -0.0120266305        3.5747156334
  C         1.1146961817       10.0303252308        4.6475952613
  C         0.4547200834       10.0497882707        5.8761680828
  C        -0.6564769045        0.0630855675        6.0961661703
  C        -1.1154996290        0.8282391290        4.9975145218
  C        -0.4874765609        0.7784531755        3.7624568767
  C        -1.3400148579        0.1310273220        7.4226406885
  C        -0.6723448941        0.1288057103        8.6095799179
  C        -0.8916196887        0.9695816730       10.9796278226
  C        -1.3672398852        0.1746311707        9.9083410914
  C        -2.5299903864       10.1428668368       10.2075384769
  C        -3.1731041851       10.1580941344       11.4075739365
  C        -2.6290158126        0.1778569435       12.4718645978
  C        -1.5322664655        0.9748293800       12.2322247575
  C        -3.8483991933        6.4906181838       16.6522658472
  C        -4.9234719392        5.8879220182       17.3282738138
  C        -2.8222664201        5.7351941712       16.0671499255
  C        -5.9359665141        6.5289114534       18.1197812143
  C        -6.9259584723        5.8238303277       18.7197650277
  C        -3.8486725437        3.6965154561       16.9165047916
  C        -2.7732896325        4.3187621265       16.2397299260
  C        -4.9354858698        4.4414448068       17.4568455986
  C        -5.9679999657        3.7203643476       18.0811134326
  C        -6.9741183168        4.4298195062       18.7595224592
  C       -13.7278275810        6.2859439470       31.2395510460
  C       -12.6162734308        5.6242161752       30.6107637089
  C       -14.7428827926        5.5699579177       31.8395109976
  C       -11.6005148304        6.3157905442       29.9257711623
  C       -10.6400082002        5.6514435201       29.2242207291
  C       -13.6528995390        3.4784899526       31.2663900629
  C       -14.7110954477        4.1674221964       31.8190335436
  C       -12.6079663493        4.1869522541       30.5786834860
  C       -11.5403996370        3.5067652515       29.8954911743
  C       -10.5892688752        4.2485897717       29.2274888853
  C        -9.5518962611        1.4531853514       23.6866032049
  C        -8.1093121045        8.6375675640       24.1526787418
  C        -2.8266883888        0.2358688202        7.3569856444
  C         0.8144871335        0.2675786793        8.6298479565
  O        -2.9436571551        8.6569070045       16.6171701089
  O        -5.3493457575        8.5672690417       16.1437684429
  O        -6.9527246443       10.5305256505       17.1301182045
  O        -4.9750219734       -0.2827455003       18.1658885490
  O        -4.8341475581        1.7909926518       16.1288430472
  O        -2.9909425656        1.5257853532       17.3631695268
  O        -2.3980431295        0.4652589058       14.7734514773
  O        -4.4060528580       10.4730963922       14.0327071151
  O       -14.8052844617        8.3765749998       30.9404240613
  O       -12.7025252657        8.3037241665       31.8323481573
  O       -10.7013563011       10.3426211739       30.7336379419
  O       -12.6344939511       10.2673751755       29.6538113341
  O       -12.6289103469        1.4687147870       31.8773427942
  O       -14.6802265649        1.3971623250       30.8588477703
  O         0.4029539172       -0.0178907488        1.2586627634
  O         2.4895400850       10.5340302730        2.0655413316
  F        -7.9214124663        6.3746935190       19.4352875346
  F        -7.9967238172        3.8184713815       19.3778052452
  F        -9.5985676058        6.1854154857       28.5620565800
  F        -9.6576377790        3.4938879391       28.5357317870
  O        -5.6222626329        8.0560536644       14.7181669594
  C        -4.2174176518        7.8112111091       14.6908225438
  O        -3.3584752056        7.3771332267       13.4239912955
     123
 i =      159, E =      -996.0883930602
 Zn        -2.5535392220       10.6132074421       16.6015112145
 Zn        -5.2698050591       10.6139332091       15.9431907504
 Zn       -15.1559323123       10.2868923831       31.2348158668
 Zn         3.1786066614       10.5947595315        0.1337750398
  H        -8.9479578299        0.7614516761       28.8512388356
  H        -8.0749093624        0.9855082372       26.5770723670
  H       -11.4249646079        9.4772081121       25.0493166484
  H       -12.3454393077        9.2730098439       27.3572536375
  H        -6.2700961559        0.3374915193       22.8117326424
  H        -9.6794230287        8.9975650945       21.1834888216
  H        -8.7458573817        9.2019976603       18.9253096374
  H        -5.3052144977        0.5570496513       20.5185364055
  H         2.0781539499        9.5255108623        4.5105399253
  H         0.8952977191        9.4218624160        6.6649595469
  H        -2.0606051993        1.3662853589        5.1490361593
  H        -0.9713257190        1.3061586227        2.9578457830
  H        -0.1546081381        1.7022582624       10.8673931036
  H        -2.8520905880        9.3830278918        9.4553588839
  H        -4.0195376188        9.3972107292       11.6171730082
  H        -1.3147887886        1.6459432805       13.0449643062
  H        -5.8468126402        7.6816040524       18.3063957313
  H        -6.0336976571        2.6869245942       18.0116869298
  H        -1.9046943319        3.7617669819       15.9448466441
  H        -1.9400566091        6.2409218723       15.6260127438
  H       -11.5323948985        7.3993130499       29.9391510843
  H       -11.4751611894        2.4068519469       29.9171982750
  H         0.0145186672        3.9347019561        0.3044131076
  H        -0.0124379416        6.4374842689        0.2958632030
  H        -9.1705481463        1.6637964489       22.6968527324
  H        -9.1078071869        2.2622458394       24.3882763311
  H       -10.6287235790        1.6496182145       23.7409048522
  H        -7.2042473085        8.3953064118       24.1124375087
  H        -8.7146605980        7.7689915815       23.4327035291
  H        -8.7012623711        8.4009726939       25.1093501428
  H        -3.3054934613        9.8827783123        7.5223375038
  H         3.1493342080        0.4883598944        6.4906528473
  H        -3.2111333543        0.7181697551        8.2607573624
  H         1.2450829522        9.9420167056        8.6398418309
  H         1.2099989699        0.6212691375        9.6016241618
  H         1.1945425589        0.7552446493        7.8473199689
  C        -3.8084055017        7.9099793518       16.1227898133
  C        -6.3212616197       10.4257748146       18.2557137019
  C        -3.9359139078        2.2217451340       16.8344625673
  C        -3.2799512033       10.9000352417       13.8606894753
  C       -13.7434053257        7.7745175963       31.3330505916
  C       -11.3888987461       10.3384114750       29.5960689707
  C       -13.6642194931        2.0065785171       31.3592568917
  C         1.2251425410       10.7009683281        2.2187744584
  C       -10.7274066935       10.3831711640       28.2616170834
  C        -9.4877906757        0.2769247217       28.0377135754
  C        -9.0067326520        0.4453739988       26.7348489108
  C        -9.6584850165       -0.1782319815       25.6385557887
  C       -10.9113760983        9.9757760767       25.8885840312
  C       -11.4132926167        9.8009742927       27.1733025249
  C        -9.1732179775        0.1320781044       24.2565608695
  C        -8.6501164483        9.8969199350       23.5306380394
  C        -6.8163628123       -0.0608144470       21.9410568871
  C        -8.1067586800       10.1461921262       22.1595597170
  C        -8.7485799723        9.5358456338       21.0519549073
  C        -8.2290845681        9.6771425883       19.7622854454
  C        -6.9962016721       10.3252402882       19.5673311589
  C        -6.2643458228        0.0639141296       20.6702063860
  C         0.6618852192        0.0366654965        3.5837105711
  C         1.1630241832       10.1025118119        4.6583800355
  C         0.4935822975       10.0641861468        5.8824682673
  C        -0.6373221186        0.0353303192        6.1304520751
  C        -1.1585843614        0.7647581584        5.0327906184
  C        -0.5368593289        0.7479463525        3.7872872863
  C        -1.3419387158        0.0494965244        7.4481461174
  C        -0.6735604072        0.1138443663        8.6413109831
  C        -0.9803704073        1.0011253644       10.9972388634
  C        -1.3860194083        0.1326590113        9.9562398613
  C        -2.5159861987       10.0681463869       10.2274311908
  C        -3.2021802056       10.0988042202       11.4423099818
  C        -2.7188152151        0.1470057685       12.4781169598
  C        -1.6239057805        0.9898784212       12.2286790223
  C        -3.8529111518        6.5023798302       16.6906629721
  C        -4.8788507267        5.8652924670       17.4660984371
  C        -2.7610941793        5.7828537744       16.2128730029
  C        -5.8880007106        6.5944355855       18.1737675852
  C        -6.8734968113        5.8711895622       18.8277786447
  C        -3.7708568615        3.7065119182       16.8936341618
  C        -2.7291116702        4.3882213557       16.2990171684
  C        -4.8872285611        4.4251400020       17.3981672744
  C        -5.9499088459        3.7688273648       18.0680001778
  C        -6.9387038426        4.4661738654       18.7028003646
  C       -13.7014063575        6.2869886255       31.2186438269
  C       -12.5973303055        5.6279064876       30.5884649413
  C       -14.7473065432        5.5774029683       31.7818470608
  C       -11.5451875545        6.3121110104       29.9182984501
  C       -10.5983620026        5.5958278742       29.2224451525
  C       -13.6780095686        3.4908331398       31.2161555864
  C       -14.7290287271        4.1698261947       31.8109476152
  C       -12.5833593118        4.1914919482       30.6323324029
  C       -11.5608966298        3.4893874090       29.9378300016
  C       -10.6133219899        4.1883369590       29.2392795695
  C        -9.5368987069        1.4948956407       23.7173718494
  C        -8.2966309996        8.5451662989       24.0983177349
  C        -2.8347897728        0.0938121708        7.4343206996
  C         0.8194592723        0.1499882746        8.7073717902
  O        -2.9634991064        8.7459430315       16.6505963524
  O        -5.4038998006        8.4332722582       16.0229373571
  O        -7.0009285158       10.5574580827       17.1207872704
  O        -5.0276802391       -0.3357291729       18.1518983102
  O        -4.8864327681        1.7766870761       16.0777558434
  O        -2.9794655721        1.5894876515       17.3738721661
  O        -2.3930679937        0.4842862487       14.7534340593
  O        -4.4565146598       10.4698219243       14.0899340224
  O       -14.7883370018        8.3845885390       30.9182715313
  O       -12.6950916644        8.3125390773       31.8020796009
  O       -10.7080990529       10.3284872202       30.7358239418
  O       -12.6317757852       10.2486473081       29.6679177059
  O       -12.6353571302        1.4567993639       31.8642127957
  O       -14.6619085246        1.3896924866       30.8545103390
  O         0.4032996797        0.0138334121        1.2666961751
  O         2.4839087730       10.5583105016        2.0704521406
  F        -7.8909661458        6.4920930055       19.4514505728
  F        -7.9303968988        3.8037781507       19.3508539787
  F        -9.6098764212        6.2724080493       28.5973026538
  F        -9.6166931858        3.5796526940       28.5596500011
  O        -5.3942321940        7.9288980836       14.6359249595
  C        -4.0454329882        7.7104995560       14.7495886944
  O        -3.1245968827        7.5764361406       13.5943417388
     123
 i =      160, E =      -996.1151192613
 Zn        -2.5525909813       10.5896583599       16.6274538259
 Zn        -5.2386706962       10.5996765848       15.8821394393
 Zn       -15.1545111176       10.2844256131       31.2324148972
 Zn         3.1806062031       10.5966161915        0.1263896912
  H        -8.9106297829        0.7203283381       28.8671028030
  H        -8.0247530375        0.9525032109       26.6047849795
  H       -11.4445246319        9.5910478305       25.0315629034
  H       -12.3741875009        9.3722466178       27.3306689191
  H        -6.2504306051        0.5147396175       22.7966022287
  H        -9.6381372347        9.1041035888       21.2107770027
  H        -8.7212437244        9.3056650803       18.9481481701
  H        -5.2809419172        0.6886063496       20.5028367880
  H         1.9933751783        9.4009260189        4.5079370808
  H         0.8091836295        9.3965828420        6.6696295195
  H        -1.9858738043        1.4731600615        5.1197257998
  H        -0.9019568288        1.3326687693        2.9269627856
  H        -0.0447640168        1.6304203766       10.8277300533
  H        -2.8821109268        9.4498673674        9.4262912645
  H        -4.0134660101        9.4966169991       11.5999974538
  H        -1.1180367346        1.5670794851       13.0327539737
  H        -5.9932547006        7.6337468983       18.1272617333
  H        -5.9910384249        2.6389608478       18.0980613587
  H        -1.9619362810        3.7727974991       15.8082845443
  H        -2.0514999606        6.2499454179       15.5059155301
  H       -11.5470559979        7.4066282628       29.9355406087
  H       -11.5048928151        2.4155680604       29.8738239128
  H         0.0607969244        3.9274354193        0.3891462470
  H         0.0161956194        6.4267807235        0.3719177048
  H        -9.1882461677        1.5916710886       22.6444598231
  H        -9.1496033451        2.2745833951       24.2989929770
  H       -10.6452776187        1.5740559565       23.6836259787
  H        -7.0107415147        8.5263762348       24.1349060658
  H        -8.5010467483        7.8053283318       23.5270298184
  H        -8.4723312192        8.5015099599       25.1743341193
  H        -3.3628958782       10.0404549394        7.5087046524
  H         3.1818285692        0.5654639414        6.3986111826
  H        -3.2084378078        0.9116426839        8.1539519739
  H         1.2902216075       10.0431989910        8.5704548757
  H         1.1685580911        0.6498890910        9.5998118497
  H         1.1817848650        0.9078188093        7.8653546966
  C        -3.8583821643        7.9145453406       16.0952359803
  C        -6.2929029999       10.4633175053       18.2452733683
  C        -3.9226458318        2.2026902412       16.8394764854
  C        -3.2258605896       10.9065806400       13.8486115438
  C       -13.7500681241        7.7718527176       31.3502444046
  C       -11.3836450888       10.3455889626       29.5929315281
  C       -13.6586120411        2.0067288191       31.3408511263
  C         1.2278522874       10.6779231202        2.2127486288
  C       -10.7213776730       10.3979974399       28.2591923216
  C        -9.4630222604        0.2604191558       28.0504361238
  C        -8.9654138729        0.4280275392       26.7523872076
  C        -9.6320305406       -0.1506034799       25.6425365188
  C       -10.9039397922       10.0383554740       25.8791320992
  C       -11.4235214267        9.8664972451       27.1572150244
  C        -9.1473615788        0.1363328475       24.2548814745
  C        -8.5338255963        9.9446669202       23.5625814732
  C        -6.7690188402        0.0534963621       21.9344175864
  C        -8.0242879493       10.2040135197       22.1787708040
  C        -8.6983265396        9.6271882374       21.0775460840
  C        -8.1861988868        9.7602187647       19.7821097081
  C        -6.9625403539       10.4175760988       19.5664879425
  C        -6.2252818721        0.1667590624       20.6602822803
  C         0.6590695175       -0.0050713772        3.5742831765
  C         1.1160605337       10.0304500992        4.6493006773
  C         0.4442334801       10.0407101989        5.8704908698
  C        -0.6434481861        0.0709751449        6.1038372214
  C        -1.1225408394        0.8207927846        5.0055897816
  C        -0.5031243942        0.7605912482        3.7631350080
  C        -1.3543608145        0.1082410105        7.4107094339
  C        -0.6756979332        0.1545558150        8.5996733480
  C        -0.9058239530        0.9782752579       10.9677163609
  C        -1.3682724059        0.1576580465        9.9198773611
  C        -2.5221677463       10.1309308255       10.1890856582
  C        -3.1741623357       10.1676598951       11.4244364915
  C        -2.6513139010        0.1775558846       12.4682214585
  C        -1.5054420413        0.9603237571       12.2179199979
  C        -3.9154966424        6.4864469817       16.6273807882
  C        -4.9276727760        5.8259859599       17.4104045554
  C        -2.8401113259        5.7678467136       16.1270525790
  C        -5.9599177837        6.5530416225       18.0749288153
  C        -6.9058944312        5.8328967169       18.7866639478
  C        -3.7810058048        3.6901880718       16.8571732460
  C        -2.7732998472        4.3800711896       16.2294639216
  C        -4.8915826909        4.3858888098       17.4051602570
  C        -5.9455370620        3.7264686183       18.1030853311
  C        -6.9369540151        4.4278174493       18.7211097508
  C       -13.7083481499        6.2872632300       31.2198050719
  C       -12.6116219165        5.6298483707       30.5772625453
  C       -14.7330473374        5.5741930997       31.8205370700
  C       -11.5573881203        6.3198050894       29.9032401967
  C       -10.6012816179        5.5901553639       29.2223113324
  C       -13.6809034231        3.4930016938       31.2177981541
  C       -14.7159828148        4.1657405647       31.8475995172
  C       -12.6073912193        4.1929387844       30.6040682934
  C       -11.5855820662        3.4981053453       29.9114243180
  C       -10.6238239042        4.1811742522       29.2243687610
  C        -9.5506076595        1.4637885184       23.6695382449
  C        -8.1052400299        8.6259584546       24.1465730128
  C        -2.8422707369        0.2132356955        7.3755495583
  C         0.8151020527        0.2208136147        8.6782427015
  O        -2.9765347773        8.7156832812       16.6299185298
  O        -5.3803701428        8.4753179843       16.0786492280
  O        -6.9969004129       10.5563421097       17.1146154187
  O        -5.0152656017       -0.3045742041       18.1383742603
  O        -4.8690870543        1.7639594714       16.0562372684
  O        -2.9716993335        1.5705043103       17.3796989888
  O        -2.3699251630        0.4842339829       14.7608204906
  O        -4.4088071917       10.4690253869       14.0510699889
  O       -14.7861076787        8.3835904395       30.9146789081
  O       -12.6999760191        8.3112730398       31.8173063434
  O       -10.7066201802       10.3267652282       30.7350542154
  O       -12.6271140480       10.2465134434       29.6660954138
  O       -12.6395589180        1.4589497675       31.8652416126
  O       -14.6640790055        1.3873248581       30.8583001365
  O         0.4062458159        0.0092220402        1.2626451297
  O         2.4871687548       10.5514878729        2.0673937171
  F        -7.8874048257        6.4904294876       19.4372716409
  F        -7.9306083198        3.7904203286       19.3784197871
  F        -9.6179574514        6.2643335515       28.5848249013
  F        -9.6165818180        3.5757584281       28.5600203127
  O        -5.5214578481        7.9642252205       14.7189860676
  C        -4.2051294446        7.6940995819       14.6717208456
  O        -3.3745968827        7.5378692498       13.5215322141
     123
 i =      161, E =      -996.1553894569
 Zn        -2.5497767442       10.5617458487       16.6045002208
 Zn        -5.2467194564       10.5905721743       15.8851628410
 Zn       -15.1501841199       10.2847785296       31.2302310592
 Zn         3.1737143824       10.6065502922        0.1245097711
  H        -8.9266928406        0.7265307438       28.8685236753
  H        -8.0332616226        0.9657731648       26.6026371858
  H       -11.4520488770        9.5711814430       25.0253150699
  H       -12.3604749058        9.3492133749       27.3325253270
  H        -6.2381274770        0.4550921631       22.7983146520
  H        -9.6547720664        9.0812739004       21.2090323467
  H        -8.7334688437        9.2733231878       18.9404978908
  H        -5.2840884569        0.6262756055       20.5033138571
  H         2.0190278921        9.4324808977        4.5136803593
  H         0.8337609153        9.4146978973        6.6748925216
  H        -1.9995513127        1.4521643862        5.1233955924
  H        -0.9162581596        1.3248379784        2.9284869243
  H        -0.0591038947        1.6513522977       10.8107981602
  H        -2.8714642699        9.4115312517        9.4604795122
  H        -4.0018971185        9.4653351911       11.6553832810
  H        -1.1310398211        1.6170554196       13.0230034989
  H        -5.9430599804        7.6212706212       18.1841334706
  H        -6.0337151731        2.6207639153       18.0648166891
  H        -1.9156938343        3.7717913130       15.8655104729
  H        -2.0500993028        6.2509994325       15.5363711524
  H       -11.5325566157        7.3851242244       29.9081974449
  H       -11.4955316716        2.4004421997       29.9414224412
  H         0.0430255524        3.9355134638        0.3594185976
  H         0.0012485099        6.4387172943        0.3442217352
  H        -9.1898132695        1.6105194889       22.6712186161
  H        -9.1411667069        2.2776503713       24.3234461289
  H       -10.6322877905        1.5861721749       23.7073491861
  H        -7.0781598847        8.4899539738       24.1354055210
  H        -8.5610811807        7.7858623378       23.5085830018
  H        -8.5336057366        8.4748070929       25.1468285758
  H        -3.3540732002        9.9800401140        7.5163434597
  H         3.1686183770        0.5606790805        6.4031205935
  H        -3.2174888089        0.8172712354        8.1690040817
  H         1.2732336193       10.0390712593        8.5878719572
  H         1.1754822291        0.6402213118        9.6403038826
  H         1.1985589320        0.8253987232        7.8278996358
  C        -3.8731381229        7.8740722616       16.1324710366
  C        -6.2865692820       10.4791911088       18.2454056814
  C        -3.8706166494        2.2180067707       16.7891930552
  C        -3.2325659398       10.9062040943       13.8316823883
  C       -13.7328095341        7.7781244881       31.3148233803
  C       -11.3890470099       10.3072843156       29.6015541938
  C       -13.6336013215        1.9929354885       31.3026970208
  C         1.2310368814       10.7184342035        2.2126561516
  C       -10.7264726046       10.4001306786       28.2703707675
  C        -9.4735011095        0.2636310510       28.0513179473
  C        -8.9543207486        0.3985274107       26.7590407010
  C        -9.6724373547       -0.0932570471       25.6581352420
  C       -10.8945498465        9.9717339491       25.8777428467
  C       -11.4213200362        9.8732277294       27.1621281266
  C        -9.2007235649        0.1026109729       24.2514341377
  C        -8.5134293101        9.9748627425       23.5698833112
  C        -6.7987306097        0.0626091646       21.9420026911
  C        -8.0240723492       10.1119160418       22.1597457451
  C        -8.7294030109        9.6366283865       21.0512673778
  C        -8.1925745745        9.7467579106       19.7612479182
  C        -6.9467188271       10.3477748530       19.5682515363
  C        -6.2367570896        0.1302534526       20.6733671561
  C         0.6536683226       -0.0097799545        3.5751166476
  C         1.1346731281       10.0494988763        4.6589057154
  C         0.4638231352       10.0619840524        5.8810349979
  C        -0.6566431794        0.0531093607        6.1001962841
  C        -1.1264153803        0.8125726139        5.0061930454
  C        -0.4994558715        0.7641849968        3.7657601189
  C        -1.3413098967        0.0918760718        7.4241700922
  C        -0.6733068097        0.1168803072        8.6190428255
  C        -0.9146461950        0.9943486070       10.9740915764
  C        -1.3757705761        0.1554167297        9.9379922938
  C        -2.5265728720       10.1249782621       10.2007509066
  C        -3.1662554048       10.1337108556       11.4450306520
  C        -2.6511485978        0.1844840694       12.4518204259
  C        -1.5177365586        0.9899840594       12.2197327102
  C        -3.8618587092        6.4519966940       16.6466829505
  C        -4.9111740593        5.8394898908       17.4125085285
  C        -2.8059967125        5.7084117525       16.1341969689
  C        -5.9329202913        6.5387143835       18.1114298877
  C        -6.9164417379        5.8466972159       18.7918274757
  C        -3.8656241450        3.6998386497       16.8199424499
  C        -2.7535364505        4.3262024496       16.3155783293
  C        -4.9203660448        4.4029970794       17.4654887868
  C        -6.0093050397        3.7126829488       18.0696746792
  C        -6.9076760893        4.4387443122       18.7909510884
  C       -13.7078195220        6.2891546725       31.2327700077
  C       -12.6254720943        5.6040695014       30.5931804803
  C       -14.7433143999        5.5754370346       31.8155707130
  C       -11.5810301849        6.3018241532       29.9003787712
  C       -10.5947974708        5.6115544075       29.2211639761
  C       -13.6600794033        3.4841617916       31.2616622545
  C       -14.7220810470        4.1664936081       31.8258031039
  C       -12.5887920101        4.1657798442       30.6151180237
  C       -11.5542430909        3.4876673479       29.9266133172
  C       -10.6361556932        4.1995326281       29.2080871561
  C        -9.5377376423        1.4641993282       23.6971862854
  C        -8.1723955401        8.6126852960       24.1193634022
  C        -2.8286732651        0.1831870863        7.3628239198
  C         0.8114795310        0.2343674538        8.6746417770
  O        -2.9918104455        8.6969781241       16.6603376963
  O        -5.3724745854        8.4445281645       16.0668029780
  O        -6.9875456022       10.5188233578       17.1065007039
  O        -5.0123409991       -0.3775665681       18.1854149202
  O        -4.8874531946        1.7504302332       16.1520834981
  O        -2.9602149674        1.5311324106       17.3771003635
  O        -2.3764931563        0.4405669415       14.7554495794
  O        -4.4423539067       10.4976104383       14.0178148881
  O       -14.7877682558        8.3809091872       30.9192012837
  O       -12.6976604981        8.3157294986       31.8188039333
  O       -10.7050319002       10.3401466381       30.7394157252
  O       -12.6357689943       10.2577240209       29.6586712436
  O       -12.6377054061        1.4695564352       31.8949884935
  O       -14.6800172848        1.3984561026       30.8757940771
  O         0.4059187354       -0.0029775176        1.2621525689
  O         2.4837319836       10.5380362618        2.0665260555
  F        -7.9068343417        6.4949269690       19.4564813732
  F        -7.9535423221        3.7957043386       19.3579098930
  F        -9.6061372077        6.2698764165       28.5616738843
  F        -9.6377132835        3.5702823705       28.5591072302
  O        -5.5048690183        7.9738344973       14.6648032196
  C        -4.0739962873        7.7669899582       14.5074485267
  O        -3.3926264120        7.4768555856       13.6879130137
     123
 i =      162, E =      -996.1827786566
 Zn        -2.5218971824       10.5773610466       16.6208177761
 Zn        -5.2529785910       10.5963274169       15.8632017078
 Zn       -15.1496091148       10.2829710228       31.2297906720
 Zn         3.1783450656       10.5995951092        0.1272966989
  H        -8.9254763905        0.7219637137       28.8727096369
  H        -8.0373370625        0.9558237512       26.6063138548
  H       -11.4480757399        9.5833343833       25.0307379172
  H       -12.3666968494        9.3563360639       27.3310327483
  H        -6.2425629875        0.4791824272       22.7927924716
  H        -9.6472335932        9.0918798473       21.2125698775
  H        -8.7321522495        9.2835270764       18.9428736823
  H        -5.2834309131        0.6402442076       20.5003775024
  H         2.0118719183        9.4208436767        4.5159570989
  H         0.8240811526        9.4116661253        6.6773865041
  H        -1.9917903009        1.4625122756        5.1212260970
  H        -0.9084941064        1.3257966358        2.9275051666
  H        -0.0608035499        1.6420617866       10.8093421228
  H        -2.8736456647        9.4224570038        9.4531905786
  H        -4.0056264441        9.4755968845       11.6506398017
  H        -1.1180258728        1.6005391495       13.0245774330
  H        -5.9478855207        7.6194835651       18.1608772084
  H        -6.0514849115        2.6383271473       18.0635848658
  H        -1.9276203285        3.7679226427       15.8630730230
  H        -2.0528151698        6.2383299534       15.5392888817
  H       -11.5376625688        7.3992369697       29.9057435989
  H       -11.4917305772        2.4127326978       29.9353988766
  H         0.0489372112        3.9356366307        0.3604592152
  H         0.0057846166        6.4365735229        0.3485100262
  H        -9.1895201216        1.6024561268       22.6649329088
  H        -9.1446385514        2.2749631453       24.3156921226
  H       -10.6429114496        1.5873470975       23.7000265792
  H        -7.0530751267        8.4979477218       24.1352688408
  H        -8.5432350696        7.7979285892       23.5100139239
  H        -8.5137668527        8.4810607968       25.1638131407
  H        -3.3563005436        9.9993647646        7.5018633048
  H         3.1744927861        0.5650128046        6.4020417139
  H        -3.2209770294        0.8364484121        8.1581244383
  H         1.2704489773       10.0442293903        8.5894983528
  H         1.1649093053        0.6513548575        9.6288392506
  H         1.1946433372        0.8423702141        7.8518718051
  C        -3.8711065898        7.8972282785       16.1309115748
  C        -6.2958212880       10.4302033679       18.2477670243
  C        -3.8857444949        2.2156367081       16.7888890383
  C        -3.2216887558       10.9091388463       13.8355203400
  C       -13.7332374746        7.7783318790       31.3147939614
  C       -11.3915354188       10.3247536253       29.5999386742
  C       -13.6565222376        1.9946657646       31.3454860065
  C         1.2283432371       10.6962266378        2.2127248536
  C       -10.7227684161       10.4010054603       28.2709171508
  C        -9.4663204111        0.2595777980       28.0489150877
  C        -8.9686827983        0.4077744620       26.7514331465
  C        -9.6573763101       -0.1134549960       25.6450013952
  C       -10.9006702257        9.9924351828       25.8805563722
  C       -11.4191779163        9.8689400707       27.1658918610
  C        -9.1692175170        0.1110134069       24.2487007258
  C        -8.5239521159        9.9553090025       23.5620016649
  C        -6.7744663086        0.0375529940       21.9457329593
  C        -8.0378521568       10.1926580626       22.1687145483
  C        -8.7076455616        9.6252683074       21.0643260728
  C        -8.1943079726        9.7457127038       19.7712649878
  C        -6.9619710759       10.3900561921       19.5672906965
  C        -6.2367252332        0.1397797747       20.6676930042
  C         0.6652555033        0.0004114301        3.5779189721
  C         1.1243232407       10.0400861217        4.6530211628
  C         0.4631075666       10.0563925281        5.8800768881
  C        -0.6473242430        0.0615129596        6.1050295143
  C        -1.1249531593        0.8134481827        5.0069476954
  C        -0.5004160433        0.7627108730        3.7662141558
  C        -1.3467197793        0.1019497550        7.4202826125
  C        -0.6773351302        0.1295347116        8.6121526463
  C        -0.9078644848        0.9784269026       10.9735220590
  C        -1.3758412841        0.1540389613        9.9261238371
  C        -2.5253275498       10.1236651858       10.2078215645
  C        -3.1670593462       10.1392255795       11.4417610017
  C        -2.6399940389        0.1760093086       12.4626341364
  C        -1.5191996493        0.9834069677       12.2209170776
  C        -3.8561239008        6.4755243654       16.6510548620
  C        -4.9108554762        5.8542127796       17.3873044138
  C        -2.8118668791        5.7229018849       16.1237412280
  C        -5.9309069458        6.5351298040       18.1140332521
  C        -6.9081607536        5.8337562617       18.7835792561
  C        -3.8365445604        3.6937810163       16.8757049684
  C        -2.7656600717        4.3307796385       16.2770965124
  C        -4.9351968754        4.4148439591       17.4249716763
  C        -5.9830504813        3.7248078952       18.0915896522
  C        -6.9492997467        4.4271956762       18.7625049333
  C       -13.7156558036        6.2876649643       31.2240031825
  C       -12.6160951100        5.6135307355       30.6008478738
  C       -14.7412160846        5.5740065338       31.8213139669
  C       -11.5840651108        6.3131669237       29.9101288322
  C       -10.6198290420        5.6214297255       29.2145485253
  C       -13.6592208658        3.4823427766       31.2513459705
  C       -14.7150757757        4.1667693879       31.8261557911
  C       -12.5920160515        4.1756382116       30.6049862052
  C       -11.5484529729        3.4987143078       29.9144046717
  C       -10.6059257493        4.2135393910       29.2228559111
  C        -9.5471708416        1.4611719787       23.6923436609
  C        -8.1493959327        8.6129931889       24.1381592865
  C        -2.8348678467        0.1952562428        7.3635029322
  C         0.8084447754        0.2387767297        8.6738530285
  O        -2.9838873161        8.6942608760       16.6680624458
  O        -5.3715303360        8.4815434391       16.0702647635
  O        -6.9691367530       10.5276730442       17.1153218119
  O        -5.0049675278       -0.3661836252       18.1732698217
  O        -4.8723837922        1.7504383807       16.1297965388
  O        -2.9635524627        1.5418862458       17.3513733931
  O        -2.3845620489        0.4558594550       14.7730802854
  O        -4.4189794027       10.4803088685       14.0288150459
  O       -14.7927617115        8.3767929791       30.9230092857
  O       -12.6972079641        8.3099205441       31.8211716481
  O       -10.7054015127       10.3324130662       30.7361373503
  O       -12.6364959808       10.2542318112       29.6582052220
  O       -12.6334868665        1.4635613358       31.8796562532
  O       -14.6713362500        1.3925176517       30.8559570473
  O         0.4045434740       -0.0033516053        1.2601387739
  O         2.4856655089       10.5450874226        2.0684622159
  F        -7.9010447310        6.4676906049       19.4530341151
  F        -7.9689823994        3.7911393985       19.3807368596
  F        -9.6125311516        6.2499399285       28.5632646566
  F        -9.6353681523        3.5584479312       28.5417960939
  O        -5.4970444520        7.9818349660       14.6552085952
  C        -4.1065918194        7.7599384871       14.5652408587
  O        -3.3994717973        7.4359250187       13.5460392889
     123
 i =      163, E =      -996.1933116366
 Zn        -2.5178792071       10.5722405008       16.6312223265
 Zn        -5.2572454255       10.5982780372       15.8618254239
 Zn       -15.1512629516       10.2818153457       31.2298359574
 Zn         3.1787827518       10.5955938966        0.1262686464
  H        -8.9219850642        0.7223369332       28.8731128541
  H        -8.0345497347        0.9591144146       26.6066327386
  H       -11.4492234613        9.5880395887       25.0288824244
  H       -12.3684137408        9.3603753258       27.3291885209
  H        -6.2433598321        0.4957193865       22.7922857690
  H        -9.6440235725        9.0927990027       21.2164310389
  H        -8.7281082020        9.2862841377       18.9455052199
  H        -5.2854319809        0.6541698879       20.5001488948
  H         2.0044442602        9.4096689709        4.5150690456
  H         0.8173978831        9.4110197670        6.6775165325
  H        -1.9878427703        1.4674572680        5.1160353421
  H        -0.9049277194        1.3242135416        2.9225947834
  H        -0.0460636198        1.6336450457       10.8048948847
  H        -2.8764888398        9.4299231183        9.4518224131
  H        -3.9989896228        9.4895390239       11.6520801103
  H        -1.0985915334        1.5959495753       13.0210961788
  H        -5.9582703870        7.6184826415       18.1438066225
  H        -6.0472935898        2.6379036266       18.0792741102
  H        -1.9402379836        3.7582621022       15.8611518182
  H        -2.0567045448        6.2250736878       15.5239633208
  H       -11.5413126608        7.3989329200       29.9053401738
  H       -11.4926708677        2.4143438476       29.9270768826
  H         0.0543814025        3.9334553575        0.3722302015
  H         0.0092925576        6.4346211376        0.3579517949
  H        -9.1874817779        1.5963115340       22.6585943663
  H        -9.1461902988        2.2731430896       24.3091021763
  H       -10.6426569637        1.5821885371       23.6929734140
  H        -7.0399772365        8.5046278337       24.1385520693
  H        -8.5269763816        7.8006604819       23.5175266097
  H        -8.4972169880        8.4869315637       25.1646974264
  H        -3.3613884637       10.0150822869        7.5041278107
  H         3.1783592634        0.5674328054        6.3941847967
  H        -3.2182225970        0.8642761558        8.1503106544
  H         1.2764306080       10.0480018724        8.5777381984
  H         1.1630276882        0.6506233867        9.6213962125
  H         1.1938783666        0.8638415124        7.8558881192
  C        -3.8630144214        7.8983835589       16.0941384882
  C        -6.2865562997       10.4412935531       18.2458492644
  C        -3.8957491810        2.2034805170       16.8057749811
  C        -3.2163055920       10.9087360009       13.8421770264
  C       -13.7367501737        7.7753429811       31.3204283192
  C       -11.3894408527       10.3241968055       29.5971579085
  C       -13.6470764375        1.9967966026       31.3289698854
  C         1.2298874041       10.6974991906        2.2115576185
  C       -10.7224450421       10.4002641449       28.2675865410
  C        -9.4658064327        0.2626305191       28.0509044487
  C        -8.9654696166        0.4118729881       26.7545194538
  C        -9.6540961055       -0.1199545857       25.6480190444
  C       -10.9002602352       10.0017478503       25.8789524343
  C       -11.4201501276        9.8686618810       27.1631373329
  C        -9.1670353482        0.1176443180       24.2535977434
  C        -8.5209419074        9.9607094184       23.5649817585
  C        -6.7785419401        0.0635838014       21.9430417868
  C        -8.0232290284       10.1726237367       22.1700359598
  C        -8.7102626341        9.6382186848       21.0679178873
  C        -8.1918530152        9.7499393715       19.7743093057
  C        -6.9633269418       10.3960172513       19.5650494382
  C        -6.2362186677        0.1458435971       20.6653265489
  C         0.6602060966       -0.0092465696        3.5746341246
  C         1.1237059882       10.0365553393        4.6540729670
  C         0.4560784432       10.0534052710        5.8773853350
  C        -0.6481475323        0.0658606805        6.1028415877
  C        -1.1222562834        0.8164676250        5.0029831840
  C        -0.4978103915        0.7615989932        3.7622916258
  C        -1.3494206978        0.1091667352        7.4158030001
  C        -0.6772329042        0.1378208719        8.6068962554
  C        -0.8997218794        0.9775031082       10.9689841987
  C        -1.3749535489        0.1553959225        9.9228354450
  C        -2.5194057531       10.1250741125       10.2069863838
  C        -3.1631877331       10.1566420815       11.4445925833
  C        -2.6313108592        0.1822782281       12.4670998845
  C        -1.5022146669        0.9815080368       12.2174151426
  C        -3.8821662423        6.4718032085       16.6240105970
  C        -4.9200491198        5.8407933016       17.3883214696
  C        -2.8251906573        5.7277467889       16.1192304128
  C        -5.9353417565        6.5359243413       18.1076232478
  C        -6.9092382294        5.8277576544       18.7794636399
  C        -3.8238078425        3.6833306660       16.8753164601
  C        -2.7730177813        4.3370803474       16.2684405948
  C        -4.9195550616        4.4025095794       17.4316534122
  C        -5.9791459937        3.7238541187       18.0984614203
  C        -6.9489877124        4.4200073930       18.7620692376
  C       -13.7104010301        6.2864456407       31.2244753686
  C       -12.6137925813        5.6190875452       30.5913730096
  C       -14.7388589977        5.5766951552       31.8216246165
  C       -11.5758379161        6.3130369866       29.9020444569
  C       -10.6143848045        5.6078791016       29.2139869869
  C       -13.6623763865        3.4859728579       31.2523375332
  C       -14.7152784444        4.1693015814       31.8359454593
  C       -12.5974731116        4.1809421575       30.6042901531
  C       -11.5540917389        3.4998871783       29.9186316216
  C       -10.6053618682        4.1989042937       29.2168825847
  C        -9.5473862791        1.4587824488       23.6848329965
  C        -8.1356580414        8.6223616271       24.1379200091
  C        -2.8377144045        0.2016676411        7.3618361949
  C         0.8099067654        0.2365139636        8.6739917710
  O        -2.9884966816        8.6948018175       16.6627708970
  O        -5.3714226665        8.4666024957       16.0605735598
  O        -6.9655160097       10.5286575223       17.1106599813
  O        -5.0076862644       -0.3708646354       18.1605181211
  O        -4.8756971284        1.7409578399       16.1221041570
  O        -2.9602162405        1.5447813255       17.3578218687
  O        -2.3836139628        0.4635190311       14.7802634082
  O        -4.4142668276       10.4881477313       14.0309698399
  O       -14.7933873016        8.3763755843       30.9240178586
  O       -12.6969061426        8.3063395398       31.8195591187
  O       -10.7067116052       10.3325516146       30.7358655078
  O       -12.6344079774       10.2565160569       29.6623559503
  O       -12.6387234641        1.4589888567       31.8837565978
  O       -14.6716177751        1.3921436414       30.8672278580
  O         0.4041245574       -0.0090281733        1.2608729692
  O         2.4864163128       10.5415400297        2.0681245077
  F        -7.8903851802        6.4825744808       19.4497288857
  F        -7.9605827150        3.7766572153       19.3879863272
  F        -9.6225935319        6.2560938639       28.5561853277
  F        -9.6181644944        3.5674810399       28.5402895431
  O        -5.4886991841        7.9721662751       14.6636115155
  C        -4.1203419933        7.7352088210       14.5747055343
  O        -3.4582656044        7.4518528806       13.5839950765
     123
 i =      164, E =      -996.1947519019
 Zn        -2.5143474469       10.5737952770       16.6264360073
 Zn        -5.2726553674       10.5926971541       15.8742675017
 Zn       -15.1502360141       10.2859533342       31.2307694203
 Zn         3.1782994365       10.5989322477        0.1279826647
  H        -8.9301635660        0.7304477967       28.8693357997
  H        -8.0458048589        0.9653186279       26.6002155829
  H       -11.4467358531        9.5661411467       25.0333162626
  H       -12.3621862300        9.3408277022       27.3348834361
  H        -6.2498603698        0.4630139992       22.7924378341
  H        -9.6521857139        9.0766139261       21.2112387192
  H        -8.7332851878        9.2646141598       18.9432974555
  H        -5.2879885809        0.6238226890       20.5026237392
  H         2.0211900524        9.4340960995        4.5165529098
  H         0.8355936229        9.4173399764        6.6779997192
  H        -2.0032697741        1.4462084769        5.1220565316
  H        -0.9187969305        1.3177958844        2.9285625312
  H        -0.0670396780        1.6482220157       10.8059643594
  H        -2.8687400352        9.4133345963        9.4597875388
  H        -3.9964564764        9.4731283730       11.6587564003
  H        -1.1323184515        1.6152108871       13.0196566290
  H        -5.9306450796        7.6223655840       18.1789866173
  H        -6.0580660321        2.6398699628       18.0645647124
  H        -1.9321992893        3.7542608031       15.8890780213
  H        -2.0332264796        6.2175631115       15.5529677437
  H       -11.5358370445        7.3957839179       29.9012222152
  H       -11.4851464048        2.4095774066       29.9394679901
  H         0.0446065051        3.9377494327        0.3553886598
  H         0.0065199673        6.4386576771        0.3396997009
  H        -9.1835138967        1.6080150884       22.6702821505
  H        -9.1369783454        2.2709360358       24.3271291855
  H       -10.6372402286        1.5962032047       23.7038830016
  H        -7.0794536974        8.4773875298       24.1342820686
  H        -8.5724202940        7.7921208047       23.4974396731
  H        -8.5455185927        8.4674883511       25.1529258876
  H        -3.3492123381        9.9841640524        7.5057366526
  H         3.1717577409        0.5529786621        6.4104501909
  H        -3.2196153999        0.8227666581        8.1696712371
  H         1.2652055008       10.0284380279        8.5947758665
  H         1.1692121527        0.6436024878        9.6223673361
  H         1.1976922542        0.8342491210        7.8521013456
  C        -3.8502373460        7.8972742693       16.1174179185
  C        -6.2845525162       10.4302249003       18.2448726551
  C        -3.8910475196        2.2030571605       16.7968021891
  C        -3.2310771700       10.9047446366       13.8446061487
  C       -13.7369037369        7.7753483204       31.3222707491
  C       -11.3904839130       10.3255819826       29.5992144133
  C       -13.6563228752        1.9992720652       31.3482228952
  C         1.2285853309       10.6913812996        2.2142972113
  C       -10.7254001774       10.3938422549       28.2684762913
  C        -9.4734986927        0.2656427932       28.0493664231
  C        -8.9724910374        0.4108024143       26.7534583228
  C        -9.6612117454       -0.1166789699       25.6472667644
  C       -10.8974338989        9.9840748453       25.8800202516
  C       -11.4190246906        9.8586830106       27.1649103625
  C        -9.1795953396        0.1092294403       24.2488290011
  C        -8.5377473068        9.9501066231       23.5620285433
  C        -6.7861786225        0.0268912971       21.9423147086
  C        -8.0483755897       10.1791474777       22.1668440063
  C        -8.7155350760        9.6092135863       21.0614500514
  C        -8.2008121080        9.7440734772       19.7680309646
  C        -6.9627554471       10.3643342029       19.5638422174
  C        -6.2471679394        0.1366666414       20.6661036293
  C         0.6628872959        0.0012625065        3.5784160751
  C         1.1322648532       10.0495949472        4.6565432041
  C         0.4671049055       10.0595241337        5.8813239785
  C        -0.6490036646        0.0569987913        6.1058232113
  C        -1.1285323701        0.8072335245        5.0086690229
  C        -0.5061316573        0.7566416891        3.7663550652
  C        -1.3462157062        0.0947302543        7.4221233288
  C        -0.6769487092        0.1287229966        8.6142903438
  C        -0.9164519629        0.9861991665       10.9727326149
  C        -1.3727318229        0.1450936332        9.9324957391
  C        -2.5202981428       10.1164919775       10.2116245066
  C        -3.1589431465       10.1390387407       11.4520996957
  C        -2.6456735654        0.1795193002       12.4698644188
  C        -1.5187966518        0.9843626548       12.2203359735
  C        -3.8661061066        6.4710015926       16.6376214831
  C        -4.9075503693        5.8439848681       17.4013791555
  C        -2.8117609518        5.7224463437       16.1349261494
  C        -5.9259041639        6.5392663701       18.1150695046
  C        -6.9025696038        5.8426423731       18.7964139313
  C        -3.8406502931        3.6836836554       16.8672003552
  C        -2.7646293873        4.3298946778       16.2960781739
  C        -4.9204507858        4.4063111022       17.4445188767
  C        -5.9897756140        3.7247798496       18.0902252056
  C        -6.9423401331        4.4352307589       18.7636435950
  C       -13.7101736572        6.2868200490       31.2210990918
  C       -12.6112693538        5.6196574639       30.5913910575
  C       -14.7395708267        5.5745536608       31.8135434463
  C       -11.5723622909        6.3100252073       29.9002329672
  C       -10.6091888193        5.6107513899       29.2101659011
  C       -13.6590679400        3.4868190967       31.2430669409
  C       -14.7143041656        4.1673403776       31.8288959183
  C       -12.5832395940        4.1817045662       30.6125228750
  C       -11.5453578868        3.4954462374       29.9210976962
  C       -10.6022141396        4.2015452313       29.2159449396
  C        -9.5422652766        1.4639623024       23.6959547045
  C        -8.1744028046        8.6021445953       24.1294206411
  C        -2.8355306589        0.1775915993        7.3712446920
  C         0.8105835713        0.2220374108        8.6790730611
  O        -2.9886639634        8.6995877813       16.6853622746
  O        -5.3707371072        8.4405173601       16.0367952803
  O        -6.9634258551       10.5337450594       17.1077994937
  O        -5.0060456466       -0.3984314649       18.1764949052
  O        -4.8725239054        1.7301382788       16.1238777240
  O        -2.9609057771        1.5485120212       17.3711422788
  O        -2.3863837755        0.4481575200       14.7756077841
  O        -4.4308000636       10.4875776853       14.0373167179
  O       -14.7922807409        8.3797878834       30.9265379149
  O       -12.6954624745        8.3101624163       31.8139685995
  O       -10.7062623642       10.3309307029       30.7374350435
  O       -12.6352544304       10.2558203712       29.6620506010
  O       -12.6341687518        1.4617522221       31.8773392465
  O       -14.6697787212        1.3953701805       30.8591464022
  O         0.4051249906       -0.0053985751        1.2625045837
  O         2.4865146563       10.5478291010        2.0683524345
  F        -7.8941943944        6.4873258698       19.4598198719
  F        -7.9619120870        3.7845700373       19.3717336915
  F        -9.6190949207        6.2576405236       28.5450210826
  F        -9.6145260257        3.5701588928       28.5396507035
  O        -5.4475381737        7.9564822789       14.6325638762
  C        -4.0657885692        7.7369563021       14.5619851112
  O        -3.4451821978        7.4632645744       13.6050029995
     123
 i =      165, E =      -996.1970238656
 Zn        -2.5140475989       10.5713875256       16.6262250618
 Zn        -5.2850341675       10.5938734874       15.8647341822
 Zn       -15.1503970396       10.2849681971       31.2308151738
 Zn         3.1778554002       10.5993213940        0.1276023664
  H        -8.9334054850        0.7333313924       28.8677820740
  H        -8.0485941860        0.9688785492       26.5981295688
  H       -11.4452744796        9.5572602303       25.0336548963
  H       -12.3600951720        9.3325908985       27.3364744868
  H        -6.2502291127        0.4463506078       22.7939326992
  H        -9.6549546352        9.0653290011       21.2089194702
  H        -8.7370783534        9.2578307253       18.9412598781
  H        -5.2904013735        0.6153452061       20.5042558579
  H         2.0278797313        9.4432230622        4.5159927229
  H         0.8422609386        9.4188331564        6.6769665762
  H        -2.0092380435        1.4369505702        5.1237022213
  H        -0.9248754954        1.3142309039        2.9302845732
  H        -0.0758881502        1.6541271681       10.8083627369
  H        -2.8663164661        9.4070515670        9.4640552727
  H        -3.9981466609        9.4660553790       11.6598690369
  H        -1.1462968335        1.6232690553       13.0207337954
  H        -5.9207358404        7.6279952485       18.1897785625
  H        -6.0587921938        2.6450343059       18.0636666450
  H        -1.9270701302        3.7531561544       15.8988766553
  H        -2.0272704168        6.2167187477       15.5601252480
  H       -11.5331560736        7.3956189723       29.8991842516
  H       -11.4823293830        2.4087052159       29.9415985741
  H         0.0432539469        3.9381216712        0.3498890633
  H         0.0057046797        6.4396460619        0.3338618250
  H        -9.1813193622        1.6135615666       22.6733684266
  H        -9.1330117739        2.2685914403       24.3339694411
  H       -10.6356284459        1.6021368924       23.7076957568
  H        -7.0954935980        8.4661366912       24.1330981743
  H        -8.5890018428        7.7889916752       23.4912801329
  H        -8.5630163843        8.4592112899       25.1453456231
  H        -3.3445106718        9.9715959076        7.5087480227
  H         3.1685789174        0.5479837986        6.4172543572
  H        -3.2185422940        0.8061942398        8.1766400302
  H         1.2603726238       10.0206514883        8.5983846020
  H         1.1738028622        0.6405892469        9.6245931899
  H         1.1988809544        0.8207959674        7.8495758984
  C        -3.8465911004        7.8959641784       16.1237873120
  C        -6.2875500808       10.4288276702       18.2466339339
  C        -3.8902447156        2.2043925402       16.7952394788
  C        -3.2353626549       10.9032647618       13.8438241460
  C       -13.7336364020        7.7771209901       31.3146419982
  C       -11.3909833316       10.3186721871       29.5998314064
  C       -13.6471857182        1.9974960472       31.3303983139
  C         1.2301119264       10.7050474732        2.2141105079
  C       -10.7260324182       10.3969030058       28.2695091006
  C        -9.4739140215        0.2652980848       28.0471160809
  C        -8.9752403463        0.4135621351       26.7510328157
  C        -9.6645515195       -0.1205448346       25.6490485152
  C       -10.9009974245        9.9782969095       25.8814721004
  C       -11.4175933926        9.8524738028       27.1681681068
  C        -9.1808519108        0.1110001669       24.2526800651
  C        -8.5479895443        9.9505194531       23.5599216276
  C        -6.7947358674        0.0329191007       21.9436146371
  C        -8.0472527805       10.1518739076       22.1643951639
  C        -8.7251878485        9.6170738194       21.0579972954
  C        -8.2018435625        9.7283723520       19.7667893423
  C        -6.9678886626       10.3651513211       19.5640458682
  C        -6.2470957606        0.1192849603       20.6675910170
  C         0.6601240351       -0.0011291653        3.5776378429
  C         1.1372856760       10.0559128037        4.6583337033
  C         0.4700534897       10.0608126992        5.8821872964
  C        -0.6479232560        0.0556830291        6.1083764748
  C        -1.1324003315        0.8011179550        5.0091045153
  C        -0.5062021300        0.7568707194        3.7683092820
  C        -1.3444764229        0.0903623901        7.4259726817
  C        -0.6755676090        0.1213559670        8.6182173574
  C        -0.9183090721        0.9846862709       10.9772984117
  C        -1.3766466357        0.1472875515        9.9337244666
  C        -2.5176688301       10.1104364253       10.2166887374
  C        -3.1624971031       10.1338068785       11.4520872358
  C        -2.6485501935        0.1756114207       12.4707456074
  C        -1.5310522567        0.9900573437       12.2218041233
  C        -3.8584715194        6.4708141165       16.6474889515
  C        -4.9054819697        5.8491327985       17.4038922086
  C        -2.8043955837        5.7214346493       16.1430487927
  C        -5.9219315345        6.5437968650       18.1228169321
  C        -6.8991831967        5.8447487331       18.7991489586
  C        -3.8424929514        3.6856490718       16.8700510607
  C        -2.7617832589        4.3278334190       16.2985356542
  C        -4.9241233348        4.4110231495       17.4404863983
  C        -5.9884380577        3.7292065717       18.0897861332
  C        -6.9439604998        4.4377919781       18.7642514843
  C       -13.7069201432        6.2874505115       31.2211427022
  C       -12.6080006895        5.6165153045       30.5934720316
  C       -14.7390146469        5.5766971377       31.8098673480
  C       -11.5733333148        6.3094510465       29.8999112817
  C       -10.6086550227        5.6132786648       29.2110032092
  C       -13.6560585243        3.4866859351       31.2527434664
  C       -14.7167841973        4.1698769794       31.8227302138
  C       -12.5838348752        4.1782330156       30.6096908410
  C       -11.5394939467        3.4945037047       29.9236318935
  C       -10.6015026396        4.2046446843       29.2142092351
  C        -9.5410831854        1.4661676715       23.6987481322
  C        -8.1906799477        8.5979031103       24.1233712726
  C        -2.8340835451        0.1699375033        7.3743001242
  C         0.8117637765        0.2193868835        8.6789875115
  O        -2.9873409106        8.6976035331       16.6965706640
  O        -5.3676734216        8.4456542323       16.0366553732
  O        -6.9599482772       10.5311474099       17.1084042388
  O        -5.0044480004       -0.4130535744       18.1767405217
  O        -4.8677901810        1.7268440754       16.1255944116
  O        -2.9598660016        1.5458191653       17.3640116694
  O        -2.3890856543        0.4442867655       14.7736983147
  O        -4.4351049152       10.4910138168       14.0357765941
  O       -14.7946008384        8.3781401464       30.9288128202
  O       -12.6957506541        8.3103637783       31.8147934528
  O       -10.7060320289       10.3340748842       30.7372597683
  O       -12.6361293505       10.2581891285       29.6617166887
  O       -12.6356660107        1.4629279731       31.8823331978
  O       -14.6736228580        1.3967923442       30.8666071541
  O         0.4044447492       -0.0096661340        1.2625127157
  O         2.4859577431       10.5419901959        2.0679805525
  F        -7.8891703521        6.4873229058       19.4645393915
  F        -7.9616292831        3.7784770827       19.3665909295
  F        -9.6174801686        6.2535326636       28.5419247929
  F        -9.6112951118        3.5725877563       28.5409173086
  O        -5.4287014031        7.9529604871       14.6261415530
  C        -4.0518874506        7.7437302577       14.5750385818
  O        -3.4274142854        7.4590259333       13.5977185451
     123
 i =      166, E =      -996.1973443091
 Zn        -2.5149569627       10.5699848499       16.6363981412
 Zn        -5.2896464079       10.5926066416       15.8441471102
 Zn       -15.1504806981       10.2828320399       31.2298655609
 Zn         3.1782188915       10.5981747824        0.1269068117
  H        -8.9264620084        0.7276564693       28.8704298154
  H        -8.0418076368        0.9644151871       26.6022311880
  H       -11.4468402328        9.5752937695       25.0316331089
  H       -12.3648747971        9.3485152933       27.3325386303
  H        -6.2493794202        0.4801967251       22.7920059076
  H        -9.6471861971        9.0810971772       21.2122074059
  H        -8.7317614521        9.2761448002       18.9451764998
  H        -5.2897604803        0.6450548720       20.5017962698
  H         2.0128383459        9.4201120079        4.5147965735
  H         0.8257469951        9.4124695009        6.6766086038
  H        -1.9980226644        1.4529188452        5.1178979654
  H        -0.9145054456        1.3168709231        2.9243152379
  H        -0.0555553860        1.6410011262       10.8047930566
  H        -2.8720493461        9.4208154558        9.4566996579
  H        -4.0007321277        9.4848936879       11.6518683421
  H        -1.1129727505        1.6074693704       13.0205520841
  H        -5.9517113264        7.6235538198       18.1502650886
  H        -6.0422208175        2.6432375662       18.0900223920
  H        -1.9408411208        3.7567773245       15.8662806543
  H        -2.0460739165        6.2217753742       15.5404277971
  H       -11.5329990380        7.4002113625       29.8996042425
  H       -11.4895857522        2.4112928190       29.9237420477
  H         0.0562896655        3.9377799268        0.3666463634
  H         0.0147258128        6.4382818644        0.3484880654
  H        -9.1815063254        1.5994887250       22.6627406798
  H        -9.1388304070        2.2703765193       24.3167187164
  H       -10.6380289009        1.5897270527       23.6942153673
  H        -7.0605356630        8.4891117723       24.1365192404
  H        -8.5509094355        7.7953939474       23.5069706873
  H        -8.5229400530        8.4751701852       25.1584872242
  H        -3.3561795224       10.0038839383        7.5130044029
  H         3.1745500842        0.5600032224        6.4025031488
  H        -3.2144769814        0.8481721157        8.1568528173
  H         1.2697598768       10.0387529997        8.5802091157
  H         1.1689030882        0.6415101012        9.6252393402
  H         1.1967661878        0.8497592894        7.8562997892
  C        -3.8522519269        7.8986645064       16.1066365181
  C        -6.2849651653       10.4239996557       18.2441007594
  C        -3.8921735323        2.1985146294       16.7965756055
  C        -3.2251714672       10.9029267763       13.8405711530
  C       -13.7344184270        7.7771763272       31.3177558744
  C       -11.3899577905       10.3243615727       29.5985376213
  C       -13.6480883145        1.9978404738       31.3310708294
  C         1.2289803596       10.6948984792        2.2126710478
  C       -10.7233536494       10.3978644599       28.2684668937
  C        -9.4694395529        0.2656904126       28.0485592155
  C        -8.9704982939        0.4120724180       26.7521742317
  C        -9.6576049877       -0.1176649410       25.6470109274
  C       -10.9002224675        9.9919690557       25.8801018223
  C       -11.4188836622        9.8629225574       27.1655194128
  C        -9.1709579936        0.1123068674       24.2509635501
  C        -8.5319266611        9.9531471439       23.5613461711
  C        -6.7844521515        0.0508208698       21.9433479061
  C        -8.0363607127       10.1738297097       22.1671706714
  C        -8.7131599003        9.6245419735       21.0633188925
  C        -8.1960683025        9.7460616644       19.7713922018
  C        -6.9640971643       10.3861211528       19.5630254864
  C        -6.2432075307        0.1422462569       20.6645980792
  C         0.6622276119       -0.0050582850        3.5766465740
  C         1.1267403616       10.0405592049        4.6540646443
  C         0.4619743852       10.0554419062        5.8790039506
  C        -0.6488264709        0.0602558047        6.1042448712
  C        -1.1266190576        0.8091969224        5.0049596825
  C        -0.5040465238        0.7558897686        3.7632156926
  C        -1.3464440811        0.1015373031        7.4199176134
  C        -0.6763312700        0.1324310001        8.6112881491
  C        -0.9044179461        0.9801792764       10.9722818707
  C        -1.3721810223        0.1504378166        9.9274482850
  C        -2.5188775144       10.1210593424       10.2105591477
  C        -3.1613875879       10.1479012458       11.4457262914
  C        -2.6359488915        0.1809398052       12.4682343706
  C        -1.5107300438        0.9837778381       12.2206849941
  C        -3.8703054303        6.4703742311       16.6337884659
  C        -4.9167387264        5.8472712437       17.3883432785
  C        -2.8164219922        5.7226601820       16.1285214056
  C        -5.9323817197        6.5393893240       18.1123762057
  C        -6.9068480679        5.8355641263       18.7848144866
  C        -3.8377354630        3.6819070337       16.8686140367
  C        -2.7727769051        4.3286753317       16.2741013603
  C        -4.9214485306        4.4079268266       17.4370400563
  C        -5.9781406289        3.7279456682       18.0997032102
  C        -6.9442716600        4.4288178862       18.7687629511
  C       -13.7066116909        6.2878782025       31.2202284253
  C       -12.6081227459        5.6184767145       30.5897424318
  C       -14.7340012817        5.5767521540       31.8166939993
  C       -11.5742523608        6.3136535289       29.8979088690
  C       -10.6147114510        5.6101496276       29.2090232563
  C       -13.6562869627        3.4867711129       31.2486324560
  C       -14.7102192656        4.1702676184       31.8294850316
  C       -12.5881518162        4.1800878282       30.6006936096
  C       -11.5456065998        3.4964128791       29.9110328692
  C       -10.5988565682        4.2028141386       29.2119560531
  C        -9.5428126463        1.4605915833       23.6889896210
  C        -8.1565228777        8.6102276891       24.1340020363
  C        -2.8351418248        0.1942241890        7.3662039337
  C         0.8113974572        0.2326892678        8.6724153176
  O        -2.9912408053        8.6912475383       16.6908166096
  O        -5.3648894673        8.4616215822       16.0429598097
  O        -6.9601542381       10.5344189899       17.1088495446
  O        -5.0020935792       -0.4069532263       18.1658526744
  O        -4.8604796259        1.7225522443       16.1134420649
  O        -2.9607047044        1.5425404883       17.3608558833
  O        -2.3884556993        0.4508201246       14.7784939871
  O        -4.4249360911       10.4880119624       14.0249210699
  O       -14.7943937788        8.3761444887       30.9261305014
  O       -12.6950879176        8.3093507919       31.8157276776
  O       -10.7059653334       10.3321603396       30.7362895103
  O       -12.6347951253       10.2557616048       29.6612122360
  O       -12.6347758517        1.4622312971       31.8787039994
  O       -14.6720818177        1.3945185605       30.8650055158
  O         0.4047987032       -0.0079573251        1.2605516048
  O         2.4864564605       10.5438344019        2.0685735351
  F        -7.8816332814        6.4811381924       19.4694012715
  F        -7.9631327045        3.7729289612       19.3694720205
  F        -9.6219571111        6.2407367881       28.5371359365
  F        -9.6074173414        3.5719357885       28.5367166640
  O        -5.4525724488        7.9559773672       14.6410595166
  C        -4.0773549258        7.7431605927       14.5696429368
  O        -3.4642369145        7.4464224499       13.5751920761
     123
 i =      167, E =      -996.1981063126
 Zn        -2.5189329895       10.5733105178       16.6369109695
 Zn        -5.2907381644       10.5884345595       15.8505893408
 Zn       -15.1507012160       10.2838666365       31.2302502702
 Zn         3.1781475325       10.5983313135        0.1280319368
  H        -8.9295834555        0.7313765775       28.8688098562
  H        -8.0465299047        0.9673868405       26.5994248531
  H       -11.4460115273        9.5659144502       25.0336203555
  H       -12.3626800253        9.3407192664       27.3353152183
  H        -6.2535335574        0.4690782135       22.7923451644
  H        -9.6498302812        9.0733971523       21.2090643447
  H        -8.7336546047        9.2689605920       18.9439605131
  H        -5.2917313489        0.6356935232       20.5033296221
  H         2.0190062722        9.4284280554        4.5149219331
  H         0.8329394053        9.4144738772        6.6766808791
  H        -2.0039390859        1.4432591600        5.1200143419
  H        -0.9207731097        1.3126855910        2.9263855242
  H        -0.0641881009        1.6463020543       10.8062924416
  H        -2.8692759673        9.4140998299        9.4590503284
  H        -4.0005757296        9.4775778763       11.6526841134
  H        -1.1260059909        1.6126621392       13.0208408309
  H        -5.9429341638        7.6265723025       18.1604171494
  H        -6.0428013563        2.6455393624       18.0865849395
  H        -1.9382202675        3.7540149779       15.8738211025
  H        -2.0359267240        6.2191950278       15.5534749548
  H       -11.5304948644        7.3996851985       29.8975602279
  H       -11.4858396214        2.4090090730       29.9242317897
  H         0.0554394395        3.9393189377        0.3603227372
  H         0.0150100135        6.4398737515        0.3416340451
  H        -9.1784296768        1.6034313301       22.6663461067
  H        -9.1343037619        2.2691550500       24.3230245806
  H       -10.6352360129        1.5948358802       23.6975976214
  H        -7.0763419413        8.4779108490       24.1345364948
  H        -8.5685325421        7.7909509173       23.4992809072
  H        -8.5416729159        8.4668058060       25.1524140681
  H        -3.3520026308        9.9928590391        7.5131644317
  H         3.1729649733        0.5530189907        6.4091496607
  H        -3.2140685348        0.8371456415        8.1645840357
  H         1.2670576470       10.0301009930        8.5874619117
  H         1.1702490547        0.6386381891        9.6253369091
  H         1.1973675039        0.8414813911        7.8588243570
  C        -3.8403062427        7.8994200259       16.1100020217
  C        -6.2854831658       10.4198920219       18.2429266504
  C        -3.8934546516        2.1969012113       16.7914583704
  C        -3.2313030954       10.9035670908       13.8411868630
  C       -13.7327792962        7.7771919929       31.3148781125
  C       -11.3899836970       10.3224102161       29.5989067020
  C       -13.6500419400        1.9988238630       31.3356016743
  C         1.2289349934       10.6979725915        2.2131761879
  C       -10.7248793101       10.3974873932       28.2681709442
  C        -9.4720011586        0.2664311564       28.0480125159
  C        -8.9740862259        0.4137073855       26.7514127225
  C        -9.6596078580       -0.1194149851       25.6471396452
  C       -10.9002630990        9.9863778898       25.8805918013
  C       -11.4184081236        9.8575819736       27.1662304713
  C        -9.1765249357        0.1096850865       24.2498047087
  C        -8.5390741460        9.9502167980       23.5605779186
  C        -6.7889424776        0.0418169706       21.9422390935
  C        -8.0425346196       10.1685087849       22.1664324064
  C        -8.7172523543        9.6198489296       21.0615382487
  C        -8.1984669537        9.7387934920       19.7701868265
  C        -6.9649708031       10.3752036190       19.5617471614
  C        -6.2465365795        0.1350715673       20.6638043471
  C         0.6609123480       -0.0048243055        3.5769457283
  C         1.1311869266       10.0458754508        4.6555080164
  C         0.4649746834       10.0560652857        5.8797680336
  C        -0.6473302862        0.0581626628        6.1067980944
  C        -1.1298722676        0.8033344954        5.0065749783
  C        -0.5063240585        0.7539265796        3.7650456489
  C        -1.3465969054        0.0970616746        7.4218973022
  C        -0.6764137497        0.1300888551        8.6133023145
  C        -0.9107792446        0.9821395030       10.9731998552
  C        -1.3717613525        0.1465287088        9.9300114070
  C        -2.5177487427       10.1152704495       10.2128142240
  C        -3.1621341372       10.1421132316       11.4468689596
  C        -2.6409806873        0.1784525564       12.4691149838
  C        -1.5175642848        0.9840957128       12.2215240916
  C        -3.8672006024        6.4715430395       16.6353707951
  C        -4.9126386065        5.8483892377       17.3922916814
  C        -2.8125802589        5.7223628409       16.1340849887
  C        -5.9290279879        6.5417894962       18.1148618106
  C        -6.9010072558        5.8397341565       18.7941692198
  C        -3.8384655003        3.6810012926       16.8672090278
  C        -2.7698973242        4.3276646449       16.2791396360
  C        -4.9203489760        4.4085670343       17.4353565354
  C        -5.9769250943        3.7301533042       18.0969822043
  C        -6.9422521403        4.4331297545       18.7640384809
  C       -13.7049809898        6.2878087228       31.2186107788
  C       -12.6052475329        5.6200841960       30.5882636202
  C       -14.7335280962        5.5765831036       31.8122070142
  C       -11.5709148627        6.3131858353       29.8952474876
  C       -10.6115140521        5.6090616003       29.2078570906
  C       -13.6551265334        3.4870867072       31.2432523289
  C       -14.7082856296        4.1703050409       31.8262826051
  C       -12.5845438435        4.1815729704       30.6010354360
  C       -11.5431503099        3.4941124697       29.9129810819
  C       -10.6001369709        4.2024999836       29.2114436839
  C        -9.5403183819        1.4628024430       23.6921612440
  C        -8.1721311081        8.6024707604       24.1291501144
  C        -2.8358401035        0.1846531580        7.3713620262
  C         0.8117450195        0.2253518471        8.6766116030
  O        -2.9883205514        8.6937734149       16.7017279186
  O        -5.3628514181        8.4525562913       16.0315903979
  O        -6.9623179849       10.5324661947       17.1084407485
  O        -5.0026052140       -0.4243655672       18.1686676072
  O        -4.8608866956        1.7190182788       16.1084164069
  O        -2.9632613340        1.5462529748       17.3660869828
  O        -2.3903493968        0.4462295686       14.7769947010
  O        -4.4305080881       10.4878952527       14.0292300031
  O       -14.7936326588        8.3770623264       30.9269355054
  O       -12.6946401423        8.3102231897       31.8139815457
  O       -10.7061650252       10.3327015641       30.7366630497
  O       -12.6348989922       10.2566206328       29.6617298513
  O       -12.6332346732        1.4621496778       31.8756351559
  O       -14.6707776364        1.3950632930       30.8625088817
  O         0.4043542932       -0.0084218934        1.2612055153
  O         2.4861011896       10.5436128028        2.0688791356
  F        -7.8759069119        6.4791555826       19.4836473064
  F        -7.9611112691        3.7754654589       19.3616202375
  F        -9.6165778443        6.2341771875       28.5351108288
  F        -9.6062054530        3.5777527684       28.5352929218
  O        -5.4322060261        7.9463454991       14.6287353100
  C        -4.0628168462        7.7398817327       14.5661860977
  O        -3.4528503899        7.4477803250       13.5721072910
     123
 i =      168, E =      -996.1983498768
 Zn        -2.5201020587       10.5740564207       16.6375801501
 Zn        -5.2863949952       10.5884870011       15.8586717774
 Zn       -15.1503728210       10.2845020621       31.2306566971
 Zn         3.1780774130       10.5995696587        0.1281545942
  H        -8.9331181864        0.7348101219       28.8663010334
  H        -8.0508942292        0.9705065307       26.5964020011
  H       -11.4448879377        9.5547264534       25.0350987577
  H       -12.3598845307        9.3315314782       27.3381176235
  H        -6.2568556388        0.4532596931       22.7929356641
  H        -9.6550080440        9.0655865915       21.2046261087
  H        -8.7370539136        9.2601076606       18.9415343937
  H        -5.2923252973        0.6235116315       20.5051011355
  H         2.0267098112        9.4399024123        4.5145328515
  H         0.8419140117        9.4163983170        6.6759839102
  H        -2.0118350031        1.4317143580        5.1220398958
  H        -0.9279485475        1.3080419018        2.9284062395
  H        -0.0741031771        1.6537843954       10.8081977201
  H        -2.8630931452        9.4054348608        9.4610432183
  H        -4.0003081126        9.4695723570       11.6510099752
  H        -1.1440752606        1.6210336664       13.0196636164
  H        -5.9315973993        7.6279163563       18.1730758815
  H        -6.0409926363        2.6440828604       18.0846444318
  H        -1.9344615965        3.7484416281       15.8816687273
  H        -2.0234779350        6.2147870715       15.5658118343
  H       -11.5265762503        7.3998666246       29.8939786646
  H       -11.4821364282        2.4063971742       29.9257432794
  H         0.0546658154        3.9407022064        0.3541230890
  H         0.0163132746        6.4414726522        0.3332789718
  H        -9.1746472523        1.6088835523       22.6705271333
  H        -9.1287713392        2.2664663857       24.3306661845
  H       -10.6320876414        1.6017744734       23.7018656576
  H        -7.0959554911        8.4637073237       24.1324646746
  H        -8.5901470870        7.7858362318       23.4906610672
  H        -8.5651561625        8.4567321323       25.1453794229
  H        -3.3464707488        9.9783035813        7.5155341619
  H         3.1696795531        0.5445493957        6.4168003066
  H        -3.2129930742        0.8197425292        8.1742462437
  H         1.2643806176       10.0184521933        8.5937808759
  H         1.1744938654        0.6348057954        9.6244660154
  H         1.1993777510        0.8290872005        7.8563467459
  C        -3.8310044285        7.8980139446       16.1176677550
  C        -6.2875612335       10.4152197135       18.2437957009
  C        -3.8943772868        2.1968837275       16.7887818258
  C        -3.2394730428       10.9033811375       13.8420506737
  C       -13.7325169051        7.7773477606       31.3159294975
  C       -11.3903569260       10.3228131478       29.5997796900
  C       -13.6461296503        1.9987705957       31.3275036537
  C         1.2288536764       10.6992563226        2.2136166789
  C       -10.7256355476       10.3956083624       28.2687682436
  C        -9.4744165495        0.2663047705       28.0462504422
  C        -8.9780813063        0.4169224493       26.7492880331
  C        -9.6621314260       -0.1245762846       25.6472484350
  C       -10.9018384322        9.9804175971       25.8814030964
  C       -11.4175700435        9.8514387153       27.1678164912
  C        -9.1786568987        0.1094149558       24.2510762521
  C        -8.5505951847        9.9452124517       23.5582303210
  C        -6.7946320433        0.0301383513       21.9419492275
  C        -8.0506157691       10.1604371432       22.1648551037
  C        -8.7228794081        9.6127766993       21.0581523884
  C        -8.2019473719        9.7300965753       19.7676365239
  C        -6.9668264084       10.3650810410       19.5625696932
  C        -6.2480328948        0.1238865339       20.6649361401
  C         0.6605008166       -0.0026177520        3.5772012963
  C         1.1351974684       10.0518140004        4.6562251912
  C         0.4700506158       10.0582015645        5.8812287421
  C        -0.6481206223        0.0528737240        6.1073767181
  C        -1.1336775943        0.7974437290        5.0081572242
  C        -0.5097798638        0.7511877390        3.7666282545
  C        -1.3438414745        0.0902410255        7.4251224257
  C        -0.6739606902        0.1235937152        8.6167445701
  C        -0.9172286570        0.9846776777       10.9746239429
  C        -1.3722749096        0.1445575122        9.9324565158
  C        -2.5161055863       10.1091855485       10.2143900811
  C        -3.1618414901       10.1352752785       11.4475723149
  C        -2.6502303055        0.1787163103       12.4690627784
  C        -1.5280109450        0.9863834886       12.2213996193
  C        -3.8610983393        6.4693406886       16.6398025607
  C        -4.9089377189        5.8487364221       17.3960058486
  C        -2.8069874769        5.7193479736       16.1380858459
  C        -5.9254048480        6.5423501318       18.1197310138
  C        -6.8972570611        5.8423266489       18.8033774668
  C        -3.8430529830        3.6815590858       16.8619967769
  C        -2.7653641180        4.3238778960       16.2862633134
  C        -4.9195539465        4.4082793135       17.4390975774
  C        -5.9781263839        3.7289391283       18.0942972016
  C        -6.9391166791        4.4358628960       18.7634440958
  C       -13.7021576038        6.2885647600       31.2123030533
  C       -12.6021269023        5.6179355777       30.5858387402
  C       -14.7302939637        5.5781271906       31.8075553195
  C       -11.5692603193        6.3135474327       29.8933121811
  C       -10.6092550021        5.6086044849       29.2097455335
  C       -13.6533827956        3.4876440886       31.2442307452
  C       -14.7092063189        4.1718964644       31.8200939300
  C       -12.5816172917        4.1791562835       30.6007051522
  C       -11.5390370338        3.4916658491       29.9142751069
  C       -10.6022176043        4.2032539401       29.2087081801
  C        -9.5377457574        1.4647525416       23.6954997247
  C        -8.1912768285        8.5936051291       24.1237513786
  C        -2.8335676555        0.1737536606        7.3768215199
  C         0.8142277943        0.2171752118        8.6784001393
  O        -2.9825902195        8.6933869712       16.7038301931
  O        -5.3604107932        8.4452283232       16.0262120700
  O        -6.9610803051       10.5318819923       17.1076945943
  O        -5.0056131309       -0.4226352284       18.1698275464
  O        -4.8608903332        1.7197816066       16.1052592319
  O        -2.9657059202        1.5459201707       17.3663223993
  O        -2.3921696861        0.4421051203       14.7740330522
  O        -4.4392790506       10.4931514236       14.0333420261
  O       -14.7920933549        8.3780932808       30.9255152068
  O       -12.6932280869        8.3119838554       31.8106996593
  O       -10.7055627165       10.3319327888       30.7369425097
  O       -12.6351995581       10.2559247097       29.6619014747
  O       -12.6342510748        1.4634705975       31.8780413877
  O       -14.6725916716        1.3967649979       30.8651335393
  O         0.4044949690       -0.0076191371        1.2616046340
  O         2.4859109202       10.5448074371        2.0681059163
  F        -7.8722815631        6.4734950992       19.5011491500
  F        -7.9552912671        3.7781056096       19.3639266533
  F        -9.6119754463        6.2286359254       28.5385928846
  F        -9.6033942876        3.5876851046       28.5339939590
  O        -5.4162743465        7.9401469633       14.6197433762
  C        -4.0459750399        7.7416271809       14.5660877074
  O        -3.4312950174        7.4458905041       13.5862551728
     123
 i =      169, E =      -996.1986310778
 Zn        -2.5179471386       10.5738235662       16.6388761358
 Zn        -5.2849730617       10.5893247581       15.8556285438
 Zn       -15.1502757960       10.2844756491       31.2307621038
 Zn         3.1780609011       10.5995347138        0.1278864342
  H        -8.9309134484        0.7319042738       28.8672116255
  H        -8.0481987998        0.9683181981       26.5975881248
  H       -11.4463297702        9.5602194441       25.0342338588
  H       -12.3616021055        9.3367277037       27.3369030411
  H        -6.2543092170        0.4598512547       22.7925737517
  H        -9.6549136918        9.0719911321       21.2063000396
  H        -8.7363506647        9.2649971935       18.9425996447
  H        -5.2907107689        0.6271783402       20.5043716465
  H         2.0231457592        9.4344026382        4.5143066800
  H         0.8383001869        9.4151785640        6.6761538695
  H        -2.0082916654        1.4363380833        5.1207047418
  H        -0.9244784425        1.3093019183        2.9269635516
  H        -0.0702696558        1.6514624603       10.8068214640
  H        -2.8629316590        9.4073947237        9.4585352670
  H        -4.0002779462        9.4727227580       11.6483070052
  H        -1.1375505964        1.6169599843       13.0187466128
  H        -5.9380344017        7.6252155153       18.1647586055
  H        -6.0391459103        2.6415258038       18.0876410007
  H        -1.9376357947        3.7472076218       15.8739911108
  H        -2.0263543129        6.2147922904       15.5608319388
  H       -11.5268909487        7.4004698281       29.8933198317
  H       -11.4829062749        2.4065856343       29.9238305529
  H         0.0569852632        3.9408041345        0.3569328471
  H         0.0181897655        6.4414865263        0.3360542696
  H        -9.1756980886        1.6055099829       22.6687217555
  H        -9.1305685183        2.2670856314       24.3264108094
  H       -10.6322368867        1.5983376222       23.6994613399
  H        -7.0882528008        8.4691815283       24.1333046939
  H        -8.5808582950        7.7872664062       23.4950821855
  H        -8.5549710399        8.4609313404       25.1480655886
  H        -3.3486856630        9.9842608521        7.5138772349
  H         3.1712183655        0.5484046637        6.4133759997
  H        -3.2129392772        0.8264163925        8.1696282502
  H         1.2669887565       10.0230998361        8.5914132580
  H         1.1728331612        0.6367204920        9.6243955671
  H         1.1997154615        0.8339314300        7.8560867311
  C        -3.8332168877        7.8972905619       16.1140270245
  C        -6.2860772622       10.4222053751       18.2437053737
  C        -3.8949760985        2.1957763309       16.7901481368
  C        -3.2363086070       10.9026004429       13.8414888541
  C       -13.7313717442        7.7777023240       31.3136944889
  C       -11.3902871780       10.3216085522       29.5994998316
  C       -13.6478991073        1.9989334829       31.3306401862
  C         1.2294873633       10.7001372404        2.2131996658
  C       -10.7251187939       10.3960012777       28.2687669681
  C        -9.4734333074        0.2663828088       28.0468230236
  C        -8.9752118183        0.4135978380       26.7501904190
  C        -9.6621168299       -0.1207734755       25.6477312752
  C       -10.9015080243        9.9820135863       25.8810372238
  C       -11.4184199606        9.8551585760       27.1671798531
  C        -9.1784182196        0.1080098779       24.2507281196
  C        -8.5437193997        9.9485990751       23.5592424623
  C        -6.7925102240        0.0361788259       21.9426009491
  C        -8.0461720793       10.1600981868       22.1643704526
  C        -8.7217645698        9.6169664365       21.0582451280
  C        -8.2003892855        9.7357440455       19.7680542056
  C        -6.9639012028       10.3666053592       19.5629873357
  C        -6.2459422085        0.1274502010       20.6654178234
  C         0.6591456772       -0.0055750560        3.5760298058
  C         1.1340221980       10.0494379876        4.6556889850
  C         0.4677163461       10.0562385922        5.8800327266
  C        -0.6475538582        0.0543887977        6.1063653622
  C        -1.1324396274        0.7991523763        5.0069280192
  C        -0.5078516245        0.7523594863        3.7659002271
  C        -1.3436101039        0.0920941863        7.4235461109
  C        -0.6737853931        0.1247626180        8.6151908909
  C        -0.9139121794        0.9830894617       10.9729337820
  C        -1.3730523674        0.1463088329        9.9301601603
  C        -2.5160050323       10.1104868044       10.2123803599
  C        -3.1617075935       10.1383859747       11.4458115997
  C        -2.6475555933        0.1794743941       12.4679365563
  C        -1.5247543857        0.9858884807       12.2196270789
  C        -3.8623753004        6.4677349406       16.6366975242
  C        -4.9104176811        5.8470226400       17.3928962271
  C        -2.8082965467        5.7178038717       16.1350542205
  C        -5.9283190027        6.5398408090       18.1147334103
  C        -6.8967151281        5.8378623209       18.8013714829
  C        -3.8423493256        3.6800684632       16.8609948281
  C        -2.7678603203        4.3228094003       16.2809796984
  C        -4.9206965219        4.4065105029       17.4363016241
  C        -5.9769348772        3.7267524659       18.0968424464
  C        -6.9408328863        4.4312577116       18.7648908764
  C       -13.7023268808        6.2887103047       31.2131295434
  C       -12.6036279540        5.6184081028       30.5844824405
  C       -14.7301040274        5.5775715776       31.8078878456
  C       -11.5699102129        6.3143959735       29.8933478686
  C       -10.6102483752        5.6107508337       29.2080509898
  C       -13.6530387453        3.4875033516       31.2422561073
  C       -14.7074982076        4.1712947975       31.8214039724
  C       -12.5819086660        4.1796102736       30.5991880327
  C       -11.5409932345        3.4919622223       29.9108864600
  C       -10.6024368579        4.2056021335       29.2107887286
  C        -9.5377800715        1.4626703805       23.6940294008
  C        -8.1835783597        8.5976392461       24.1256036282
  C        -2.8331079091        0.1783567375        7.3738902639
  C         0.8141906503        0.2205620952        8.6767752382
  O        -2.9837536110        8.6921516598       16.6997788795
  O        -5.3595769981        8.4481811535       16.0285314171
  O        -6.9603520613       10.5311181636       17.1082717411
  O        -5.0040253738       -0.4158428829       18.1683958000
  O        -4.8623953294        1.7208072683       16.1063712994
  O        -2.9648962335        1.5449287284       17.3647551880
  O        -2.3907289301        0.4440135206       14.7749493248
  O        -4.4367166403       10.4933596847       14.0295967570
  O       -14.7920637694        8.3779700996       30.9257344178
  O       -12.6937779923        8.3118309977       31.8127399619
  O       -10.7054388447       10.3327196334       30.7365634225
  O       -12.6352655100       10.2568385396       29.6622156847
  O       -12.6337334532        1.4633424941       31.8765165992
  O       -14.6718523584        1.3963023935       30.8632817136
  O         0.4044394906       -0.0089973357        1.2616862016
  O         2.4862396230       10.5431149446        2.0678595420
  F        -7.8727054147        6.4718694520       19.4948992045
  F        -7.9624402922        3.7789396323       19.3636343957
  F        -9.6138134180        6.2314505851       28.5365198056
  F        -9.6038800065        3.5919829636       28.5359479307
  O        -5.4240072377        7.9460221054       14.6228686209
  C        -4.0516057367        7.7419491215       14.5638696687
  O        -3.4361686329        7.4415440615       13.5826891015
     123
 i =      170, E =      -996.1987259459
 Zn        -2.5185271674       10.5744184231       16.6386906759
 Zn        -5.2890495884       10.5891779910       15.8549101437
 Zn       -15.1504778176       10.2838671203       31.2302726496
 Zn         3.1778148207       10.5990267509        0.1286701589
  H        -8.9307669026        0.7319208069       28.8670545271
  H        -8.0488566350        0.9676474202       26.5969976890
  H       -11.4462940038        9.5588353898       25.0347656421
  H       -12.3617729360        9.3362430259       27.3373125111
  H        -6.2543528228        0.4574975754       22.7931896707
  H        -9.6565713721        9.0728467081       21.2048266078
  H        -8.7365289169        9.2648130070       18.9414580862
  H        -5.2910405740        0.6240858785       20.5047792068
  H         2.0247540083        9.4356967221        4.5139565304
  H         0.8394722647        9.4151318801        6.6757297649
  H        -2.0092590268        1.4335979094        5.1209940304
  H        -0.9256002127        1.3084932644        2.9271979650
  H        -0.0721562546        1.6527841935       10.8074404820
  H        -2.8601446160        9.4058736635        9.4577866587
  H        -4.0015950427        9.4705980484       11.6451306309
  H        -1.1417488834        1.6177776869       13.0182528354
  H        -5.9386391902        7.6241799711       18.1642709774
  H        -6.0373009832        2.6408429715       18.0887166121
  H        -1.9394546316        3.7451387943       15.8704561626
  H        -2.0232019224        6.2143096666       15.5629525841
  H       -11.5264606161        7.4017464875       29.8935896600
  H       -11.4827747000        2.4073991160       29.9210894788
  H         0.0579182687        3.9415982599        0.3556451065
  H         0.0188838797        6.4426493176        0.3352856542
  H        -9.1743142033        1.6053588390       22.6691328811
  H        -9.1289221260        2.2664859056       24.3269768446
  H       -10.6311494223        1.5990175903       23.6994661614
  H        -7.0913371720        8.4664079726       24.1328871991
  H        -8.5842166446        7.7862590126       23.4937701361
  H        -8.5585125345        8.4594813534       25.1471579385
  H        -3.3477501514        9.9818701471        7.5143094851
  H         3.1716537125        0.5474967989        6.4152822869
  H        -3.2118884709        0.8243738406        8.1714102144
  H         1.2685240850       10.0221558428        8.5916071202
  H         1.1744236201        0.6356484398        9.6242216803
  H         1.2010491616        0.8304980277        7.8552202366
  C        -3.8299392702        7.8966418766       16.1129161611
  C        -6.2854976060       10.4224044793       18.2437060328
  C        -3.8952207474        2.1956827002       16.7898024179
  C        -3.2366260035       10.9039044935       13.8400775615
  C       -13.7302327056        7.7780931271       31.3120833559
  C       -11.3900804462       10.3214551222       29.5991574139
  C       -13.6473385418        1.9988772242       31.3298846480
  C         1.2286429090       10.6982616207        2.2130668444
  C       -10.7249490613       10.3962863414       28.2683992141
  C        -9.4733476955        0.2665548038       28.0466445909
  C        -8.9758565418        0.4129725365       26.7495486818
  C        -9.6623659019       -0.1215791472       25.6468189114
  C       -10.9015251032        9.9815557272       25.8812829000
  C       -11.4185354179        9.8542438649       27.1673384425
  C        -9.1784069344        0.1073970213       24.2498685197
  C        -8.5457292617        9.9465584863       23.5578755195
  C        -6.7925221861        0.0337693299       21.9430276946
  C        -8.0470210828       10.1594651374       22.1636312036
  C        -8.7224957687        9.6162015790       21.0570733370
  C        -8.1999131921        9.7342230388       19.7670904902
  C        -6.9640251666       10.3673312520       19.5624223437
  C        -6.2460987568        0.1245437129       20.6661188986
  C         0.6605753542       -0.0034744457        3.5765404929
  C         1.1341115056       10.0488525052        4.6545761648
  C         0.4689139855       10.0559517905        5.8794293268
  C        -0.6473082865        0.0524368056        6.1065418488
  C        -1.1325477702        0.7974247943        5.0074693937
  C        -0.5098742053        0.7502629062        3.7654586069
  C        -1.3434980382        0.0906654856        7.4234028495
  C        -0.6733793786        0.1247368816        8.6148279561
  C        -0.9161963823        0.9844524280       10.9724691061
  C        -1.3709949742        0.1444922026        9.9307677739
  C        -2.5152275553       10.1099189096       10.2114964494
  C        -3.1637918301       10.1373413097       11.4435828190
  C        -2.6490078282        0.1780159734       12.4655409909
  C        -1.5279397741        0.9869243697       12.2185932673
  C        -3.8598670150        6.4670942659       16.6367610581
  C        -4.9099275370        5.8469490437       17.3907831050
  C        -2.8056345855        5.7161071816       16.1367336603
  C        -5.9258183761        6.5394067031       18.1162981783
  C        -6.8960190393        5.8365257830       18.7996638062
  C        -3.8421300582        3.6790821437       16.8603163045
  C        -2.7688351232        4.3213973655       16.2787265314
  C        -4.9195170808        4.4067402261       17.4361065314
  C        -5.9752015984        3.7262309131       18.0977834935
  C        -6.9395244667        4.4298446868       18.7661019875
  C       -13.7019480801        6.2890508341       31.2123647809
  C       -12.6032607458        5.6193449433       30.5842392299
  C       -14.7301836600        5.5783022414       31.8063965772
  C       -11.5702423649        6.3160020686       29.8927359158
  C       -10.6105747208        5.6139869561       29.2069516805
  C       -13.6524575850        3.4875362113       31.2412330266
  C       -14.7065075187        4.1720314622       31.8204152763
  C       -12.5831986459        4.1802662451       30.5961370605
  C       -11.5414326208        3.4930792413       29.9091713650
  C       -10.6029240472        4.2091018945       29.2115615266
  C        -9.5368152250        1.4626669285       23.6942431510
  C        -8.1863834096        8.5960029483       24.1249325369
  C        -2.8329240407        0.1761433464        7.3748461749
  C         0.8145748379        0.2191584367        8.6768608981
  O        -2.9840066311        8.6933205796       16.7035419321
  O        -5.3578298698        8.4485198797       16.0274561024
  O        -6.9620714679       10.5323996843       17.1093185800
  O        -5.0030474997       -0.4104622436       18.1694463369
  O        -4.8644316205        1.7206676365       16.1091622267
  O        -2.9637542458        1.5458623725       17.3641375047
  O        -2.3921108032        0.4436958805       14.7750262497
  O        -4.4361130899       10.4892301007       14.0295026661
  O       -14.7918659643        8.3773881344       30.9251376004
  O       -12.6933759404        8.3116806979       31.8133354353
  O       -10.7057036516       10.3328743882       30.7364328910
  O       -12.6350522184       10.2570773375       29.6621839786
  O       -12.6338314463        1.4627434272       31.8765086029
  O       -14.6715834745        1.3958911907       30.8636627388
  O         0.4043837950       -0.0075670752        1.2610652958
  O         2.4859117983       10.5442074451        2.0684297304
  F        -7.8732157894        6.4743838782       19.4879909662
  F        -7.9579191971        3.7732283806       19.3657074300
  F        -9.6126401452        6.2346696269       28.5376553135
  F        -9.6025532511        3.6014018680       28.5371304131
  O        -5.4215105957        7.9463147799       14.6220067467
  C        -4.0469734636        7.7403091076       14.5643488883
  O        -3.4221290102        7.4406160400       13.5848117959
     123
 i =      171, E =      -996.1988002339
 Zn        -2.5176482691       10.5728970801       16.6400319125
 Zn        -5.2887997879       10.5887484396       15.8514884797
 Zn       -15.1502004403       10.2840694666       31.2301381018
 Zn         3.1779178768       10.5989960128        0.1284323090
  H        -8.9298157123        0.7307199565       28.8671844566
  H        -8.0476611143        0.9665410095       26.5975251815
  H       -11.4471115354        9.5618997987       25.0342310678
  H       -12.3627214996        9.3389919500       27.3366416152
  H        -6.2549167161        0.4632483335       22.7923104657
  H        -9.6552690897        9.0767665468       21.2049221974
  H        -8.7360124804        9.2680166561       18.9415797858
  H        -5.2898910388        0.6277236377       20.5045010187
  H         2.0224733313        9.4313101455        4.5133642159
  H         0.8372324707        9.4140168532        6.6755428396
  H        -2.0073594332        1.4356218197        5.1195450796
  H        -0.9241780147        1.3077485939        2.9255795218
  H        -0.0688840148        1.6506371995       10.8056048261
  H        -2.8599619597        9.4070284770        9.4573396501
  H        -4.0019673373        9.4741821323       11.6438276002
  H        -1.1356432196        1.6159502583       13.0175575794
  H        -5.9432256751        7.6219909979       18.1566546508
  H        -6.0345154643        2.6383224314       18.0935101590
  H        -1.9422099148        3.7421996271       15.8644769508
  H        -2.0249446205        6.2113957750       15.5587927737
  H       -11.5277584983        7.4035265105       29.8923450998
  H       -11.4823993766        2.4089945628       29.9179392930
  H         0.0608013927        3.9414958488        0.3586402875
  H         0.0209922979        6.4426292494        0.3372501728
  H        -9.1734247092        1.6022853733       22.6669315868
  H        -9.1290224810        2.2661135837       24.3241186564
  H       -10.6313685345        1.5970193957       23.6968908396
  H        -7.0856095822        8.4690023734       24.1335417249
  H        -8.5789584080        7.7868951003       23.4958753151
  H        -8.5526009459        8.4617946566       25.1491550979
  H        -3.3494953600        9.9869659006        7.5146988085
  H         3.1729917550        0.5495433766        6.4118178524
  H        -3.2109925278        0.8305105440        8.1676678631
  H         1.2701301054       10.0250600193        8.5889196739
  H         1.1734255855        0.6359542957        9.6247043806
  H         1.2013348247        0.8351817370        7.8559037369
  C        -3.8307468807        7.8954234201       16.1097421506
  C        -6.2849017627       10.4215567942       18.2432110996
  C        -3.8941650095        2.1949873479       16.7878324725
  C        -3.2342667312       10.9026849831       13.8393800757
  C       -13.7303267766        7.7782398262       31.3121228066
  C       -11.3898927342       10.3224830341       29.5993498410
  C       -13.6462547974        1.9989805748       31.3281357917
  C         1.2288936238       10.6983334852        2.2126934656
  C       -10.7248374513       10.3966646294       28.2684961692
  C        -9.4725293784        0.2653525671       28.0466142000
  C        -8.9753888575        0.4134752648       26.7495042369
  C        -9.6611536415       -0.1227122476       25.6464885881
  C       -10.9018199837        9.9836184384       25.8809128079
  C       -11.4188406373        9.8561673019       27.1669683086
  C        -9.1760082548        0.1084318306       24.2502224571
  C        -8.5444362758        9.9457219416       23.5585787731
  C        -6.7903745082        0.0351218777       21.9423773230
  C        -8.0453668401       10.1640543856       22.1651826535
  C        -8.7199519092        9.6185170834       21.0583578980
  C        -8.1990958472        9.7362190174       19.7676788553
  C        -6.9635943439       10.3704854643       19.5622724681
  C        -6.2449678965        0.1280445556       20.6652130116
  C         0.6602640651       -0.0063525732        3.5759413450
  C         1.1329963356       10.0460390779        4.6544361818
  C         0.4674844231       10.0550392726        5.8790838721
  C        -0.6476241338        0.0532729490        6.1054598302
  C        -1.1318010924        0.7979898197        5.0057317707
  C        -0.5083029036        0.7500125156        3.7642606822
  C        -1.3435181456        0.0929337321        7.4223003185
  C        -0.6724460826        0.1239599192        8.6133484897
  C        -0.9129700526        0.9828621166       10.9716009868
  C        -1.3711298093        0.1464480042        9.9285583896
  C        -2.5138989195       10.1108610819       10.2109937634
  C        -3.1630189907       10.1395456493       11.4426399529
  C        -2.6463537271        0.1790771612       12.4649775405
  C        -1.5244389360        0.9864464893       12.2180359279
  C        -3.8619542343        6.4649332758       16.6322038848
  C        -4.9108694028        5.8449653968       17.3894825789
  C        -2.8075791152        5.7140424334       16.1323384358
  C        -5.9291155076        6.5371448179       18.1115671874
  C        -6.8976655875        5.8351036012       18.7980052693
  C        -3.8417515086        3.6779636792       16.8606994996
  C        -2.7701202571        4.3192118518       16.2746276688
  C        -4.9207240318        4.4047633020       17.4344049578
  C        -5.9742309675        3.7238624091       18.0995165477
  C        -6.9385753817        4.4285511562       18.7671295220
  C       -13.7013855963        6.2893119585       31.2116406944
  C       -12.6036265242        5.6201969141       30.5816562404
  C       -14.7288155326        5.5786175035       31.8069607109
  C       -11.5703571082        6.3174881384       29.8911803899
  C       -10.6109203608        5.6137584068       29.2069992107
  C       -13.6524483467        3.4878622055       31.2398724404
  C       -14.7053529932        4.1724334907       31.8211356672
  C       -12.5834092750        4.1809261951       30.5945483904
  C       -11.5409524396        3.4946125816       29.9073763242
  C       -10.6015743690        4.2088886167       29.2089616118
  C        -9.5369905193        1.4616405006       23.6920611950
  C        -8.1807985146        8.5970329392       24.1265572790
  C        -2.8328305005        0.1801813403        7.3727536262
  C         0.8152342235        0.2215901209        8.6755461525
  O        -2.9838198930        8.6903600171       16.7000016806
  O        -5.3557614836        8.4510261363       16.0266701590
  O        -6.9612934025       10.5323675314       17.1090574361
  O        -5.0021056245       -0.4126723225       18.1688056762
  O        -4.8623477728        1.7186745495       16.1075140972
  O        -2.9641475416        1.5435409001       17.3631305196
  O        -2.3912671120        0.4441734033       14.7748202065
  O        -4.4341131361       10.4919076020       14.0284301451
  O       -14.7916920479        8.3776632144       30.9246219839
  O       -12.6932872965        8.3115331434       31.8132487863
  O       -10.7055065213       10.3324456796       30.7366067412
  O       -12.6348377271       10.2565426978       29.6616027528
  O       -12.6335017417        1.4629464645       31.8763572809
  O       -14.6716435980        1.3962933239       30.8640035491
  O         0.4043932806       -0.0085928307        1.2607905248
  O         2.4860372159       10.5434119939        2.0682304951
  F        -7.8727953920        6.4720827490       19.4918621226
  F        -7.9608185332        3.7764297739       19.3644238435
  F        -9.6132755282        6.2321647089       28.5359448319
  F        -9.5996409493        3.6020056283       28.5357323865
  O        -5.4230500622        7.9472240738       14.6214988742
  C        -4.0492657046        7.7388865299       14.5617165469
  O        -3.4287383924        7.4354122186       13.5805745750
     123
 i =      172, E =      -996.1988359392
 Zn        -2.5173918187       10.5727920257       16.6391514189
 Zn        -5.2867100474       10.5886041159       15.8541751350
 Zn       -15.1500324821       10.2846259820       31.2302967013
 Zn         3.1779426358       10.5994039198        0.1285061891
  H        -8.9308990162        0.7323835567       28.8663455829
  H        -8.0492623410        0.9682612486       26.5960790352
  H       -11.4467884177        9.5578462967       25.0345453255
  H       -12.3615644780        9.3356490447       27.3374699898
  H        -6.2559906438        0.4580550141       22.7928903740
  H        -9.6574946143        9.0733229064       21.2033176929
  H        -8.7365206406        9.2640734548       18.9403108627
  H        -5.2905347996        0.6236475890       20.5053226390
  H         2.0250732655        9.4348675223        4.5131507574
  H         0.8403540603        9.4144574010        6.6753115110
  H        -2.0104292333        1.4311353860        5.1198039868
  H        -0.9270093379        1.3052837004        2.9259081364
  H        -0.0715164148        1.6530035551       10.8061985192
  H        -2.8576930626        9.4042416785        9.4581665050
  H        -4.0019346768        9.4726147836       11.6435595201
  H        -1.1415893099        1.6191248357       13.0170453565
  H        -5.9389448974        7.6225691484       18.1601486653
  H        -6.0341244782        2.6388285970       18.0935802852
  H        -1.9414418270        3.7396288317       15.8666325049
  H        -2.0213187120        6.2086153283       15.5611361025
  H       -11.5282179059        7.4041176080       29.8917311713
  H       -11.4809233062        2.4097232997       29.9175208297
  H         0.0605355192        3.9416961564        0.3569818293
  H         0.0211256706        6.4429150120        0.3350557525
  H        -9.1716621946        1.6038767125       22.6685728400
  H        -9.1268125642        2.2654114071       24.3262980500
  H       -10.6295094894        1.5994010137       23.6976783906
  H        -7.0930005614        8.4638972223       24.1328675949
  H        -8.5864778315        7.7846151505       23.4927640941
  H        -8.5607025386        8.4579179018       25.1464032560
  H        -3.3475540949        9.9830716479        7.5165971125
  H         3.1720562961        0.5462197221        6.4141493830
  H        -3.2103921320        0.8253870425        8.1706864443
  H         1.2696895027       10.0211729820        8.5897989357
  H         1.1751677640        0.6338776138        9.6240970362
  H         1.2021190321        0.8313513461        7.8551749987
  C        -3.8283271615        7.8940470384       16.1105538445
  C        -6.2862921827       10.4196437639       18.2434165116
  C        -3.8952545134        2.1950115565       16.7893743243
  C        -3.2363357200       10.9027977920       13.8402142847
  C       -13.7307445546        7.7785724599       31.3128935706
  C       -11.3900534549       10.3228649049       29.5995698290
  C       -13.6466479637        1.9994052778       31.3289121653
  C         1.2289656947       10.6986008188        2.2127740212
  C       -10.7248589015       10.3949905909       28.2686274522
  C        -9.4738846281        0.2669239409       28.0461323999
  C        -8.9759366788        0.4129118112       26.7491907067
  C        -9.6628494133       -0.1212934503       25.6467593811
  C       -10.9015058063        9.9798916091       25.8808553469
  C       -11.4186436477        9.8548360386       27.1671560861
  C        -9.1784662431        0.1063287407       24.2497054417
  C        -8.5463563726        9.9451941662       23.5577210693
  C        -6.7922485203        0.0320780522       21.9426504452
  C        -8.0475786646       10.1601622527       22.1637124706
  C        -8.7221365371        9.6150146571       21.0569491504
  C        -8.2010859322        9.7346369434       19.7666138156
  C        -6.9645953833       10.3666478335       19.5625865808
  C        -6.2462717012        0.1250620314       20.6656214175
  C         0.6598785055       -0.0061559381        3.5758016703
  C         1.1345477390       10.0480214973        4.6547158081
  C         0.4691366409       10.0553409842        5.8794657760
  C        -0.6475155224        0.0516033177        6.1057529659
  C        -1.1335403864        0.7952830737        5.0059861018
  C        -0.5094509043        0.7487550946        3.7647089007
  C        -1.3423050256        0.0901092449        7.4234369983
  C        -0.6716232563        0.1226890274        8.6146246885
  C        -0.9145857978        0.9837865632       10.9719696439
  C        -1.3709470485        0.1452096831        9.9296427414
  C        -2.5133969378       10.1089436185       10.2117991022
  C        -3.1627369574       10.1380152887       11.4433312156
  C        -2.6485898137        0.1790131288       12.4657518678
  C        -1.5276590073        0.9875425446       12.2177353767
  C        -3.8597209395        6.4638440877       16.6347677929
  C        -4.9099399088        5.8443288306       17.3905477604
  C        -2.8060743787        5.7130969412       16.1327114494
  C        -5.9274522976        6.5374851825       18.1131206586
  C        -6.8970270480        5.8360862142       18.7990273478
  C        -3.8422305997        3.6778651445       16.8600240145
  C        -2.7682785028        4.3179671952       16.2766297264
  C        -4.9196887179        4.4042386696       17.4362643188
  C        -5.9746474096        3.7242189761       18.0995794387
  C        -6.9386135225        4.4294501682       18.7672546841
  C       -13.7012027633        6.2898877108       31.2099948753
  C       -12.6033978421        5.6207423735       30.5804640195
  C       -14.7280420186        5.5788848029       31.8060452531
  C       -11.5696029574        6.3178616976       29.8907331224
  C       -10.6101719767        5.6142312113       29.2064052471
  C       -13.6523380546        3.4883163955       31.2386475229
  C       -14.7056015939        4.1727436509       31.8195383121
  C       -12.5822915872        4.1814508079       30.5950730424
  C       -11.5402392956        3.4952448525       29.9071524091
  C       -10.6009775316        4.2091340643       29.2080803721
  C        -9.5352574745        1.4618272550       23.6935115126
  C        -8.1881458435        8.5939073615       24.1242318329
  C        -2.8317296590        0.1770521369        7.3748839657
  C         0.8162524801        0.2184398932        8.6758252348
  O        -2.9820660101        8.6900559306       16.6988023564
  O        -5.3546058519        8.4489991170       16.0232520615
  O        -6.9605148896       10.5314071600       17.1082186506
  O        -5.0035453061       -0.4136487612       18.1675038196
  O        -4.8620196335        1.7185662399       16.1068847931
  O        -2.9645697175        1.5433449038       17.3629927570
  O        -2.3912949484        0.4447452974       14.7735941354
  O        -4.4364102634       10.4929136787       14.0298819387
  O       -14.7914586699        8.3783483518       30.9241159568
  O       -12.6929294692        8.3119475489       31.8122353738
  O       -10.7053427350       10.3322847731       30.7366631452
  O       -12.6349614501       10.2563602601       29.6617957845
  O       -12.6330669591        1.4634888863       31.8757494302
  O       -14.6713880098        1.3967170418       30.8631406073
  O         0.4043803340       -0.0085599039        1.2609875670
  O         2.4860827441       10.5437237253        2.0680140543
  F        -7.8723189651        6.4719088364       19.4945355969
  F        -7.9616525082        3.7776548271       19.3637204328
  F        -9.6123841731        6.2339531213       28.5369395675
  F        -9.6004263421        3.5992643457       28.5353953487
  O        -5.4162760452        7.9444032648       14.6175743384
  C        -4.0431083376        7.7386191352       14.5621629423
  O        -3.4197828456        7.4362781053       13.5840386036
     123
 i =      173, E =      -996.1988596337
 Zn        -2.5168237319       10.5716507857       16.6395871208
 Zn        -5.2837553265       10.5876400868       15.8528046179
 Zn       -15.1499121291       10.2849778568       31.2302126739
 Zn         3.1780682485       10.5999448784        0.1281400249
  H        -8.9297550892        0.7314271485       28.8665282144
  H        -8.0476671038        0.9670509345       26.5965101919
  H       -11.4473815970        9.5605417902       25.0339104985
  H       -12.3626528347        9.3387368555       27.3365882029
  H        -6.2553417459        0.4629016021       22.7919839916
  H        -9.6569395621        9.0768390886       21.2036697653
  H        -8.7355872671        9.2667000082       18.9406528816
  H        -5.2895321879        0.6268313512       20.5047317944
  H         2.0228464148        9.4306893246        4.5129095613
  H         0.8382128105        9.4132018118        6.6754398690
  H        -2.0089869639        1.4331289058        5.1181711420
  H        -0.9253368887        1.3045471142        2.9243515665
  H        -0.0675808670        1.6512865029       10.8045309634
  H        -2.8571633244        9.4055555880        9.4569673244
  H        -4.0020506996        9.4769588073       11.6421304619
  H        -1.1361383583        1.6178192957       13.0161414402
  H        -5.9430536754        7.6201127824       18.1527305549
  H        -6.0325988582        2.6364891826       18.0982158166
  H        -1.9450947685        3.7372131637       15.8604787278
  H        -2.0242953064        6.2058277013       15.5557697290
  H       -11.5296075856        7.4049860683       29.8903769397
  H       -11.4810849498        2.4105569953       29.9149389124
  H         0.0629561768        3.9417716515        0.3597240771
  H         0.0226153040        6.4429258025        0.3377108900
  H        -9.1708426709        1.6010468626       22.6665064154
  H        -9.1269438746        2.2651902601       24.3232788902
  H       -10.6291777499        1.5974610315       23.6949584338
  H        -7.0880847979        8.4663931689       24.1335498550
  H        -8.5811646938        7.7849861778       23.4951967149
  H        -8.5549786506        8.4602427035       25.1478475822
  H        -3.3491190677        9.9881113434        7.5174377304
  H         3.1734895178        0.5479024938        6.4112923297
  H        -3.2096823661        0.8318402846        8.1672471616
  H         1.2719451657       10.0237465701        8.5859460725
  H         1.1749699639        0.6336945006        9.6235441909
  H         1.2023552542        0.8357324726        7.8551190074
  C        -3.8286093312        7.8925992987       16.1087395533
  C        -6.2853327280       10.4210169437       18.2425189970
  C        -3.8951897553        2.1931013492       16.7894405809
  C        -3.2345270919       10.9041855091       13.8395347835
  C       -13.7307217218        7.7789919639       31.3126007811
  C       -11.3899768074       10.3219696552       29.5994092881
  C       -13.6461623102        1.9997518104       31.3277551465
  C         1.2291741762       10.6965440299        2.2125088896
  C       -10.7249302298       10.3968230133       28.2684738249
  C        -9.4726765772        0.2658159504       28.0461429410
  C        -8.9749929624        0.4130721093       26.7492091914
  C        -9.6617963828       -0.1222574128       25.6466182112
  C       -10.9019127638        9.9824838563       25.8805633577
  C       -11.4186155521        9.8556322984       27.1668979167
  C        -9.1771650722        0.1064177348       24.2497608291
  C        -8.5430327469        9.9462995483       23.5583424658
  C        -6.7911679344        0.0358325360       21.9423039145
  C        -8.0451083931       10.1605910783       22.1637598228
  C        -8.7209654065        9.6176679660       21.0570244810
  C        -8.2000063433        9.7377907099       19.7666990447
  C        -6.9631415707       10.3681410805       19.5621329808
  C        -6.2452282285        0.1280188503       20.6650945213
  C         0.6598562131       -0.0077185952        3.5752130519
  C         1.1332941774       10.0454170631        4.6540056707
  C         0.4682104278       10.0539323825        5.8788857524
  C        -0.6474085176        0.0518083147        6.1044750088
  C        -1.1327940626        0.7961022749        5.0049666831
  C        -0.5090565232        0.7479453765        3.7636667832
  C        -1.3419224158        0.0913663212        7.4220449397
  C        -0.6710122915        0.1236326013        8.6130760308
  C        -0.9121180262        0.9838636502       10.9704968877
  C        -1.3690955923        0.1451487334        9.9285476385
  C        -2.5133948787       10.1111800972       10.2099452542
  C        -3.1609136384       10.1400631284       11.4424052641
  C        -2.6463533123        0.1803655903       12.4650890543
  C        -1.5234189524        0.9866345302       12.2170542463
  C        -3.8606405477        6.4616945522       16.6321162865
  C        -4.9112202967        5.8419541180       17.3876073228
  C        -2.8079655079        5.7104321849       16.1288633985
  C        -5.9296222845        6.5350131439       18.1087451866
  C        -6.8978027910        5.8347196140       18.7976957102
  C        -3.8430096038        3.6755208062       16.8595448966
  C        -2.7704840154        4.3154013636       16.2735622505
  C        -4.9193937151        4.4019629747       17.4376613014
  C        -5.9739648667        3.7220372581       18.1021997757
  C        -6.9399136956        4.4278734416       18.7662663106
  C       -13.7015504476        6.2904410823       31.2095622020
  C       -12.6042485513        5.6214523280       30.5793549456
  C       -14.7272818972        5.5790308130       31.8071694951
  C       -11.5703644492        6.3186164367       29.8894217053
  C       -10.6103040612        5.6160531336       29.2044588419
  C       -13.6516835761        3.4888749259       31.2382599592
  C       -14.7046133597        4.1729441282       31.8200821726
  C       -12.5828956231        4.1821455665       30.5929893176
  C       -11.5413583008        3.4958922430       29.9050343230
  C       -10.6016803549        4.2108458863       29.2082602031
  C        -9.5348800824        1.4605461011       23.6915087430
  C        -8.1833295475        8.5956203055       24.1252300505
  C        -2.8312150580        0.1807182817        7.3733509971
  C         0.8168188144        0.2200853348        8.6741095661
  O        -2.9813538769        8.6877464882       16.6977101720
  O        -5.3514944662        8.4499969177       16.0231435807
  O        -6.9596142447       10.5305110708       17.1071257496
  O        -5.0028505000       -0.4128972766       18.1672368254
  O        -4.8621238638        1.7173782479       16.1063479307
  O        -2.9646626128        1.5423573174       17.3644996477
  O        -2.3902331080        0.4445250700       14.7733739139
  O        -4.4349354894       10.4906086213       14.0279892113
  O       -14.7914330071        8.3788049406       30.9241347359
  O       -12.6933301709        8.3123764242       31.8128605418
  O       -10.7052337341       10.3328079746       30.7364559676
  O       -12.6349736665       10.2568985719       29.6618708998
  O       -12.6329934949        1.4641963602       31.8756527282
  O       -14.6715011946        1.3971546202       30.8631063733
  O         0.4047237011       -0.0085273436        1.2608007551
  O         2.4864871629       10.5439235221        2.0675843120
  F        -7.8735938612        6.4720786144       19.4916836679
  F        -7.9583971735        3.7748508887       19.3677818603
  F        -9.6103229707        6.2344257921       28.5368230322
  F        -9.6031704194        3.5973106475       28.5363801875
  O        -5.4192816389        7.9437512077       14.6171598184
  C        -4.0464269543        7.7372742316       14.5595285072
  O        -3.4280790130        7.4351461089       13.5786723269
     123
 i =      174, E =      -996.1989254822
 Zn        -2.5180069172       10.5713805111       16.6394459962
 Zn        -5.2859732687       10.5872005226       15.8522945824
 Zn       -15.1500450535       10.2847575005       31.2300461186
 Zn         3.1779961714       10.5999147278        0.1285394609
  H        -8.9293445251        0.7302299879       28.8662885416
  H        -8.0478705615        0.9653026048       26.5961272410
  H       -11.4479697824        9.5602189760       25.0343551710
  H       -12.3634196409        9.3389818980       27.3369587749
  H        -6.2545922930        0.4590149892       22.7922417297
  H        -9.6586989677        9.0789022540       21.2024801685
  H        -8.7364252720        9.2684275191       18.9400308478
  H        -5.2882624612        0.6229750160       20.5053184414
  H         2.0243093070        9.4312159830        4.5123002281
  H         0.8396476362        9.4129867326        6.6750247086
  H        -2.0094139852        1.4306350240        5.1180223112
  H        -0.9258275862        1.3032192643        2.9241893912
  H        -0.0697112011        1.6529392240       10.8035284712
  H        -2.8544528462        9.4026004618        9.4565166414
  H        -4.0021630774        9.4751906116       11.6401180383
  H        -1.1393533954        1.6194465739       13.0148007175
  H        -5.9432596286        7.6192656783       18.1507100999
  H        -6.0319483185        2.6359138406       18.0992398539
  H        -1.9463284242        3.7341758538       15.8582408960
  H        -2.0220500756        6.2035711574       15.5567394233
  H       -11.5298092935        7.4067102722       29.8888810809
  H       -11.4798022350        2.4115591472       29.9138377421
  H         0.0634966902        3.9424657389        0.3582235272
  H         0.0231605057        6.4437706204        0.3365612636
  H        -9.1694970784        1.6004322734       22.6665902406
  H        -9.1251680614        2.2641233710       24.3236975992
  H       -10.6282261764        1.5982085577       23.6949314809
  H        -7.0905672804        8.4632415890       24.1330079007
  H        -8.5845688818        7.7841325006       23.4940635853
  H        -8.5582034621        8.4586961035       25.1471888186
  H        -3.3478263939        9.9850087895        7.5154403295
  H         3.1742848405        0.5476697527        6.4126626146
  H        -3.2087917109        0.8284070766        8.1684457961
  H         1.2728763389       10.0224153576        8.5878135230
  H         1.1758715588        0.6343376680        9.6228720284
  H         1.2036242006        0.8322199139        7.8539678267
  C        -3.8253050673        7.8915569189       16.1087834915
  C        -6.2844913679       10.4214032358       18.2424820601
  C        -3.8953037537        2.1917502085       16.7881334661
  C        -3.2351375245       10.9030202706       13.8377774423
  C       -13.7297673001        7.7795304797       31.3104328998
  C       -11.3899407890       10.3218253832       29.5992280157
  C       -13.6453660731        2.0001385804       31.3262956823
  C         1.2291730507       10.6968079655        2.2122842825
  C       -10.7249306128       10.3968925578       28.2682815966
  C        -9.4723624030        0.2648657559       28.0458109949
  C        -8.9756182073        0.4123492368       26.7485123405
  C        -9.6619128002       -0.1242717803       25.6458470453
  C       -10.9026761490        9.9828509310       25.8808845643
  C       -11.4190663780        9.8550250317       27.1672312835
  C        -9.1762900662        0.1063642475       24.2496116293
  C        -8.5451958284        9.9439554134       23.5574524546
  C        -6.7908470087        0.0329494695       21.9423544177
  C        -8.0459488950       10.1601625540       22.1636047403
  C        -8.7219069333        9.6184696764       21.0562601588
  C        -8.1997967719        9.7370854973       19.7662178615
  C        -6.9626641500       10.3673132723       19.5617143097
  C        -6.2444482371        0.1249315216       20.6653813997
  C         0.6602776014       -0.0077612234        3.5750463902
  C         1.1341904330       10.0451455657        4.6533393055
  C         0.4692908474       10.0532604561        5.8782641953
  C        -0.6466949979        0.0503644099        6.1044524010
  C        -1.1326010728        0.7943985494        5.0050472465
  C        -0.5098038320        0.7463406821        3.7633003399
  C        -1.3415004532        0.0902922625        7.4216913779
  C        -0.6700006789        0.1221549672        8.6124077007
  C        -0.9133945390        0.9844324027       10.9696511899
  C        -1.3681337164        0.1442723022        9.9279363948
  C        -2.5115450337       10.1091816772       10.2090985637
  C        -3.1614757793       10.1388589647       11.4403124117
  C        -2.6474107816        0.1794868033       12.4629304951
  C        -1.5255764911        0.9874764747       12.2157954300
  C        -3.8592728361        6.4605465310       16.6301772543
  C        -4.9102810948        5.8413641472       17.3859428383
  C        -2.8060053466        5.7077783034       16.1299782166
  C        -5.9285324232        6.5343515500       18.1077709756
  C        -6.8969793364        5.8341364279       18.7962812289
  C        -3.8429403906        3.6735474006       16.8598296136
  C        -2.7715428582        4.3128427632       16.2712202091
  C        -4.9192488632        4.4015318318       17.4363972415
  C        -5.9731249826        3.7215374637       18.1021492314
  C        -6.9388213544        4.4273467976       18.7667668176
  C       -13.7010434469        6.2909643312       31.2088751222
  C       -12.6040431450        5.6221252267       30.5786034713
  C       -14.7274158718        5.5796276186       31.8051142604
  C       -11.5715592734        6.3203556198       29.8878346467
  C       -10.6114694508        5.6167080903       29.2045494337
  C       -13.6508025825        3.4894414630       31.2375663803
  C       -14.7038706852        4.1736058342       31.8189800185
  C       -12.5830848851        4.1827289209       30.5906479951
  C       -11.5409098462        3.4967682474       29.9038254043
  C       -10.6009070434        4.2117946315       29.2080949758
  C        -9.5340971895        1.4602966515       23.6914373661
  C        -8.1855513911        8.5937459040       24.1248651714
  C        -2.8308219736        0.1780015003        7.3733151521
  C         0.8177267887        0.2189467814        8.6742340938
  O        -2.9803333256        8.6868869737       16.7018997023
  O        -5.3479509917        8.4489133231       16.0206855330
  O        -6.9602943133       10.5303801332       17.1076311483
  O        -5.0018290251       -0.4136693023       18.1689764449
  O        -4.8645995682        1.7168360687       16.1082403567
  O        -2.9633756947        1.5430449570       17.3637083046
  O        -2.3917320978        0.4426271280       14.7730680051
  O        -4.4358641822       10.4925429165       14.0269414771
  O       -14.7916087320        8.3786459869       30.9242122559
  O       -12.6934354627        8.3125941272       31.8131844361
  O       -10.7053508042       10.3328827520       30.7362960341
  O       -12.6349212731       10.2570367508       29.6620042379
  O       -12.6332378450        1.4642025958       31.8756949186
  O       -14.6713950607        1.3972052037       30.8635826933
  O         0.4047316448       -0.0083962683        1.2605663395
  O         2.4865281226       10.5438434730        2.0676047450
  F        -7.8726504313        6.4722030512       19.4899589562
  F        -7.9598197220        3.7757143509       19.3658568303
  F        -9.6125257554        6.2343975494       28.5360700966
  F        -9.6014738018        3.6001367196       28.5365163707
  O        -5.4150904450        7.9469469811       14.6141389097
  C        -4.0407054877        7.7375213725       14.5579408622
  O        -3.4191986878        7.4367536562       13.5788353118
     123
 i =      175, E =      -996.1989596581
 Zn        -2.5179318284       10.5701286834       16.6393954564
 Zn        -5.2870440098       10.5871982745       15.8504443859
 Zn       -15.1498944348       10.2848576133       31.2298854989
 Zn         3.1780108327       10.5997427590        0.1286310898
  H        -8.9287835570        0.7296358142       28.8657960935
  H        -8.0476725152        0.9646124866       26.5954836609
  H       -11.4489049063        9.5605789808       25.0342032162
  H       -12.3636983494        9.3395840119       27.3369963434
  H        -6.2546352300        0.4589135239       22.7920990291
  H        -9.6595157585        9.0807239007       21.2014205020
  H        -8.7369667794        9.2698099585       18.9392472464
  H        -5.2874637674        0.6222331266       20.5053482301
  H         2.0245416550        9.4296949404        4.5115262251
  H         0.8400604225        9.4121132281        6.6744925328
  H        -2.0095188976        1.4285958798        5.1170877981
  H        -0.9264439838        1.3007244923        2.9231147910
  H        -0.0694337306        1.6531976292       10.8022726892
  H        -2.8521751204        9.4015598596        9.4561488017
  H        -4.0024671964        9.4759390850       11.6381619229
  H        -1.1389353449        1.6200413184       13.0134920438
  H        -5.9447736306        7.6183762716       18.1453167409
  H        -6.0298094868        2.6345477397       18.1033135481
  H        -1.9489651533        3.7297151509       15.8535874009
  H        -2.0211374090        6.1996237946       15.5543845009
  H       -11.5306541895        7.4078798864       29.8866257323
  H       -11.4796632125        2.4125092497       29.9111598693
  H         0.0655462603        3.9430666902        0.3587519161
  H         0.0243489701        6.4443861291        0.3370498440
  H        -9.1674290585        1.5986573371       22.6660488409
  H        -9.1234549109        2.2634117747       24.3224680766
  H       -10.6264734469        1.5980208435       23.6932235204
  H        -7.0912288632        8.4613716988       24.1327823483
  H        -8.5855745976        7.7829822536       23.4936972376
  H        -8.5589242266        8.4576971492       25.1468235623
  H        -3.3475189842        9.9859470052        7.5159445703
  H         3.1752348427        0.5474876752        6.4121123415
  H        -3.2073040515        0.8295264000        8.1675881937
  H         1.2745577778       10.0224842533        8.5867580632
  H         1.1767336002        0.6334765914        9.6224007750
  H         1.2048492790        0.8323268249        7.8534941719
  C        -3.8239299058        7.8895176770       16.1063274245
  C        -6.2841201334       10.4194666735       18.2425019765
  C        -3.8956713276        2.1909574446       16.7885435205
  C        -3.2342665574       10.9035295262       13.8372063220
  C       -13.7300853415        7.7796795426       31.3106942908
  C       -11.3898031304       10.3230639342       29.5992435817
  C       -13.6453783555        2.0004662596       31.3266738911
  C         1.2293918724       10.6974627992        2.2118566170
  C       -10.7247164248       10.3953775301       28.2681313983
  C        -9.4727138174        0.2652801441       28.0455987691
  C        -8.9749922359        0.4105975471       26.7484665151
  C        -9.6625885458       -0.1225130156       25.6456757041
  C       -10.9022499841        9.9812155994       25.8803826829
  C       -11.4197446645        9.8568604309       27.1667039500
  C        -9.1769351972        0.1045576630       24.2487884922
  C        -8.5445836111        9.9429085177       23.5572298566
  C        -6.7903686827        0.0317249656       21.9421556747
  C        -8.0459868294       10.1604478114       22.1632945948
  C        -8.7220384221        9.6191569619       21.0556325949
  C        -8.1995759934        9.7367548748       19.7655557055
  C        -6.9628113832       10.3687015356       19.5617114920
  C        -6.2437048083        0.1242023832       20.6654314359
  C         0.6601743588       -0.0099170116        3.5744857314
  C         1.1345489592       10.0436345302        4.6530277600
  C         0.4694163539       10.0522717289        5.8777531165
  C        -0.6464075964        0.0495956142        6.1038558438
  C        -1.1327244208        0.7925114389        5.0038532486
  C        -0.5094964000        0.7446132500        3.7623748865
  C        -1.3407357060        0.0895127775        7.4211861622
  C        -0.6686850848        0.1214630024        8.6116231704
  C        -0.9124981420        0.9840491478       10.9686902991
  C        -1.3672926017        0.1440812122        9.9268949747
  C        -2.5096675673       10.1082046457       10.2088670004
  C        -3.1614634686       10.1393093232       11.4392590567
  C        -2.6465718375        0.1794214666       12.4619625963
  C        -1.5251949382        0.9880105305       12.2145871400
  C        -3.8587055581        6.4581492649       16.6285189979
  C        -4.9107737906        5.8398275767       17.3839821519
  C        -2.8067162384        5.7050428001       16.1263088016
  C        -5.9293278617        6.5335219830       18.1050310070
  C        -6.8974204744        5.8336257852       18.7946949358
  C        -3.8428764093        3.6722729553       16.8590907137
  C        -2.7718822205        4.3102174700       16.2689361268
  C        -4.9187790994        4.4001611490       17.4359810738
  C        -5.9719113404        3.7203492032       18.1033418099
  C        -6.9376663209        4.4267619547       18.7670265246
  C       -13.7006845723        6.2913610065       31.2075191455
  C       -12.6042452043        5.6229702179       30.5761612777
  C       -14.7267500449        5.5803222440       31.8045944127
  C       -11.5718502802        6.3214682452       29.8856144137
  C       -10.6109992052        5.6171872889       29.2041791053
  C       -13.6508728529        3.4897390445       31.2350447733
  C       -14.7024973362        4.1743504270       31.8187373982
  C       -12.5832193560        4.1834756062       30.5889453337
  C       -11.5408560875        3.4976928496       29.9025439472
  C       -10.6014753846        4.2123109473       29.2058183924
  C        -9.5324556596        1.4592954013       23.6907721351
  C        -8.1860902863        8.5923646114       24.1245003873
  C        -2.8299957937        0.1782823210        7.3729110076
  C         0.8190154709        0.2185419055        8.6734521791
  O        -2.9798014481        8.6843410970       16.7004540783
  O        -5.3451872473        8.4492751172       16.0176376571
  O        -6.9602469584       10.5310334497       17.1076807774
  O        -5.0018384542       -0.4139764271       18.1678519569
  O        -4.8640917808        1.7159520389       16.1073522149
  O        -2.9633446147        1.5418326082       17.3626112549
  O        -2.3915282302        0.4432660162       14.7730070989
  O        -4.4346699577       10.4927937106       14.0264097642
  O       -14.7914615535        8.3788892597       30.9234247493
  O       -12.6933032730        8.3127451515       31.8124408250
  O       -10.7053064953       10.3324936335       30.7363787140
  O       -12.6347147256       10.2565923818       29.6618089765
  O       -12.6327577651        1.4641180831       31.8747368033
  O       -14.6709590296        1.3973742623       30.8630177480
  O         0.4046420584       -0.0088517754        1.2603365768
  O         2.4866621633       10.5432677557        2.0675095282
  F        -7.8714629360        6.4725864719       19.4909540931
  F        -7.9594936340        3.7749681006       19.3644128699
  F        -9.6120989540        6.2344581058       28.5362071043
  F        -9.6004431650        3.6017531192       28.5358586103
  O        -5.4101410000        7.9467788766       14.6110170061
  C        -4.0372528588        7.7352299220       14.5572721973
  O        -3.4173187509        7.4354998211       13.5754390952
     123
 i =      176, E =      -996.1989910783
 Zn        -2.5172479093       10.5695603364       16.6384513545
 Zn        -5.2858888147       10.5872241894       15.8504576300
 Zn       -15.1497419794       10.2850609749       31.2297587807
 Zn         3.1780864347       10.5998910319        0.1284365433
  H        -8.9285644819        0.7295637957       28.8651032789
  H        -8.0475744995        0.9640234801       26.5946983817
  H       -11.4493559302        9.5598655479       25.0341148860
  H       -12.3639493873        9.3397533356       27.3370023747
  H        -6.2546609824        0.4570281739       22.7922479324
  H        -9.6608047920        9.0814207721       21.1999506241
  H        -8.7371253338        9.2700472538       18.9382304901
  H        -5.2869807518        0.6205779710       20.5057542682
  H         2.0252871742        9.4291154814        4.5108476866
  H         0.8411183662        9.4112563951        6.6739984112
  H        -2.0104183400        1.4258156770        5.1161896093
  H        -0.9274994534        1.2978426780        2.9221903534
  H        -0.0693069608        1.6540420410       10.8011268421
  H        -2.8496158912        9.4002035201        9.4558860215
  H        -4.0022416273        9.4766315295       11.6365623167
  H        -1.1397185777        1.6214868157       13.0119596452
  H        -5.9450381651        7.6177599082       18.1410229777
  H        -6.0280197912        2.6336830684       18.1070664194
  H        -1.9509146464        3.7257043051       15.8500417909
  H        -2.0209482780        6.1957350497       15.5517282453
  H       -11.5317830751        7.4081828005       29.8844085309
  H       -11.4799787455        2.4134410503       29.9091231485
  H         0.0666934669        3.9433553416        0.3593297351
  H         0.0251163719        6.4447414005        0.3373327841
  H        -9.1649344649        1.5975246076       22.6654365298
  H        -9.1212648298        2.2623388395       24.3218825575
  H       -10.6246721621        1.5984404732       23.6917890142
  H        -7.0933821361        8.4584381937       24.1324830409
  H        -8.5879996305        7.7814082871       23.4927977005
  H        -8.5612145416        8.4560213729       25.1456431448
  H        -3.3468327351        9.9860757945        7.5171082824
  H         3.1759189129        0.5463120108        6.4120439904
  H        -3.2056963951        0.8293868115        8.1675771954
  H         1.2761268580       10.0215058855        8.5854477308
  H         1.1782995225        0.6321899649        9.6212932933
  H         1.2060778799        0.8316490538        7.8526288361
  C        -3.8231301859        7.8879471849       16.1054599002
  C        -6.2844722551       10.4198110160       18.2422368758
  C        -3.8955509145        2.1905482222       16.7884684626
  C        -3.2342770572       10.9035845627       13.8369564013
  C       -13.7300788523        7.7801159452       31.3102427638
  C       -11.3896677728       10.3222069357       29.5992283051
  C       -13.6451618795        2.0006923033       31.3260221259
  C         1.2294589007       10.6960188406        2.2115567475
  C       -10.7250899674       10.3964550363       28.2679048737
  C        -9.4723634820        0.2643203105       28.0451056980
  C        -8.9752252004        0.4108947502       26.7478881780
  C        -9.6624681468       -0.1241259462       25.6453524839
  C       -10.9028472769        9.9814134830       25.8801296939
  C       -11.4195740743        9.8559292329       27.1666704313
  C        -9.1770666254        0.1037068015       24.2485070352
  C        -8.5452635120        9.9419543291       23.5567047285
  C        -6.7902139556        0.0301894216       21.9420367853
  C        -8.0461045168       10.1591516505       22.1628392465
  C        -8.7225085136        9.6185135981       21.0550148228
  C        -8.2005169565        9.7378744874       19.7649798437
  C        -6.9627246995       10.3671438901       19.5615368091
  C        -6.2437558522        0.1234517618       20.6652667532
  C         0.6604723737       -0.0108953222        3.5740629886
  C         1.1349940025       10.0426298601        4.6524176779
  C         0.4702508359       10.0512843333        5.8773051627
  C        -0.6460975894        0.0480061869        6.1031376999
  C        -1.1332843403        0.7902562963        5.0030742689
  C        -0.5099298137        0.7425687381        3.7617250502
  C        -1.3394762884        0.0883675837        7.4208946465
  C        -0.6673192581        0.1205125851        8.6112311566
  C        -0.9119159159        0.9843707381       10.9676651774
  C        -1.3659757886        0.1432966366        9.9264343100
  C        -2.5083787596       10.1074857025       10.2086007719
  C        -3.1604835912       10.1393292381       11.4388628617
  C        -2.6464369852        0.1801016329       12.4616065990
  C        -1.5252049063        0.9887319943       12.2133263540
  C        -3.8583874624        6.4562273969       16.6266990301
  C        -4.9101776365        5.8385381802       17.3836198031
  C        -2.8070031307        5.7023828569       16.1238567091
  C        -5.9298416382        6.5328365001       18.1026072116
  C        -6.8977679941        5.8334663869       18.7931240126
  C        -3.8427849942        3.6713488367       16.8596362220
  C        -2.7723001844        4.3075509677       16.2666437401
  C        -4.9186680446        4.3989903771       17.4362684476
  C        -5.9711444314        3.7195386870       18.1050663927
  C        -6.9375727960        4.4265245206       18.7672188389
  C       -13.7009023356        6.2919349300       31.2062479323
  C       -12.6049018302        5.6237535308       30.5739465684
  C       -14.7260947554        5.5807268281       31.8047062910
  C       -11.5716061631        6.3216030601       29.8841473161
  C       -10.6105524292        5.6173977851       29.2024183219
  C       -13.6508808305        3.4901247217       31.2341400835
  C       -14.7023735765        4.1747790341       31.8178491428
  C       -12.5836702802        4.1841971301       30.5878154860
  C       -11.5415408432        3.4985963839       29.9010062558
  C       -10.6014091137        4.2123269224       29.2046032030
  C        -9.5308225759        1.4586918961       23.6899469246
  C        -8.1881759062        8.5906709186       24.1234033874
  C        -2.8286996388        0.1780288148        7.3732110463
  C         0.8204207234        0.2173955699        8.6724249799
  O        -2.9790385970        8.6828852021       16.6990100481
  O        -5.3430939498        8.4489898909       16.0149353896
  O        -6.9598225738       10.5304062017       17.1071557409
  O        -5.0022180931       -0.4141693660       18.1668585982
  O        -4.8635762062        1.7156807338       16.1069430605
  O        -2.9644126833        1.5404905060       17.3632899333
  O        -2.3911063096        0.4444836196       14.7723012231
  O        -4.4345716910       10.4930490979       14.0263957492
  O       -14.7915693737        8.3791854046       30.9232100671
  O       -12.6933144472        8.3130402367       31.8121758999
  O       -10.7051792871       10.3329152098       30.7363437401
  O       -12.6346617561       10.2570665770       29.6615626414
  O       -12.6326648936        1.4645020326       31.8745053732
  O       -14.6710210456        1.3976834421       30.8627975748
  O         0.4048516786       -0.0084399467        1.2600891012
  O         2.4869769999       10.5438342765        2.0671911784
  F        -7.8718090536        6.4716713337       19.4907221402
  F        -7.9602854799        3.7765148780       19.3649117177
  F        -9.6111524849        6.2346146465       28.5355100629
  F        -9.6009766898        3.5991577408       28.5354358829
  O        -5.4060936090        7.9463866603       14.6077747450
  C        -4.0341493375        7.7336277909       14.5559019212
  O        -3.4138386320        7.4344160078       13.5746715402
     123
 i =      177, E =      -996.1990117336
 Zn        -2.5167665925       10.5691047687       16.6372432851
 Zn        -5.2839969491       10.5869035165       15.8506127826
 Zn       -15.1497004341       10.2853230048       31.2297242235
 Zn         3.1781744761       10.6003077323        0.1279692871
  H        -8.9280161468        0.7286127317       28.8646791016
  H        -8.0472935962        0.9628559249       26.5942783820
  H       -11.4499989847        9.5601258069       25.0339957434
  H       -12.3645702030        9.3404757560       27.3368733599
  H        -6.2539028815        0.4548449724       22.7924743531
  H        -9.6618646008        9.0827950043       21.1988650074
  H        -8.7376423887        9.2716169883       18.9375983893
  H        -5.2862125675        0.6188964133       20.5061020192
  H         2.0257472617        9.4278797215        4.5102398874
  H         0.8419967343        9.4103228073        6.6737337580
  H        -2.0107635165        1.4236482655        5.1151434270
  H        -0.9278687753        1.2951730511        2.9211836891
  H        -0.0687878132        1.6545818160       10.7992934496
  H        -2.8476713696        9.3984482691        9.4559871205
  H        -4.0012587921        9.4771657366       11.6359705524
  H        -1.1393149859        1.6229158818       13.0103054576
  H        -5.9460434237        7.6170559213       18.1362134073
  H        -6.0268784135        2.6331095063       18.1101198716
  H        -1.9527630396        3.7229505327       15.8472878368
  H        -2.0220295369        6.1929355508       15.5479215987
  H       -11.5325439921        7.4081894377       29.8816444834
  H       -11.4807320298        2.4134430452       29.9084800691
  H         0.0670222938        3.9435399526        0.3599410936
  H         0.0257957573        6.4448568394        0.3377382175
  H        -9.1627914322        1.5960908247       22.6648561199
  H        -9.1192874561        2.2612558896       24.3210344116
  H       -10.6232058960        1.5986977131       23.6903189797
  H        -7.0946134970        8.4560872946       24.1320249441
  H        -8.5896782400        7.7802058890       23.4920839436
  H        -8.5625863538        8.4547867434       25.1449702791
  H        -3.3462445724        9.9859719609        7.5171973853
  H         3.1769237253        0.5459065952        6.4116290181
  H        -3.2043362490        0.8292885302        8.1671687096
  H         1.2776130932       10.0210239887        8.5846246099
  H         1.1794390178        0.6317899574        9.6204859841
  H         1.2071009226        0.8309626061        7.8516327170
  C        -3.8227374687        7.8868167517       16.1051042825
  C        -6.2839131634       10.4198276568       18.2418120161
  C        -3.8960421904        2.1891872600       16.7895281599
  C        -3.2340603844       10.9044267734       13.8361473054
  C       -13.7299001175        7.7804647069       31.3092923448
  C       -11.3897745339       10.3229578724       29.5990173856
  C       -13.6450943612        2.0009365333       31.3253514115
  C         1.2299330578       10.6959075737        2.2112386894
  C       -10.7247488080       10.3957119758       28.2678022995
  C        -9.4721797158        0.2642470022       28.0445804496
  C        -8.9750433248        0.4097699919       26.7472296298
  C        -9.6627441543       -0.1248573973       25.6447041025
  C       -10.9033328979        9.9815102787       25.8800819822
  C       -11.4200051689        9.8562922258       27.1666928311
  C        -9.1762998491        0.1032081761       24.2482247791
  C        -8.5454381354        9.9406510745       23.5562432997
  C        -6.7899217703        0.0293742888       21.9419483661
  C        -8.0457668453       10.1577598078       22.1624640131
  C        -8.7231216600        9.6192494211       21.0543910485
  C        -8.2006873538        9.7386812562       19.7645277704
  C        -6.9624091376       10.3667482579       19.5610274727
  C        -6.2432194278        0.1219285528       20.6651966853
  C         0.6603284915       -0.0125001985        3.5734012924
  C         1.1356667223       10.0416172205        4.6518580444
  C         0.4709963526       10.0499583586        5.8767576147
  C        -0.6453517707        0.0466758947        6.1024731959
  C        -1.1333703177        0.7883990256        5.0024493581
  C        -0.5101151494        0.7406814959        3.7611267059
  C        -1.3384601103        0.0875076481        7.4202479811
  C        -0.6660660039        0.1192099397        8.6104846788
  C        -0.9113807618        0.9849697690       10.9664971382
  C        -1.3645009396        0.1426412432        9.9258824725
  C        -2.5071506383       10.1070930580       10.2077891983
  C        -3.1587829665       10.1390746390       11.4383578813
  C        -2.6457879195        0.1807307610       12.4608126817
  C        -1.5243335797        0.9892002255       12.2122417506
  C        -3.8581468588        6.4547049619       16.6253244564
  C        -4.9106381946        5.8372619850       17.3812643424
  C        -2.8076709966        5.7000770896       16.1212689986
  C        -5.9303231209        6.5320529935       18.1001507885
  C        -6.8979234793        5.8335716532       18.7924449438
  C        -3.8431071466        3.6697788161       16.8594478567
  C        -2.7733571699        4.3054442191       16.2649208205
  C        -4.9180002898        4.3977653781       17.4373720893
  C        -5.9711228725        3.7190913663       18.1060880370
  C        -6.9380780015        4.4263806179       18.7670254274
  C       -13.7012231002        6.2923395281       31.2052961625
  C       -12.6055533322        5.6236916503       30.5728915466
  C       -14.7258423492        5.5807347512       31.8043187774
  C       -11.5725912116        6.3216351965       29.8826781730
  C       -10.6114874366        5.6173506349       29.2007942399
  C       -13.6506993293        3.4904982900       31.2340975037
  C       -14.7024826689        4.1747633617       31.8175967682
  C       -12.5841455804        4.1841434973       30.5863148472
  C       -11.5423025288        3.4985596513       29.8993309102
  C       -10.6012011071        4.2123643296       29.2047234080
  C        -9.5295316855        1.4579250470       23.6891393688
  C        -8.1892500280        8.5891086926       24.1227846564
  C        -2.8276578252        0.1776447780        7.3728850079
  C         0.8215887939        0.2168249531        8.6717023641
  O        -2.9789014088        8.6821850529       16.6993592968
  O        -5.3416754212        8.4478321545       16.0129385161
  O        -6.9591403097       10.5297405176       17.1063191615
  O        -5.0019103025       -0.4153291556       18.1677052507
  O        -4.8639938725        1.7151458256       16.1068180071
  O        -2.9641876524        1.5400095291       17.3634405522
  O        -2.3906935015        0.4437002015       14.7716036769
  O        -4.4343568761       10.4934549606       14.0254610504
  O       -14.7917193080        8.3795565875       30.9233560480
  O       -12.6935636606        8.3134417782       31.8121275248
  O       -10.7050839429       10.3325703829       30.7360236930
  O       -12.6347237275       10.2567022137       29.6616426252
  O       -12.6328239230        1.4651045534       31.8745643105
  O       -14.6712340936        1.3979698229       30.8626856874
  O         0.4050763606       -0.0089075027        1.2600233184
  O         2.4873866959       10.5434210193        2.0666536047
  F        -7.8718974516        6.4717132024       19.4905144553
  F        -7.9603384264        3.7763549202       19.3657598051
  F        -9.6114696927        6.2351207697       28.5357156228
  F        -9.6011125462        3.5983723699       28.5354514819
  O        -5.4048557091        7.9460866110       14.6041949398
  C        -4.0326612585        7.7326008538       14.5546078900
  O        -3.4140990431        7.4348863980       13.5731232393
     123
 i =      178, E =      -996.1990351094
 Zn        -2.5165805054       10.5689686551       16.6356915417
 Zn        -5.2838539803       10.5870210398       15.8504304301
 Zn       -15.1497264877       10.2852678877       31.2296411488
 Zn         3.1781620376       10.6001134140        0.1274891562
  H        -8.9273834766        0.7277524494       28.8640501648
  H        -8.0468433369        0.9614262063       26.5935723353
  H       -11.4509454100        9.5602939181       25.0338416419
  H       -12.3651347179        9.3412486459       27.3367912089
  H        -6.2529136132        0.4514693487       22.7929182916
  H        -9.6629660825        9.0838623728       21.1976096351
  H        -8.7387636667        9.2736451904       18.9365747108
  H        -5.2854087252        0.6167828814       20.5065679554
  H         2.0266128255        9.4268627253        4.5094066258
  H         0.8432446021        9.4092302365        6.6731934479
  H        -2.0111509627        1.4206334314        5.1143644253
  H        -0.9285424044        1.2922443204        2.9203662437
  H        -0.0688147314        1.6552639495       10.7975131721
  H        -2.8457253725        9.3966241673        9.4561434162
  H        -3.9998800582        9.4765787988       11.6356338103
  H        -1.1392744715        1.6244410521       13.0085666865
  H        -5.9475930337        7.6171042377       18.1314064577
  H        -6.0253597177        2.6330090370       18.1131139178
  H        -1.9545944840        3.7214879636       15.8443705926
  H        -2.0235692449        6.1914651293       15.5441117296
  H       -11.5329849939        7.4077415626       29.8790708852
  H       -11.4825298508        2.4126765324       29.9076455236
  H         0.0670328924        3.9438736459        0.3602702102
  H         0.0259777057        6.4450190166        0.3382046310
  H        -9.1604310567        1.5947728887       22.6643633964
  H        -9.1170250884        2.2602841878       24.3202473180
  H       -10.6211758735        1.5990638147       23.6888318814
  H        -7.0965567052        8.4532020160       24.1312198280
  H        -8.5920438521        7.7787017225       23.4909470877
  H        -8.5646253562        8.4529822421       25.1440389082
  H        -3.3454202903        9.9852511383        7.5172273614
  H         3.1780181120        0.5453414950        6.4117293603
  H        -3.2025939475        0.8288683363        8.1670785998
  H         1.2792762888       10.0202242483        8.5843039295
  H         1.1807565211        0.6313210219        9.6196952684
  H         1.2082441804        0.8297758344        7.8505182178
  C        -3.8232216444        7.8863475521       16.1040290209
  C        -6.2836204043       10.4195858838       18.2417362399
  C        -3.8958965737        2.1883945156       16.7896730830
  C        -3.2337899743       10.9047170594       13.8351166887
  C       -13.7303304463        7.7803794191       31.3094171099
  C       -11.3896064136       10.3218325409       29.5988163704
  C       -13.6452540609        2.0009820482       31.3252457019
  C         1.2301700234       10.6951572957        2.2108670504
  C       -10.7250888224       10.3964721111       28.2674088539
  C        -9.4717268274        0.2630109919       28.0441823538
  C        -8.9748841231        0.4090098297       26.7467669933
  C        -9.6628879546       -0.1253377908       25.6442554210
  C       -10.9037750987        9.9815364793       25.8796904147
  C       -11.4202113208        9.8561472522       27.1664105797
  C        -9.1766071225        0.1016783362       24.2474980514
  C        -8.5454642449        9.9392977846       23.5558432197
  C        -6.7895983485        0.0272264417       21.9420976404
  C        -8.0459059705       10.1561982095       22.1620010216
  C        -8.7238704429        9.6197992814       21.0533850571
  C        -8.2009910196        9.7391311600       19.7637061917
  C        -6.9622644912       10.3667218742       19.5608364776
  C        -6.2427251072        0.1204974204       20.6654779316
  C         0.6608910610       -0.0136675779        3.5730159345
  C         1.1363052749       10.0402343382        4.6511955392
  C         0.4718883563       10.0486422415        5.8761950315
  C        -0.6446796808        0.0449986503        6.1020093407
  C        -1.1332319723        0.7861000347        5.0018701339
  C        -0.5105725354        0.7381197774        3.7603440668
  C        -1.3374446474        0.0859964147        7.4198306470
  C        -0.6646233680        0.1182221465        8.6098491601
  C        -0.9108508060        0.9851400698       10.9654041918
  C        -1.3634233220        0.1422113054        9.9250862646
  C        -2.5053251582       10.1059255783       10.2074198014
  C        -3.1577862400       10.1388331072       11.4375829896
  C        -2.6451118549        0.1809976453       12.4597938965
  C        -1.5242300139        0.9901552252       12.2109608890
  C        -3.8584137127        6.4539796885       16.6237967741
  C        -4.9107250945        5.8369032399       17.3800188569
  C        -2.8085276988        5.6988191094       16.1188008335
  C        -5.9310425283        6.5320257704       18.0979410887
  C        -6.8982634885        5.8340003548       18.7915120590
  C        -3.8431186151        3.6689392626       16.8596805476
  C        -2.7745867083        4.3043578565       16.2629590558
  C        -4.9176224181        4.3974602442       17.4376208967
  C        -5.9702877062        3.7190681930       18.1072382780
  C        -6.9378901427        4.4266471855       18.7667243799
  C       -13.7013897395        6.2923159264       31.2046786672
  C       -12.6060822219        5.6233533259       30.5718380143
  C       -14.7261689089        5.5809662329       31.8036823606
  C       -11.5738637272        6.3213106172       29.8806528739
  C       -10.6118156085        5.6170175236       29.2002158218
  C       -13.6512423486        3.4905116861       31.2335712668
  C       -14.7024860158        4.1749517579       31.8178329610
  C       -12.5850877790        4.1838463047       30.5849090568
  C       -11.5433955195        3.4978467038       29.8982826239
  C       -10.6023961451        4.2121609845       29.2041566588
  C        -9.5276513419        1.4571176883       23.6885023131
  C        -8.1910171957        8.5870944927       24.1219412352
  C        -2.8265930285        0.1767121584        7.3727256205
  C         0.8230385235        0.2159530429        8.6710477840
  O        -2.9800498516        8.6821637792       16.6995666278
  O        -5.3422166083        8.4468996712       16.0106697853
  O        -6.9592740676       10.5295699539       17.1062243324
  O        -5.0017950094       -0.4155082146       18.1676361188
  O        -4.8645095223        1.7150955304       16.1072729037
  O        -2.9641661658        1.5395883533       17.3639412238
  O        -2.3905363325        0.4439930711       14.7712348145
  O        -4.4338766803       10.4936672797       14.0244325334
  O       -14.7918450392        8.3796658501       30.9229845830
  O       -12.6936235636        8.3133340923       31.8115147219
  O       -10.7050726704       10.3330925301       30.7358745034
  O       -12.6346659626       10.2573102742       29.6616025991
  O       -12.6330584200        1.4650714963       31.8745206772
  O       -14.6712694690        1.3978235111       30.8626825055
  O         0.4052125822       -0.0089033836        1.2598369393
  O         2.4877368651       10.5434747352        2.0663035318
  F        -7.8718476891        6.4720194278       19.4900977369
  F        -7.9595086257        3.7762042065       19.3663422389
  F        -9.6113435850        6.2344415376       28.5355587683
  F        -9.6015527633        3.5985204975       28.5357032382
  O        -5.4034240216        7.9468078901       14.6007877925
  C        -4.0313600593        7.7321799057       14.5535308186
  O        -3.4129126913        7.4350082394       13.5720243385
     123
 i =      179, E =      -996.1990803896
 Zn        -2.5161261180       10.5688671007       16.6313053523
 Zn        -5.2848194184       10.5876737649       15.8497725439
 Zn       -15.1497296283       10.2848062126       31.2294960841
 Zn         3.1782331682       10.5996039977        0.1258364905
  H        -8.9257241443        0.7253966404       28.8622794641
  H        -8.0458397152        0.9578642992       26.5916423687
  H       -11.4532688347        9.5603592152       25.0332608067
  H       -12.3664179321        9.3425173770       27.3365708936
  H        -6.2504278203        0.4413376265       22.7944508224
  H        -9.6657728665        9.0856426118       21.1941234427
  H        -8.7418060001        9.2786650443       18.9336241554
  H        -5.2836670204        0.6112368498       20.5080677218
  H         2.0292737798        9.4245633756        4.5072117537
  H         0.8469351250        9.4060873000        6.6717885929
  H        -2.0125671604        1.4121253727        5.1126777577
  H        -0.9309472446        1.2841645420        2.9184553494
  H        -0.0690274140        1.6570283640       10.7934052533
  H        -2.8406799239        9.3919785065        9.4567782207
  H        -3.9957155757        9.4740853930       11.6353728336
  H        -1.1396925506        1.6286397492       13.0043017354
  H        -5.9517828491        7.6183537006       18.1202367396
  H        -6.0213633381        2.6335121895       18.1204647309
  H        -1.9585920775        3.7197284050       15.8373828073
  H        -2.0287160199        6.1893086554       15.5342511672
  H       -11.5346091506        7.4058061287       29.8730709904
  H       -11.4881472400        2.4106507289       29.9053843600
  H         0.0662673906        3.9445487153        0.3614389228
  H         0.0256480779        6.4454461951        0.3392095376
  H        -9.1538388120        1.5917446722       22.6629092977
  H        -9.1107521798        2.2572848341       24.3186830826
  H       -10.6159376686        1.6004399593       23.6851478714
  H        -7.1022281675        8.4447998477       24.1289600698
  H        -8.5990750479        7.7747178149       23.4874792090
  H        -8.5707899455        8.4474700021       25.1411304934
  H        -3.3431833336        9.9832022982        7.5178013604
  H         3.1807622317        0.5430906956        6.4124577174
  H        -3.1980001398        0.8271533731        8.1673290211
  H         1.2833533306       10.0180153029        8.5837259376
  H         1.1844102039        0.6297195903        9.6175299467
  H         1.2112669303        0.8262572215        7.8479229811
  C        -3.8256908992        7.8860703311       16.1007206197
  C        -6.2836238830       10.4199005140       18.2416750364
  C        -3.8950064222        2.1879452038       16.7896361146
  C        -3.2331941932       10.9063433974       13.8328722412
  C       -13.7302030271        7.7799912043       31.3074151362
  C       -11.3893515122       10.3224883009       29.5982262838
  C       -13.6459765127        2.0005591996       31.3251556378
  C         1.2309728058       10.6939374415        2.2099090002
  C       -10.7249567861       10.3953709901       28.2665595173
  C        -9.4712357804        0.2615110276       28.0428286587
  C        -8.9745183493        0.4066620199       26.7452415107
  C        -9.6633181494       -0.1273485074       25.6429074232
  C       -10.9050366814        9.9810893839       25.8786439171
  C       -11.4212691153        9.8570110345       27.1656316227
  C        -9.1760537495        0.0990078825       24.2463099614
  C        -8.5478102611        9.9346938387       23.5540902395
  C        -6.7886486192        0.0207390750       21.9425216509
  C        -8.0465775956       10.1524567150       22.1609994275
  C        -8.7256252666        9.6198319347       21.0510841418
  C        -8.2025751929        9.7407184999       19.7616979706
  C        -6.9624453878       10.3661673594       19.5604458262
  C        -6.2417697045        0.1164972158       20.6661214035
  C         0.6616352999       -0.0175053657        3.5718075518
  C         1.1386018139       10.0371550657        4.6497132807
  C         0.4745771063       10.0449948810        5.8748584148
  C        -0.6428146988        0.0401365845        6.1007236578
  C        -1.1334499987        0.7793733576        5.0003296548
  C        -0.5111450844        0.7320321238        3.7588101366
  C        -1.3344815327        0.0822524531        7.4188034626
  C        -0.6613228869        0.1156931942        8.6085694298
  C        -0.9102371352        0.9861331403       10.9624352692
  C        -1.3601818543        0.1399839788        9.9237918810
  C        -2.5014645955       10.1031247092       10.2068096564
  C        -3.1549122035       10.1376245032       11.4364283374
  C        -2.6436302192        0.1820774137       12.4575426540
  C        -1.5237723879        0.9923840501       12.2079464418
  C        -3.8600667855        6.4533482011       16.6203503169
  C        -4.9112794640        5.8371033300       17.3778640157
  C        -2.8116487752        5.6973859048       16.1124098295
  C        -5.9331128127        6.5330980069       18.0931438301
  C        -6.8991337280        5.8351034019       18.7887973643
  C        -3.8429865032        3.6686569991       16.8603909326
  C        -2.7770325046        4.3032959393       16.2584919105
  C        -4.9167812791        4.3978427736       17.4385492360
  C        -5.9680107419        3.7196089702       18.1100749904
  C        -6.9370267500        4.4275036579       18.7665547820
  C       -13.7026646618        6.2917524732       31.2038592175
  C       -12.6083132861        5.6227487658       30.5688675252
  C       -14.7273879866        5.5810135548       31.8035729714
  C       -11.5763061722        6.3196462457       29.8767058620
  C       -10.6129378738        5.6152254005       29.1984266704
  C       -13.6527888362        3.4899890902       31.2331632840
  C       -14.7035063211        4.1748835022       31.8176462781
  C       -12.5879913179        4.1833276885       30.5822286951
  C       -11.5468003759        3.4961061877       29.8958952087
  C       -10.6050250213        4.2105240562       29.2025090443
  C        -9.5228827132        1.4552556437       23.6865119771
  C        -8.1962688778        8.5815712045       24.1193603652
  C        -2.8235288367        0.1739579957        7.3729680806
  C         0.8263942081        0.2133372521        8.6694230296
  O        -2.9836284129        8.6825843318       16.6986614751
  O        -5.3460853804        8.4450185060       16.0046715236
  O        -6.9601090214       10.5292964875       17.1062725779
  O        -5.0019454452       -0.4150555124       18.1670412533
  O        -4.8645481922        1.7153063537       16.1079894846
  O        -2.9643071918        1.5386325538       17.3644511483
  O        -2.3899346835        0.4449899337       14.7704097927
  O        -4.4324258108       10.4935537611       14.0220411074
  O       -14.7924022952        8.3793641822       30.9231301283
  O       -12.6940016408        8.3126433931       31.8109731231
  O       -10.7049560286       10.3328903642       30.7353752553
  O       -12.6344303473       10.2571129764       29.6613014230
  O       -12.6336456976        1.4649781056       31.8745802673
  O       -14.6717052047        1.3970588054       30.8627271644
  O         0.4055741202       -0.0090839236        1.2594041136
  O         2.4886888893       10.5432617539        2.0653168257
  F        -7.8716560787        6.4718999484       19.4891170348
  F        -7.9583475628        3.7758216244       19.3662950743
  F        -9.6111287652        6.2331170552       28.5357348611
  F        -9.6021118531        3.5984419074       28.5354935408
  O        -5.4003901761        7.9485782692       14.5919271818
  C        -4.0298523740        7.7315253954       14.5509088136
  O        -3.4093688646        7.4351788326       13.5698397278
     123
 i =      180, E =      -996.1991278505
 Zn        -2.5159177194       10.5692266161       16.6264864275
 Zn        -5.2848460306       10.5882160433       15.8499962999
 Zn       -15.1496362169       10.2844947470       31.2293584443
 Zn         3.1785417706       10.5991600646        0.1234068491
  H        -8.9242910457        0.7232829337       28.8603297757
  H        -8.0452662805        0.9543807242       26.5892679702
  H       -11.4554715416        9.5600761362       25.0326493764
  H       -12.3677753845        9.3434931857       27.3361308042
  H        -6.2480491152        0.4288427538       22.7967561483
  H        -9.6688245414        9.0857900849       21.1902230430
  H        -8.7453996138        9.2840858350       18.9302867764
  H        -5.2827070309        0.6052943072       20.5101671583
  H         2.0327711092        9.4222320250        4.5049202553
  H         0.8516252774        9.4023763964        6.6703743369
  H        -2.0146336588        1.4015381556        5.1109372313
  H        -0.9341666903        1.2742978958        2.9165046923
  H        -0.0691594264        1.6587529900       10.7891578457
  H        -2.8356872317        9.3866675787        9.4584068631
  H        -3.9900246105        9.4703914076       11.6367506760
  H        -1.1400728650        1.6333612208       13.0001402767
  H        -5.9570337490        7.6204497162       18.1099428286
  H        -6.0163008201        2.6351938922       18.1278473581
  H        -1.9618259889        3.7211864100       15.8308252565
  H        -2.0362709227        6.1896756183       15.5226064015
  H       -11.5369492185        7.4032300244       29.8674729152
  H       -11.4953432947        2.4083186210       29.9026368571
  H         0.0643470165        3.9447051753        0.3632743913
  H         0.0249812664        6.4453760829        0.3400305478
  H        -9.1457992204        1.5885479407       22.6615862526
  H        -9.1031336273        2.2539470956       24.3172849007
  H       -10.6096442660        1.6023348880       23.6809690754
  H        -7.1098290882        8.4346404496       24.1259255386
  H        -8.6081171214        7.7695702722       23.4826107320
  H        -8.5788030075        8.4399515356       25.1373349507
  H        -3.3406896489        9.9809992750        7.5198005652
  H         3.1835194484        0.5398080259        6.4133370831
  H        -3.1928174303        0.8249689238        8.1677125024
  H         1.2871693880       10.0154005652        8.5831082791
  H         1.1883069883        0.6275609802        9.6159906087
  H         1.2145605696        0.8222967055        7.8458992744
  C        -3.8298597261        7.8869877178       16.0961073518
  C        -6.2842933179       10.4189372754       18.2413717906
  C        -3.8948259367        2.1887006628       16.7908739770
  C        -3.2320558034       10.9079082374       13.8310260806
  C       -13.7312324031        7.7790749997       31.3080174788
  C       -11.3888906723       10.3209402488       29.5973836561
  C       -13.6475546157        1.9998794890       31.3262599085
  C         1.2318312043       10.6920671771        2.2089301758
  C       -10.7252395930       10.3961695267       28.2653999168
  C        -9.4703703258        0.2594462414       28.0411243565
  C        -8.9744825143        0.4041053601       26.7431383306
  C        -9.6640701380       -0.1292841757       25.6409381450
  C       -10.9064173905        9.9805605056       25.8776687199
  C       -11.4219860935        9.8563999347       27.1649764306
  C        -9.1760361059        0.0953668775       24.2442541782
  C        -8.5499597477        9.9294992991       23.5522147540
  C        -6.7880942798        0.0131842175       21.9433519940
  C        -8.0477590722       10.1476490747       22.1596331694
  C        -8.7278879985        9.6186485619       21.0484948602
  C        -8.2045492706        9.7420762631       19.7595377175
  C        -6.9634235900       10.3663899361       19.5598644819
  C        -6.2412786032        0.1110388839       20.6670999837
  C         0.6627521395       -0.0215868034        3.5707179664
  C         1.1411898286       10.0334511962        4.6480610809
  C         0.4780978934       10.0408922026        5.8736988181
  C        -0.6407186228        0.0340976251        6.0997016402
  C        -1.1338291306        0.7711625319        4.9990014893
  C        -0.5122317749        0.7244923037        3.7572870245
  C        -1.3311301932        0.0780129196        7.4182130591
  C        -0.6576364983        0.1114462148        8.6077625890
  C        -0.9087469894        0.9863446944       10.9597707965
  C        -1.3579580117        0.1384107506        9.9223549384
  C        -2.4969868522       10.0993239941       10.2072070370
  C        -3.1513768697       10.1361258850       11.4362624753
  C        -2.6414297805        0.1831711737       12.4559885166
  C        -1.5233607140        0.9952614021       12.2049062161
  C        -3.8637717195        6.4542720665       16.6158835388
  C        -4.9128516018        5.8383403859       17.3757072257
  C        -2.8157315998        5.6984783037       16.1060569590
  C        -5.9359970456        6.5349418674       18.0887967484
  C        -6.9002623679        5.8368138341       18.7871169603
  C        -3.8424289070        3.6701411831       16.8606860062
  C        -2.7792818361        4.3048177192       16.2538297403
  C        -4.9157205030        4.3992113469       17.4397833932
  C        -5.9656494052        3.7212825269       18.1132069423
  C        -6.9364599507        4.4289198792       18.7668116964
  C       -13.7048927536        6.2908972575       31.2017255104
  C       -12.6112003668        5.6210310663       30.5662171573
  C       -14.7284550051        5.5806004091       31.8041707174
  C       -11.5791481250        6.3172837190       29.8738272747
  C       -10.6153573074        5.6125983545       29.1966979201
  C       -13.6554939705        3.4890313538       31.2329617207
  C       -14.7056185687        4.1743100983       31.8180210621
  C       -12.5912860107        4.1817293438       30.5800793703
  C       -11.5505920710        3.4941375284       29.8927795465
  C       -10.6064566028        4.2079618519       29.2009106295
  C        -9.5171125090        1.4533337364       23.6845313767
  C        -8.2034948062        8.5744187696       24.1159167614
  C        -2.8200572169        0.1709247930        7.3736306848
  C         0.8299367062        0.2105224209        8.6682920576
  O        -2.9882771822        8.6837628619       16.6961276633
  O        -5.3538995233        8.4428161277       15.9956456565
  O        -6.9608733243       10.5297258465       17.1057613289
  O        -5.0025241554       -0.4149117797       18.1669846421
  O        -4.8634327130        1.7155518915       16.1074049732
  O        -2.9638486437        1.5387924843       17.3633409994
  O        -2.3889529013        0.4463549564       14.7694555447
  O        -4.4303578018       10.4949638332       14.0202314036
  O       -14.7925951728        8.3792544251       30.9225389949
  O       -12.6937829168        8.3113360549       31.8094654673
  O       -10.7047092493       10.3332969808       30.7346258754
  O       -12.6341714290       10.2577831284       29.6606860496
  O       -12.6340051201        1.4649981507       31.8742572881
  O       -14.6721718997        1.3960450625       30.8621193050
  O         0.4060299189       -0.0091514881        1.2589302389
  O         2.4897231207       10.5430569599        2.0641764116
  F        -7.8713384695        6.4729866246       19.4891482625
  F        -7.9585390907        3.7762154376       19.3656866939
  F        -9.6124143361        6.2325853671       28.5363935747
  F        -9.6006385692        3.5987307984       28.5354976055
  O        -5.4005365154        7.9489095023       14.5798141265
  C        -4.0302413640        7.7322498045       14.5468044154
  O        -3.4067329807        7.4351539747       13.5678236993
     123
 i =      181, E =      -996.1991806527
 Zn        -2.5158800798       10.5701312151       16.6228750082
 Zn        -5.2850457235       10.5890567526       15.8509723932
 Zn       -15.1495988034       10.2844452580       31.2293232057
 Zn         3.1789979453       10.5986352010        0.1207839205
  H        -8.9231862586        0.7218939671       28.8581240931
  H        -8.0450031080        0.9516523342       26.5865173909
  H       -11.4573098773        9.5589584181       25.0318813788
  H       -12.3685520451        9.3434861976       27.3357484632
  H        -6.2467353251        0.4160625814       22.7990304346
  H        -9.6714452002        9.0836085689       21.1862690965
  H        -8.7488817919        9.2887686882       18.9267110226
  H        -5.2826010363        0.6001493759       20.5124327302
  H         2.0366294810        9.4205703024        4.5028977345
  H         0.8567675516        9.3987033510        6.6692351137
  H        -2.0172627664        1.3900684242        5.1098893863
  H        -0.9379453578        1.2643420832        2.9152591152
  H        -0.0690065776        1.6599621676       10.7859097775
  H        -2.8314631613        9.3818490592        9.4606037420
  H        -3.9841023687        9.4660936752       11.6395770580
  H        -1.1406853708        1.6378539561       12.9969061926
  H        -5.9635953498        7.6232214472       18.1035637165
  H        -6.0101691332        2.6382522653       18.1340685383
  H        -1.9641040444        3.7275808536       15.8246803582
  H        -2.0450681390        6.1944306021       15.5126645251
  H       -11.5395944103        7.4006668561       29.8648830073
  H       -11.5026128663        2.4057624546       29.8981678938
  H         0.0618415758        3.9441923709        0.3652500698
  H         0.0239891578        6.4448354326        0.3411808901
  H        -9.1374070166        1.5859150613       22.6605425278
  H        -9.0952785499        2.2505960674       24.3163869815
  H       -10.6031455991        1.6046343670       23.6768589453
  H        -7.1181216439        8.4239954683       24.1225176869
  H        -8.6180126859        7.7642869541       23.4769150483
  H        -8.5879452991        8.4315327466       25.1331162477
  H        -3.3385512819        9.9785532225        7.5240917710
  H         3.1857382263        0.5356122055        6.4145523034
  H        -3.1876998465        0.8239998689        8.1685961040
  H         1.2906085924       10.0119382881        8.5820661260
  H         1.1919012206        0.6246106740        9.6154586282
  H         1.2172009747        0.8191159168        7.8453092158
  C        -3.8365364362        7.8895446337       16.0899370402
  C        -6.2857262608       10.4196826406       18.2412714023
  C        -3.8940498629        2.1904606404       16.7902469369
  C        -3.2312101517       10.9088417606       13.8297964790
  C       -13.7320917598        7.7779863031       31.3080224501
  C       -11.3885707435       10.3219346428       29.5964870616
  C       -13.6484665735        1.9993148043       31.3263600785
  C         1.2325483774       10.6905115333        2.2080822945
  C       -10.7250538586       10.3948793035       28.2642233307
  C        -9.4702466536        0.2586432128       28.0392212612
  C        -8.9745709342        0.4019602520       26.7409984321
  C        -9.6647568629       -0.1307266147       25.6390050197
  C       -10.9073589500        9.9791843640       25.8763710561
  C       -11.4227636724        9.8564515529       27.1639264733
  C        -9.1759884477        0.0916629551       24.2421591657
  C        -8.5533744882        9.9234928935       23.5500222230
  C        -6.7879376662        0.0047610090       21.9440806106
  C        -8.0494395236       10.1423704825       22.1583478970
  C        -8.7301981134        9.6163974995       21.0460861752
  C        -8.2071152981        9.7430031718       19.7575051737
  C        -6.9648384043       10.3655114168       19.5594173625
  C        -6.2417901324        0.1067651461       20.6678585479
  C         0.6637231296       -0.0257495740        3.5698960745
  C         1.1439361442       10.0301649434        4.6469269395
  C         0.4812091173       10.0364883312        5.8728310793
  C        -0.6384099814        0.0283707472        6.0997506633
  C        -1.1346054914        0.7622995651        4.9981536405
  C        -0.5138394674        0.7164576740        3.7561245685
  C        -1.3284269737        0.0723708967        7.4183304690
  C        -0.6543439127        0.1083326740        8.6074558774
  C        -0.9077518074        0.9868400912       10.9578890454
  C        -1.3551298573        0.1363213126        9.9218699241
  C        -2.4933479838       10.0963129433       10.2080270275
  C        -3.1474512568       10.1337997056       11.4369229214
  C        -2.6399500024        0.1843193324       12.4551253772
  C        -1.5230807534        0.9974752696       12.2029091630
  C        -3.8695202098        6.4575316878       16.6102859758
  C        -4.9148115498        5.8414044821       17.3746383768
  C        -2.8203095108        5.7029213126       16.1009015115
  C        -5.9394131512        6.5374606523       18.0863481741
  C        -6.9016064683        5.8385567788       18.7865972186
  C        -3.8419373788        3.6731153165       16.8603479674
  C        -2.7815171699        4.3093405474       16.2496138556
  C        -4.9146318679        4.4021953730       17.4410006230
  C        -5.9626639409        3.7242135438       18.1167744884
  C        -6.9360525957        4.4305199024       18.7680878275
  C       -13.7061958698        6.2895936781       31.2018828532
  C       -12.6142429716        5.6189167371       30.5640968573
  C       -14.7304989731        5.5799457323       31.8035128719
  C       -11.5820616821        6.3148075356       29.8715893302
  C       -10.6168817661        5.6111481879       29.1960681748
  C       -13.6588827582        3.4881321891       31.2326640367
  C       -14.7076916094        4.1735746703       31.8202163122
  C       -12.5946083819        4.1797651969       30.5782832740
  C       -11.5544865866        3.4918899920       29.8897451918
  C       -10.6087198278        4.2063714890       29.1994114489
  C        -9.5111208127        1.4515875122       23.6828094033
  C        -8.2114952686        8.5666784403       24.1122129394
  C        -2.8172668385        0.1679824906        7.3751227872
  C         0.8332908495        0.2072482919        8.6679795387
  O        -2.9955188470        8.6855849141       16.6929024921
  O        -5.3667679415        8.4415623306       15.9835558511
  O        -6.9612452232       10.5298047335       17.1054082341
  O        -5.0032803517       -0.4155961024       18.1664177901
  O        -4.8631101940        1.7167201081       16.1075775960
  O        -2.9638875099        1.5396963791       17.3635884930
  O        -2.3881763391        0.4477517420       14.7687194344
  O        -4.4290553048       10.4953015781       14.0185043229
  O       -14.7928751794        8.3792606506       30.9223862785
  O       -12.6938644669        8.3092740330       31.8088164770
  O       -10.7044803766       10.3325631674       30.7338052937
  O       -12.6338384396       10.2571724036       29.6603815570
  O       -12.6346175159        1.4648945562       31.8744185765
  O       -14.6726324808        1.3951235793       30.8621255896
  O         0.4062404373       -0.0095529477        1.2585539634
  O         2.4905221366       10.5426468551        2.0632156192
  F        -7.8717394445        6.4728684777       19.4906474289
  F        -7.9588049435        3.7769894331       19.3660998737
  F        -9.6125859720        6.2319031646       28.5361349515
  F        -9.6013115923        3.5990282785       28.5354145508
  O        -5.4021087434        7.9493536242       14.5676023042
  C        -4.0329135316        7.7358131923       14.5409990328
  O        -3.4045047846        7.4346630695       13.5661419215
     123
 i =      182, E =      -996.1992325123
 Zn        -2.5166188635       10.5703909151       16.6253403375
 Zn        -5.2861671590       10.5893748493       15.8512143357
 Zn       -15.1495169783       10.2843138755       31.2295519370
 Zn         3.1793678088       10.5989838323        0.1204869510
  H        -8.9236479191        0.7225794270       28.8579196513
  H        -8.0450506678        0.9524104581       26.5862817570
  H       -11.4567042046        9.5584232276       25.0314746481
  H       -12.3680699945        9.3427829305       27.3354481751
  H        -6.2478380633        0.4159296358       22.7989833770
  H        -9.6708761208        9.0812930374       21.1865166866
  H        -8.7487929656        9.2878919260       18.9267545894
  H        -5.2834376404        0.6012657886       20.5126316150
  H         2.0368965625        9.4213184096        4.5035564385
  H         0.8569951663        9.3985524178        6.6698091926
  H        -2.0178161259        1.3896745021        5.1108388896
  H        -0.9382693985        1.2645140254        2.9162869726
  H        -0.0682905117        1.6592583555       10.7876364115
  H        -2.8323172816        9.3828500054        9.4609876117
  H        -3.9838499347        9.4651011973       11.6411535135
  H        -1.1408143395        1.6374480358       12.9984575686
  H        -5.9655249277        7.6236359927       18.1100683449
  H        -6.0093187082        2.6389544934       18.1319020850
  H        -1.9627170031        3.7343815765       15.8256019006
  H        -2.0467437817        6.2003352449       15.5151048729
  H       -11.5407617709        7.4016352865       29.8696097974
  H       -11.5016398011        2.4066082782       29.8957004434
  H         0.0616223656        3.9434760717        0.3658406858
  H         0.0232888164        6.4443691945        0.3412148537
  H        -9.1372098319        1.5866532468       22.6606640274
  H        -9.0952753263        2.2503780030       24.3170838787
  H       -10.6030655607        1.6048679042       23.6771927442
  H        -7.1185182338        8.4237710953       24.1221912371
  H        -8.6183248176        7.7642057433       23.4763161017
  H        -8.5885531593        8.4306065613       25.1327753743
  H        -3.3394625147        9.9786438988        7.5265469119
  H         3.1849796987        0.5342368526        6.4152557378
  H        -3.1881069464        0.8252273345        8.1688661912
  H         1.2896168584       10.0117133413        8.5817303928
  H         1.1912719778        0.6236834798        9.6166085391
  H         1.2166697572        0.8201493236        7.8469313746
  C        -3.8399741115        7.8915993194       16.0889588877
  C        -6.2865519380       10.4204418023       18.2413832409
  C        -3.8943956399        2.1922421506       16.7898348814
  C        -3.2312432326       10.9082047846       13.8306949518
  C       -13.7315738505        7.7775920951       31.3077553482
  C       -11.3885417987       10.3218207704       29.5964937435
  C       -13.6490754150        1.9991949811       31.3272116901
  C         1.2324925282       10.6909663547        2.2083294576
  C       -10.7250572493       10.3949280431       28.2642205725
  C        -9.4705036197        0.2590798197       28.0388998699
  C        -8.9747127759        0.4029901845       26.7407825239
  C        -9.6644904745       -0.1314082513       25.6391418050
  C       -10.9072980242        9.9791035492       25.8761838728
  C       -11.4224344772        9.8562230576       27.1637930194
  C        -9.1755273525        0.0922034057       24.2426462479
  C        -8.5544301980        9.9231359676       23.5500379583
  C        -6.7887190673        0.0044188950       21.9442143222
  C        -8.0500257910       10.1414631419       22.1584656931
  C        -8.7300401273        9.6149087263       21.0461360067
  C        -8.2074023058        9.7428427158       19.7575077893
  C        -6.9653563073       10.3657005972       19.5596742434
  C        -6.2424852259        0.1074957597       20.6680864202
  C         0.6629824388       -0.0262541901        3.5700761305
  C         1.1440155345       10.0306976121        4.6475916073
  C         0.4813557105       10.0365152204        5.8736331988
  C        -0.6390915800        0.0275659440        6.1002567112
  C        -1.1350534510        0.7620285260        4.9989754037
  C        -0.5138516416        0.7166542743        3.7570935635
  C        -1.3287324311        0.0729087089        7.4192033092
  C        -0.6551224987        0.1082082534        8.6085257091
  C        -0.9078453168        0.9869163813       10.9592159119
  C        -1.3553359640        0.1363665613        9.9232044450
  C        -2.4940580957       10.0967123553       10.2089224328
  C        -3.1474118120       10.1329831796       11.4380666956
  C        -2.6404447964        0.1840272579       12.4560291635
  C        -1.5229632411        0.9967451141       12.2044106550
  C        -3.8724874274        6.4603677984       16.6096390207
  C        -4.9165566366        5.8432850973       17.3750621324
  C        -2.8220642995        5.7077377935       16.1012799188
  C        -5.9404480301        6.5380294556       18.0886419217
  C        -6.9019041210        5.8382974427       18.7882363346
  C        -3.8424326323        3.6754938494       16.8584757477
  C        -2.7811131532        4.3137589972       16.2510851220
  C        -4.9147073859        4.4039153674       17.4412446716
  C        -5.9620720348        3.7247887204       18.1169375696
  C        -6.9357208039        4.4305737274       18.7690021152
  C       -13.7068607825        6.2890569108       31.2027095259
  C       -12.6143223323        5.6192783534       30.5656095853
  C       -14.7307523895        5.5791090606       31.8048401028
  C       -11.5816535041        6.3155441635       29.8738123106
  C       -10.6169813748        5.6119409955       29.1976534538
  C       -13.6585146201        3.4878698532       31.2330596273
  C       -14.7080524320        4.1728348092       31.8200776424
  C       -12.5945169420        4.1801572796       30.5787068116
  C       -11.5543304566        3.4925599834       29.8897928711
  C       -10.6081047872        4.2068525808       29.1995824235
  C        -9.5110585029        1.4517236906       23.6828775488
  C        -8.2120152110        8.5664094378       24.1119809003
  C        -2.8176744718        0.1677966141        7.3762101798
  C         0.8325197306        0.2071372718        8.6686136020
  O        -2.9991132995        8.6866531393       16.6918556894
  O        -5.3730704564        8.4435070607       15.9811004249
  O        -6.9610394204       10.5301432734       17.1055291920
  O        -5.0038010877       -0.4140790399       18.1661396321
  O        -4.8630561750        1.7174440015       16.1074824990
  O        -2.9636850193        1.5411894747       17.3629198322
  O        -2.3884976755        0.4468844375       14.7690020496
  O        -4.4295915719       10.4945020156       14.0194565474
  O       -14.7926556381        8.3789088438       30.9229724644
  O       -12.6940499470        8.3086115985       31.8101584326
  O       -10.7043725745       10.3326067120       30.7337878382
  O       -12.6338157458       10.2571761720       29.6604421676
  O       -12.6344175468        1.4649784394       31.8738889641
  O       -14.6725333223        1.3946437238       30.8616191989
  O         0.4060672494       -0.0098307470        1.2587430760
  O         2.4902769389       10.5423758008        2.0633829604
  F        -7.8727166852        6.4726568347       19.4912481238
  F        -7.9589795120        3.7770805646       19.3652651776
  F        -9.6131116988        6.2330832432       28.5367263335
  F        -9.6014083366        3.5990791541       28.5355532375
  O        -5.4048844654        7.9493878564       14.5689011984
  C        -4.0370794426        7.7396480117       14.5399594412
  O        -3.4064330512        7.4353069606       13.5674846631
     123
 i =      183, E =      -996.1992711640
 Zn        -2.5170812539       10.5705838854       16.6294809681
 Zn        -5.2868994376       10.5886549389       15.8512940174
 Zn       -15.1493797734       10.2845574335       31.2297239462
 Zn         3.1794687026       10.5996543428        0.1211193381
  H        -8.9245367235        0.7232912586       28.8581098017
  H        -8.0460263645        0.9533436070       26.5862000596
  H       -11.4559160042        9.5570229533       25.0316511109
  H       -12.3678288462        9.3414193196       27.3355917861
  H        -6.2496106072        0.4169239766       22.7983667943
  H        -9.6716958431        9.0804687799       21.1868414932
  H        -8.7481992891        9.2847868219       18.9275013247
  H        -5.2834109792        0.5994415762       20.5126915088
  H         2.0377461267        9.4234554199        4.5051497417
  H         0.8577014642        9.3999655633        6.6710581914
  H        -2.0184176007        1.3899836205        5.1118827889
  H        -0.9381995173        1.2655216751        2.9175440107
  H        -0.0691019189        1.6595873721       10.7898011147
  H        -2.8315201592        9.3823148416        9.4611221676
  H        -3.9847655482        9.4641409815       11.6413422141
  H        -1.1432401832        1.6372362339       13.0000646822
  H        -5.9633087524        7.6219635724       18.1192885668
  H        -6.0121395327        2.6371410768       18.1267996626
  H        -1.9607950445        3.7350709622       15.8287026878
  H        -2.0439598301        6.2006891801       15.5212637902
  H       -11.5425895277        7.4050159552       29.8737339535
  H       -11.4951993018        2.4098026804       29.8944367327
  H         0.0633483111        3.9431241437        0.3642205970
  H         0.0230982077        6.4443816060        0.3397404213
  H        -9.1377252211        1.5876004191       22.6618806486
  H        -9.0954833333        2.2502611520       24.3188744107
  H       -10.6032795872        1.6051536097       23.6788587767
  H        -7.1203412208        8.4227055578       24.1223879335
  H        -8.6202299026        7.7641574381       23.4755983231
  H        -8.5907866644        8.4296437851       25.1322921997
  H        -3.3396006857        9.9771647656        7.5270999576
  H         3.1835902192        0.5324157050        6.4161906563
  H        -3.1901966971        0.8230597611        8.1698343534
  H         1.2880523299       10.0108421932        8.5835021037
  H         1.1896554708        0.6231379506        9.6178898572
  H         1.2161675325        0.8195800506        7.8487329655
  C        -3.8380187148        7.8914083914       16.0891064486
  C        -6.2863833232       10.4200352498       18.2410942100
  C        -3.8952843822        2.1926563380       16.7886975985
  C        -3.2317533797       10.9064033840       13.8323634986
  C       -13.7318197045        7.7779344425       31.3088123720
  C       -11.3888156872       10.3229826374       29.5966858708
  C       -13.6473545033        1.9994867854       31.3247690281
  C         1.2320781517       10.6900147471        2.2089440782
  C       -10.7249805736       10.3933906777       28.2644253475
  C        -9.4716103959        0.2605144148       28.0390304800
  C        -8.9751376842        0.4027753299       26.7410594213
  C        -9.6647894621       -0.1311339503       25.6394969892
  C       -10.9068686811        9.9778756360       25.8764503899
  C       -11.4225924742        9.8558965875       27.1639135049
  C        -9.1760575399        0.0920496120       24.2429436193
  C        -8.5552744847        9.9232456004       23.5500154320
  C        -6.7895909235        0.0045643605       21.9440022581
  C        -8.0507515374       10.1407574435       22.1582777465
  C        -8.7304298537        9.6134980287       21.0463188594
  C        -8.2074938382        9.7415444624       19.7577577627
  C        -6.9653019524       10.3635485770       19.5594466262
  C        -6.2428545586        0.1059589229       20.6679170406
  C         0.6627956777       -0.0255181281        3.5708144004
  C         1.1441356677       10.0320026541        4.6486015182
  C         0.4813680573       10.0372290981        5.8746445293
  C        -0.6394105582        0.0278646978        6.1013238681
  C        -1.1359121650        0.7620373485        4.9999728494
  C        -0.5141665658        0.7171853007        3.7582531436
  C        -1.3293691248        0.0721202350        7.4203230127
  C        -0.6562598577        0.1084009386        8.6098220299
  C        -0.9085704937        0.9867656775       10.9605454754
  C        -1.3560245585        0.1357908280        9.9246261145
  C        -2.4945614790       10.0957510663       10.2100760150
  C        -3.1479016902       10.1317437088       11.4393078226
  C        -2.6410534534        0.1823892583       12.4576327107
  C        -1.5241431791        0.9961552817       12.2056211844
  C        -3.8733506908        6.4605622675       16.6087480018
  C        -4.9173817672        5.8427452030       17.3748611939
  C        -2.8214834743        5.7080420879       16.1043508043
  C        -5.9399673163        6.5364666505       18.0908300541
  C        -6.9005983338        5.8361016582       18.7903061369
  C        -3.8429906900        3.6752559673       16.8580246821
  C        -2.7806379261        4.3137313462       16.2520967426
  C        -4.9165143761        4.4032303874       17.4392334724
  C        -5.9632707077        3.7230403773       18.1153068977
  C        -6.9364659755        4.4286899679       18.7690432988
  C       -13.7062306028        6.2896569214       31.2023005925
  C       -12.6135250251        5.6205636678       30.5656945680
  C       -14.7302086288        5.5795171803       31.8042116013
  C       -11.5801229835        6.3184714863       29.8761514312
  C       -10.6162671427        5.6151118343       29.1981659102
  C       -13.6568427942        3.4884353123       31.2323756680
  C       -14.7070915898        4.1734561661       31.8182532263
  C       -12.5922924356        4.1813725697       30.5798536662
  C       -11.5518927782        3.4952786262       29.8899599339
  C       -10.6058612889        4.2098054853       29.2006777798
  C        -9.5112612690        1.4520010779       23.6841342848
  C        -8.2138836509        8.5659628726       24.1117166367
  C        -2.8184892166        0.1665676093        7.3772905041
  C         0.8314274362        0.2063825113        8.6697716861
  O        -3.0002360557        8.6868393510       16.6937543831
  O        -5.3721257396        8.4460894380       15.9777731361
  O        -6.9606974736       10.5300381479       17.1059824972
  O        -5.0033916480       -0.4144977066       18.1666365686
  O        -4.8633986907        1.7167152138       16.1072205984
  O        -2.9638729195        1.5421972049       17.3624410524
  O        -2.3890000271        0.4454149416       14.7692284199
  O        -4.4309850037       10.4942933630       14.0218230408
  O       -14.7923343683        8.3791746901       30.9224861393
  O       -12.6941075201        8.3090237182       31.8104861406
  O       -10.7044234868       10.3322005260       30.7339116423
  O       -12.6339358068       10.2564190394       29.6606439950
  O       -12.6341298280        1.4653974097       31.8741165807
  O       -14.6725519174        1.3952933273       30.8621062254
  O         0.4061116186       -0.0091153906        1.2589375399
  O         2.4899614167       10.5432069720        2.0636929767
  F        -7.8730143916        6.4719462260       19.4907319124
  F        -7.9594626351        3.7762874083       19.3650168359
  F        -9.6124778857        6.2340167100       28.5359456400
  F        -9.6016019537        3.5990902927       28.5359215826
  O        -5.4017233620        7.9492213275       14.5674510194
  C        -4.0354073919        7.7410554125       14.5381179791
  O        -3.4056318586        7.4349521895       13.5656695230
     123
 i =      184, E =      -996.1992915383
 Zn        -2.5169543686       10.5705708572       16.6304028040
 Zn        -5.2864572572       10.5885210354       15.8512493671
 Zn       -15.1494265733       10.2848506069       31.2297053126
 Zn         3.1792766361       10.5996434049        0.1209291826
  H        -8.9245842403        0.7229122983       28.8576346267
  H        -8.0462253449        0.9522558881       26.5855840401
  H       -11.4563300210        9.5562890704       25.0316495865
  H       -12.3684269392        9.3413739620       27.3355056743
  H        -6.2497688784        0.4139349840       22.7987262073
  H        -9.6734059588        9.0809904057       21.1853529531
  H        -8.7490876665        9.2849155471       18.9266650485
  H        -5.2824426147        0.5956082576       20.5133038562
  H         2.0393753291        9.4236946177        4.5054646307
  H         0.8595965510        9.3999019104        6.6713537843
  H        -2.0190629579        1.3865896729        5.1117655348
  H        -0.9389707302        1.2628751535        2.9175185188
  H        -0.0697705838        1.6603137420       10.7893570096
  H        -2.8287712079        9.3799637546        9.4618337891
  H        -3.9834346038        9.4626868072       11.6413888358
  H        -1.1445689923        1.6386019939       12.9991053054
  H        -5.9631299115        7.6210475095       18.1199736577
  H        -6.0126978800        2.6360526460       18.1260881793
  H        -1.9613093073        3.7339872677       15.8283848424
  H        -2.0441803558        6.1995170432       15.5205754461
  H       -11.5437258964        7.4061267752       29.8734634327
  H       -11.4933635059        2.4108448682       29.8936027521
  H         0.0640739665        3.9429068436        0.3634534644
  H         0.0231622559        6.4441788679        0.3393147482
  H        -9.1352538249        1.5867978494       22.6621148159
  H        -9.0929297380        2.2488856124       24.3193964157
  H       -10.6012723612        1.6057099821       23.6785114294
  H        -7.1237884987        8.4184636728       24.1216642890
  H        -8.6243629932        7.7623815123       23.4737669577
  H        -8.5947383922        8.4268757631       25.1308144459
  H        -3.3388378747        9.9748902377        7.5275135912
  H         3.1839161338        0.5303480701        6.4168542990
  H        -3.1895940950        0.8209252970        8.1705035305
  H         1.2888666389       10.0093212920        8.5844710032
  H         1.1901927966        0.6223398910        9.6180350451
  H         1.2169341627        0.8178047377        7.8488500888
  C        -3.8382056540        7.8916955234       16.0881396534
  C        -6.2862507720       10.4188644138       18.2410581639
  C        -3.8954617914        2.1919540894       16.7891855381
  C        -3.2317995565       10.9060130401       13.8329747442
  C       -13.7316216357        7.7783493926       31.3075526561
  C       -11.3887862059       10.3220073138       29.5964680345
  C       -13.6473916174        1.9999388677       31.3251602085
  C         1.2324299050       10.6912589006        2.2089078728
  C       -10.7254833104       10.3942992053       28.2640035874
  C        -9.4713358319        0.2591107987       28.0386888579
  C        -8.9756854325        0.4026724593       26.7405351641
  C        -9.6647533487       -0.1329183670       25.6390317787
  C       -10.9073907121        9.9778136989       25.8763355316
  C       -11.4227760011        9.8547046740       27.1638526819
  C        -9.1759493226        0.0909349026       24.2426233801
  C        -8.5567558012        9.9211570641       23.5493410341
  C        -6.7895646391        0.0016991342       21.9440598029
  C        -8.0514685745       10.1392297332       22.1579270149
  C        -8.7314720604        9.6131719010       21.0456209890
  C        -8.2078405077        9.7402418392       19.7571917083
  C        -6.9654542635       10.3623994583       19.5593210028
  C        -6.2424214851        0.1030447671       20.6681988581
  C         0.6627709019       -0.0273077793        3.5708101797
  C         1.1452048921       10.0313237961        4.6488695077
  C         0.4823149371       10.0364308990        5.8748291867
  C        -0.6392044348        0.0259550253        6.1016432308
  C        -1.1359044442        0.7595037533        5.0000621722
  C        -0.5145770762        0.7147326001        3.7581555833
  C        -1.3290787110        0.0704950953        7.4206830009
  C        -0.6552802473        0.1069132040        8.6098702306
  C        -0.9087859975        0.9868972900       10.9603291075
  C        -1.3548723620        0.1347726362        9.9248045762
  C        -2.4929268505       10.0942487512       10.2104967039
  C        -3.1465400443       10.1303496473       11.4397277027
  C        -2.6410976504        0.1818757184       12.4579109223
  C        -1.5245305175        0.9962987637       12.2052841445
  C        -3.8738752146        6.4604181898       16.6080128555
  C        -4.9184947626        5.8419452900       17.3726437907
  C        -2.8228973506        5.7070585664       16.1027867045
  C        -5.9397596890        6.5356189044       18.0905727960
  C        -6.9008602158        5.8353495094       18.7894436096
  C        -3.8440575457        3.6743521667       16.8564417034
  C        -2.7813296601        4.3128107817       16.2517247703
  C        -4.9169129659        4.4023322595       17.4388488664
  C        -5.9643441452        3.7221871485       18.1141604494
  C        -6.9365582085        4.4279530640       18.7693453152
  C       -13.7062353718        6.2900621488       31.2020534626
  C       -12.6131166259        5.6212384906       30.5659425213
  C       -14.7303767520        5.5794544103       31.8030619838
  C       -11.5806893262        6.3194971138       29.8751037866
  C       -10.6156989736        5.6162283493       29.1982904633
  C       -13.6563700008        3.4888683523       31.2310909754
  C       -14.7066084915        4.1734432267       31.8176570753
  C       -12.5922826250        4.1820049712       30.5783802295
  C       -11.5508642227        3.4962796197       29.8900791856
  C       -10.6060338313        4.2108999319       29.1999405841
  C        -9.5094356088        1.4514322978       23.6841437572
  C        -8.2170960678        8.5632142081       24.1105093733
  C        -2.8182364391        0.1643648955        7.3777749535
  C         0.8323189483        0.2049659373        8.6702312511
  O        -3.0026030852        8.6872895342       16.6942700114
  O        -5.3741750136        8.4465486680       15.9734505844
  O        -6.9609201581       10.5301697073       17.1062033677
  O        -5.0035537792       -0.4142038388       18.1663908260
  O        -4.8635434024        1.7168652684       16.1070593209
  O        -2.9638057888        1.5419120686       17.3628839975
  O        -2.3888502469        0.4452734927       14.7694579077
  O        -4.4312273869       10.4944777284       14.0225161126
  O       -14.7926686884        8.3794642136       30.9226575698
  O       -12.6945539291        8.3091607813       31.8108400755
  O       -10.7045359924       10.3325243976       30.7337740481
  O       -12.6339572249       10.2567593035       29.6605751314
  O       -12.6338569810        1.4653431485       31.8733318697
  O       -14.6721050891        1.3955526917       30.8614961076
  O         0.4060323226       -0.0100448273        1.2590430044
  O         2.4900390156       10.5422897321        2.0635612941
  F        -7.8726620664        6.4720095090       19.4904670735
  F        -7.9594603108        3.7761434532       19.3655119715
  F        -9.6120146886        6.2347459887       28.5366312041
  F        -9.6017935715        3.5991736081       28.5355096081
  O        -5.4005869697        7.9493266880       14.5628825408
  C        -4.0346356604        7.7404307921       14.5367000865
  O        -3.4045117890        7.4343185642       13.5647167762
     123
 i =      185, E =      -996.1993100453
 Zn        -2.5171374726       10.5703937849       16.6314930085
 Zn        -5.2862824522       10.5883520911       15.8507223974
 Zn       -15.1495575736       10.2848230678       31.2297038448
 Zn         3.1790913775       10.5995575813        0.1210759692
  H        -8.9243133421        0.7220233777       28.8578440551
  H        -8.0456412128        0.9514178652       26.5860371784
  H       -11.4566562810        9.5572097307       25.0314480897
  H       -12.3688292412        9.3421944819       27.3351959742
  H        -6.2492673290        0.4135946486       22.7990507498
  H        -9.6738222199        9.0823063318       21.1849851338
  H        -8.7492518993        9.2854862147       18.9266579164
  H        -5.2815241504        0.5941047339       20.5135663960
  H         2.0395051138        9.4236808609        4.5061095023
  H         0.8596363040        9.4001907905        6.6718062841
  H        -2.0185301421        1.3869408046        5.1121018205
  H        -0.9383154348        1.2632996399        2.9179128518
  H        -0.0697967062        1.6601887342       10.7895544294
  H        -2.8280193867        9.3795104887        9.4621767059
  H        -3.9830612368        9.4619568762       11.6413548134
  H        -1.1444029703        1.6384624729       12.9990865129
  H        -5.9629219437        7.6204190771       18.1205863679
  H        -6.0140016085        2.6353099376       18.1242755540
  H        -1.9612896455        3.7343854015       15.8294034671
  H        -2.0444926177        6.2003114700       15.5204333618
  H       -11.5430466015        7.4063011845       29.8738891775
  H       -11.4922413184        2.4111884692       29.8948655381
  H         0.0644464089        3.9424903477        0.3629305205
  H         0.0229664734        6.4436141776        0.3392387188
  H        -9.1352743020        1.5864845472       22.6624182213
  H        -9.0927471003        2.2485277240       24.3195590611
  H       -10.6010442986        1.6051743968       23.6789858403
  H        -7.1236941367        8.4181579182       24.1217648069
  H        -8.6243067391        7.7621214021       23.4740681445
  H        -8.5945082997        8.4270586240       25.1308736935
  H        -3.3388880563        9.9736498345        7.5269181945
  H         3.1839588253        0.5299655418        6.4168083936
  H        -3.1900274824        0.8198187769        8.1706698945
  H         1.2891042869       10.0093246077        8.5853106280
  H         1.1901398555        0.6228460402        9.6181328299
  H         1.2168202886        0.8173815628        7.8485697559
  C        -3.8393287733        7.8923351491       16.0900815727
  C        -6.2857548344       10.4197620417       18.2412477451
  C        -3.8950844517        2.1915718925       16.7888756863
  C        -3.2318521340       10.9053771820       13.8329843487
  C       -13.7319312087        7.7785223001       31.3081850821
  C       -11.3888725138       10.3214613729       29.5964357416
  C       -13.6470918523        2.0000593166       31.3249064647
  C         1.2323173302       10.6903398830        2.2090450941
  C       -10.7255150057       10.3942750328       28.2640200819
  C        -9.4711080309        0.2585252316       28.0388359809
  C        -8.9751218087        0.4017071771       26.7407640018
  C        -9.6648364431       -0.1324677655       25.6391930023
  C       -10.9073071894        9.9775932171       25.8762740946
  C       -11.4230772484        9.8554073269       27.1637458375
  C        -9.1758434261        0.0905055227       24.2427088727
  C        -8.5562138598        9.9209993961       23.5495870526
  C        -6.7891498372        0.0012112905       21.9442424112
  C        -8.0512014340       10.1390549060       22.1580764087
  C        -8.7316416004        9.6141397692       21.0455494497
  C        -8.2074070101        9.7398944842       19.7571869863
  C        -6.9648862635       10.3620614132       19.5595428332
  C        -6.2416662012        0.1021032935       20.6685938527
  C         0.6633543939       -0.0269998717        3.5712309785
  C         1.1450127566       10.0308605163        4.6490139901
  C         0.4823551733       10.0364219539        5.8750864735
  C        -0.6393053500        0.0256603033        6.1017686384
  C        -1.1355854976        0.7595775178        5.0003553075
  C        -0.5144740677        0.7145274562        3.7583512089
  C        -1.3293828164        0.0704029610        7.4206813253
  C        -0.6551906216        0.1065675614        8.6097504838
  C        -0.9087960663        0.9868013136       10.9606886634
  C        -1.3544911819        0.1349128574        9.9248955553
  C        -2.4921790339       10.0941206275       10.2105333905
  C        -3.1461223363       10.1296116133       11.4397170457
  C        -2.6411985699        0.1814832613       12.4576874109
  C        -1.5243848235        0.9959259600       12.2055972751
  C        -3.8745836114        6.4602319321       16.6084205575
  C        -4.9191367025        5.8413154641       17.3726368708
  C        -2.8237967434        5.7071699604       16.1021536943
  C        -5.9400354737        6.5351483409       18.0904495845
  C        -6.9017378277        5.8351978608       18.7888568579
  C        -3.8444230157        3.6739696643       16.8560193328
  C        -2.7822892694        4.3131062893       16.2516056117
  C        -4.9183015756        4.4016095530       17.4370805862
  C        -5.9656590326        3.7216403321       18.1128064216
  C        -6.9371108779        4.4277806126       18.7684560254
  C       -13.7062320726        6.2903211646       31.2021141901
  C       -12.6124716645        5.6214806966       30.5667319654
  C       -14.7302185052        5.5792918319       31.8030520539
  C       -11.5803247369        6.3197632011       29.8754466439
  C       -10.6153383145        5.6162286283       29.1983430857
  C       -13.6558166582        3.4890495433       31.2311608801
  C       -14.7064072592        4.1732413281       31.8174160031
  C       -12.5919119647        4.1822445368       30.5785456781
  C       -11.5502161248        3.4966587983       29.8907965850
  C       -10.6060726307        4.2110138575       29.2000978670
  C        -9.5092289233        1.4510624711       23.6844470699
  C        -8.2168376892        8.5629646595       24.1105372867
  C        -2.8185720377        0.1634268153        7.3775861280
  C         0.8322952907        0.2050291547        8.6705057058
  O        -3.0043449003        8.6880702906       16.6953919562
  O        -5.3759637308        8.4473019445       15.9759032291
  O        -6.9613425130       10.5300679446       17.1064292914
  O        -5.0034943596       -0.4139075591       18.1665275874
  O        -4.8636105909        1.7167533651       16.1071729065
  O        -2.9638437488        1.5417263093       17.3632680990
  O        -2.3889964945        0.4446509893       14.7698407365
  O        -4.4315793110       10.4943279000       14.0228527499
  O       -14.7928009331        8.3794738674       30.9225965993
  O       -12.6945798095        8.3096693357       31.8106496587
  O       -10.7046177605       10.3327343718       30.7337341572
  O       -12.6340845509       10.2569829269       29.6605217718
  O       -12.6338807595        1.4651885577       31.8733696759
  O       -14.6719984888        1.3957469472       30.8616182546
  O         0.4060842440       -0.0095263275        1.2591277681
  O         2.4901206453       10.5427536115        2.0636897771
  F        -7.8729760037        6.4725591852       19.4898728416
  F        -7.9591097580        3.7762228300       19.3660260020
  F        -9.6123553397        6.2343895949       28.5363111208
  F        -9.6013180665        3.5990404943       28.5356385005
  O        -5.4037049826        7.9501213460       14.5653201725
  C        -4.0369212748        7.7404041421       14.5395129352
  O        -3.4072577557        7.4353497583       13.5668641142
     123
 i =      186, E =      -996.1993261262
 Zn        -2.5169334025       10.5709050253       16.6316221932
 Zn        -5.2861843994       10.5874083203       15.8500362407
 Zn       -15.1496361365       10.2848100766       31.2298043586
 Zn         3.1791747357       10.5995681441        0.1208103370
  H        -8.9237751823        0.7204695038       28.8573386743
  H        -8.0451503845        0.9494052332       26.5856354915
  H       -11.4577109361        9.5573046754       25.0311711312
  H       -12.3697090865        9.3430965861       27.3349882354
  H        -6.2483786819        0.4087340050       22.8001342320
  H        -9.6757988467        9.0837576533       21.1832239302
  H        -8.7504017234        9.2870820777       18.9256530443
  H        -5.2802284959        0.5896600588       20.5147421984
  H         2.0410094039        9.4233101498        4.5063631116
  H         0.8617202484        9.3994384803        6.6722529160
  H        -2.0191863719        1.3833193199        5.1121681244
  H        -0.9391356561        1.2600393346        2.9179481521
  H        -0.0705271474        1.6608845942       10.7888062319
  H        -2.8250568309        9.3761655196        9.4632673965
  H        -3.9809455694        9.4590710704       11.6417179758
  H        -1.1453176471        1.6395979435       12.9980508066
  H        -5.9636062454        7.6206546014       18.1180748806
  H        -6.0142568723        2.6351931164       18.1241483738
  H        -1.9619708940        3.7349577896       15.8281229694
  H        -2.0462484164        6.2013771819       15.5181700742
  H       -11.5422773086        7.4060991763       29.8726229811
  H       -11.4925280380        2.4109061397       29.8952894753
  H         0.0648907271        3.9422061141        0.3622830575
  H         0.0227288465        6.4431091259        0.3388735842
  H        -9.1322052292        1.5851217586       22.6625447678
  H        -9.0895172408        2.2466427120       24.3197685902
  H       -10.5983947010        1.6055005486       23.6783338665
  H        -7.1272802696        8.4133269047       24.1207610556
  H        -8.6284833518        7.7598305271       23.4722373280
  H        -8.5982830078        8.4240446427       25.1292983338
  H        -3.3378979726        9.9711644323        7.5274065180
  H         3.1846035594        0.5275739515        6.4174572594
  H        -3.1891055716        0.8169105576        8.1711086563
  H         1.2904626573       10.0082276833        8.5869057928
  H         1.1908812388        0.6221400288        9.6183645559
  H         1.2179990461        0.8151675292        7.8482843268
  C        -3.8407791380        7.8920364002       16.0900500996
  C        -6.2852576550       10.4186607992       18.2415160318
  C        -3.8952124669        2.1916382876       16.7885442801
  C        -3.2315848811       10.9055082278       13.8325285964
  C       -13.7322229142        7.7785218497       31.3084457773
  C       -11.3889778084       10.3213029355       29.5962962303
  C       -13.6468638917        1.9998850387       31.3243897941
  C         1.2326161588       10.6895288663        2.2090079063
  C       -10.7257893134       10.3941106351       28.2637636040
  C        -9.4708410636        0.2571629592       28.0384487372
  C        -8.9749532865        0.4002838770       26.7403088048
  C        -9.6649227368       -0.1338985123       25.6388198485
  C       -10.9080693986        9.9776053629       25.8759225663
  C       -11.4235144710        9.8552655385       27.1635077537
  C        -9.1757043460        0.0887127740       24.2423671184
  C        -8.5570264436        9.9188106902       23.5490230668
  C        -6.7888340595       -0.0022400663       21.9448898838
  C        -8.0517481739       10.1369006298       22.1576500149
  C        -8.7326191197        9.6136418211       21.0444683345
  C        -8.2079551131        9.7406010036       19.7564650051
  C        -6.9643564609       10.3607302113       19.5597124796
  C        -6.2408969564        0.0987772217       20.6694897381
  C         0.6635514712       -0.0287914258        3.5711914922
  C         1.1461377072       10.0298110251        4.6490924712
  C         0.4837073331       10.0349210940        5.8753146713
  C        -0.6384949910        0.0233029010        6.1017865703
  C        -1.1360177356        0.7563820114        5.0003423832
  C        -0.5146359310        0.7119329847        3.7585187207
  C        -1.3280970400        0.0677981280        7.4209002873
  C        -0.6542465175        0.1051295248        8.6101268154
  C        -0.9086988430        0.9866698196       10.9603782500
  C        -1.3537351340        0.1337979678        9.9251507179
  C        -2.4902158766       10.0918091052       10.2110770817
  C        -3.1448521646       10.1276798414       11.4398999123
  C        -2.6403717802        0.1804983147       12.4572758889
  C        -1.5248153090        0.9963827345       12.2050037242
  C        -3.8758937069        6.4595078525       16.6079450009
  C        -4.9208541517        5.8411214995       17.3712115798
  C        -2.8252435714        5.7073064032       16.0998673487
  C        -5.9412812013        6.5353467144       18.0890307275
  C        -6.9023846898        5.8351518351       18.7881896045
  C        -3.8448116420        3.6742942097       16.8553101874
  C        -2.7836758204        4.3135252091       16.2494049372
  C        -4.9197138245        4.4014165898       17.4353084208
  C        -5.9666609691        3.7216087329       18.1116165597
  C        -6.9381562829        4.4275579305       18.7672043328
  C       -13.7062199101        6.2903492269       31.2019272127
  C       -12.6127365344        5.6214238732       30.5655688550
  C       -14.7302876676        5.5791648200       31.8025806185
  C       -11.5801565897        6.3197191949       29.8751408464
  C       -10.6154486445        5.6162226760       29.1973079679
  C       -13.6556740040        3.4888942908       31.2305636524
  C       -14.7061393715        4.1730707414       31.8168303995
  C       -12.5916129741        4.1822092325       30.5786880224
  C       -11.5507451249        3.4964171354       29.8899349559
  C       -10.6064612122        4.2112776578       29.2005233537
  C        -9.5068001369        1.4499321134       23.6843343736
  C        -8.2200998385        8.5598157180       24.1091635613
  C        -2.8173150337        0.1609753113        7.3780153556
  C         0.8331998275        0.2037927810        8.6707409937
  O        -3.0088075489        8.6893513138       16.6967490651
  O        -5.3797685130        8.4471846010       15.9736189222
  O        -6.9617067664       10.5301785682       17.1068221389
  O        -5.0031666721       -0.4149444611       18.1665467649
  O        -4.8635824511        1.7159506999       16.1072829373
  O        -2.9642049228        1.5420354278       17.3631306731
  O        -2.3887732206        0.4444974573       14.7699483064
  O        -4.4312910764       10.4938786499       14.0224989107
  O       -14.7929828020        8.3795024916       30.9226475731
  O       -12.6946347586        8.3101147255       31.8101257799
  O       -10.7045469230       10.3327038344       30.7334695839
  O       -12.6342312724       10.2570697661       29.6603312293
  O       -12.6337693789        1.4653494877       31.8734006230
  O       -14.6721253440        1.3958397014       30.8616031932
  O         0.4062939904       -0.0094516900        1.2592386726
  O         2.4905392794       10.5427683334        2.0635079723
  F        -7.8724589720        6.4726371529       19.4903172303
  F        -7.9592942038        3.7756549903       19.3661023956
  F        -9.6123057509        6.2335639187       28.5355100226
  F        -9.6012199132        3.5996334482       28.5358576776
  O        -5.4035985167        7.9509603238       14.5634381149
  C        -4.0372166067        7.7407423433       14.5397059041
  O        -3.4069472434        7.4357453064       13.5674698971
     123
 i =      187, E =      -996.1993436851
 Zn        -2.5163241959       10.5716813899       16.6325392274
 Zn        -5.2853693459       10.5860961033       15.8485451102
 Zn       -15.1498186973       10.2848805727       31.2298590036
 Zn         3.1791922798       10.5994937862        0.1212286761
  H        -8.9231210874        0.7185894540       28.8573288293
  H        -8.0444520285        0.9471047639       26.5857508230
  H       -11.4587160306        9.5578909833       25.0309946769
  H       -12.3709661427        9.3442937183       27.3347809250
  H        -6.2476020001        0.4050232707       22.8010542589
  H        -9.6778626319        9.0861120668       21.1818097583
  H        -8.7509578905        9.2883066270       18.9250066777
  H        -5.2780339789        0.5848109998       20.5160932118
  H         2.0423274305        9.4229685603        4.5071324978
  H         0.8633086417        9.3993704578        6.6730946658
  H        -2.0192625457        1.3809463812        5.1124814481
  H        -0.9392161907        1.2580488176        2.9182923567
  H        -0.0713409911        1.6613414857       10.7886902589
  H        -2.8219229227        9.3727942926        9.4642322935
  H        -3.9791041520        9.4563503818       11.6418153975
  H        -1.1463872735        1.6398514176       12.9975988201
  H        -5.9630631081        7.6197327002       18.1166030542
  H        -6.0170417105        2.6340023112       18.1219833595
  H        -1.9624857267        3.7341323900       15.8276373598
  H        -2.0475227361        6.2013165534       15.5174401839
  H       -11.5408819641        7.4066043088       29.8720441205
  H       -11.4911215786        2.4113977916       29.8969300522
  H         0.0657510655        3.9416890712        0.3610335882
  H         0.0227045787        6.4424837955        0.3382958317
  H        -9.1299254867        1.5837240575       22.6630017074
  H        -9.0868914735        2.2448901499       24.3203443379
  H       -10.5963863964        1.6053824895       23.6783965177
  H        -7.1298794200        8.4091786099       24.1202242708
  H        -8.6318084111        7.7581041674       23.4710285847
  H        -8.6012157904        8.4218068696       25.1284000432
  H        -3.3369223696        9.9681441327        7.5270421726
  H         3.1850518078        0.5250730052        6.4178929263
  H        -3.1890852363        0.8134017918        8.1716978877
  H         1.2914718961       10.0071770901        8.5890539584
  H         1.1909173421        0.6223278183        9.6186702410
  H         1.2188929422        0.8131511698        7.8482505501
  C        -3.8413378138        7.8905585581       16.0916295644
  C        -6.2849652535       10.4178270365       18.2419271737
  C        -3.8954564868        2.1912141734       16.7877226200
  C        -3.2310589444       10.9048613546       13.8325977058
  C       -13.7322999420        7.7788365808       31.3084364243
  C       -11.3891752853       10.3215399985       29.5962081185
  C       -13.6464726367        1.9999713279       31.3241007461
  C         1.2327703797       10.6893031303        2.2091939142
  C       -10.7259313171       10.3932106003       28.2636178146
  C        -9.4706618861        0.2560237519       28.0384480033
  C        -8.9744929348        0.3983145092       26.7403227588
  C        -9.6648124965       -0.1349984780       25.6386804708
  C       -10.9085779984        9.9775787620       25.8757671749
  C       -11.4243183741        9.8556967380       27.1632734214
  C        -9.1752257546        0.0871693437       24.2423006618
  C        -8.5577129040        9.9167002957       23.5485587474
  C        -6.7879766060       -0.0053240721       21.9454727957
  C        -8.0518802115       10.1356281232       22.1575500908
  C        -8.7333398225        9.6137909627       21.0439329384
  C        -8.2082902358        9.7410120544       19.7562200040
  C        -6.9635154193       10.3587199946       19.5602472380
  C        -6.2396709755        0.0957947196       20.6702825436
  C         0.6638649431       -0.0302300272        3.5715555237
  C         1.1470126471       10.0288371849        4.6495560961
  C         0.4845544123       10.0339435331        5.8757964992
  C        -0.6379802291        0.0216345663        6.1023625959
  C        -1.1359101725        0.7542128266        5.0007195948
  C        -0.5147159126        0.7099041532        3.7588237245
  C        -1.3274619849        0.0656875917        7.4215131196
  C        -0.6534477644        0.1038424935        8.6106683465
  C        -0.9086778609        0.9861844893       10.9601556423
  C        -1.3533118076        0.1324754907        9.9254068791
  C        -2.4886127466       10.0893544868       10.2117990868
  C        -3.1437144132       10.1258500496       11.4403842040
  C        -2.6396576436        0.1792543281       12.4574645482
  C        -1.5251419077        0.9962025130       12.2046127699
  C        -3.8771435556        6.4576840657       16.6071493643
  C        -4.9222920274        5.8397917680       17.3700938109
  C        -2.8259944225        5.7061613515       16.0990668509
  C        -5.9422441359        6.5344294811       18.0877120804
  C        -6.9036736736        5.8347457174       18.7867872274
  C        -3.8457261759        3.6737776992       16.8544088050
  C        -2.7847556230        4.3126385431       16.2477290675
  C        -4.9218191798        4.4002354508       17.4330094314
  C        -5.9688347481        3.7203789130       18.1089363145
  C        -6.9393520210        4.4270970151       18.7650850251
  C       -13.7058428748        6.2907139656       31.2017636701
  C       -12.6118200931        5.6220007134       30.5657713080
  C       -14.7299182764        5.5792192772       31.8020352250
  C       -11.5798130076        6.3202573558       29.8746208253
  C       -10.6148275303        5.6166520364       29.1972340131
  C       -13.6549632192        3.4890727701       31.2300385568
  C       -14.7055060359        4.1731128315       31.8160233001
  C       -12.5911245394        4.1827073095       30.5783410837
  C       -11.5496179380        3.4968976948       29.8909262054
  C       -10.6066527597        4.2118433690       29.2001464607
  C        -9.5049340472        1.4487972804       23.6846690285
  C        -8.2224104864        8.5572766461       24.1084484362
  C        -2.8167100123        0.1582605054        7.3783863821
  C         0.8339375289        0.2028363721        8.6713922418
  O        -3.0136656617        8.6908338995       16.6989591554
  O        -5.3810187092        8.4480371425       15.9738564786
  O        -6.9615521519       10.5298570350       17.1070962506
  O        -5.0029792883       -0.4148348345       18.1664794011
  O        -4.8635928260        1.7149592313       16.1066546816
  O        -2.9645013340        1.5424695701       17.3630652335
  O        -2.3883817799        0.4444156986       14.7700854135
  O        -4.4308242471       10.4933932577       14.0221710839
  O       -14.7932671600        8.3795548884       30.9228859934
  O       -12.6946409898        8.3106797245       31.8099177992
  O       -10.7046638388       10.3326239500       30.7333390120
  O       -12.6344172068       10.2570548710       29.6602993282
  O       -12.6334589656        1.4653669065       31.8731904890
  O       -14.6718955248        1.3960686865       30.8614789780
  O         0.4064399239       -0.0098381763        1.2594021197
  O         2.4906961311       10.5424485679        2.0636643503
  F        -7.8728385490        6.4719571294       19.4904470827
  F        -7.9596196740        3.7758672847       19.3658405187
  F        -9.6117632499        6.2338388423       28.5361255801
  F        -9.6016612677        3.5995179777       28.5353815041
  O        -5.4034276574        7.9519281748       14.5639154386
  C        -4.0374011019        7.7408798219       14.5409808983
  O        -3.4068303305        7.4363999089       13.5684550596
     123
 i =      188, E =      -996.1993763998
 Zn        -2.5157632438       10.5725339668       16.6330440517
 Zn        -5.2842351607       10.5837932536       15.8457792079
 Zn       -15.1501148674       10.2848396774       31.2301194362
 Zn         3.1791504856       10.5991758783        0.1212239845
  H        -8.9216732663        0.7146578621       28.8564772490
  H        -8.0427974574        0.9416756162       26.5849793790
  H       -11.4613762563        9.5584091925       25.0302375678
  H       -12.3737579944        9.3464323256       27.3341552424
  H        -6.2459980270        0.3932816460       22.8034411917
  H        -9.6828483228        9.0896080816       21.1778504292
  H        -8.7531818594        9.2919640027       18.9224882474
  H        -5.2735622799        0.5733359786       20.5195979422
  H         2.0464124038        9.4217605677        4.5081469762
  H         0.8683855347        9.3979743761        6.6746283962
  H        -2.0206608432        1.3719951019        5.1128672417
  H        -0.9409771243        1.2502083154        2.9186925924
  H        -0.0726992982        1.6623866623       10.7872474284
  H        -2.8143444332        9.3642613564        9.4673256263
  H        -3.9732913967        9.4496810246       11.6435476616
  H        -1.1483970551        1.6418200356       12.9959469343
  H        -5.9640698193        7.6186430009       18.1121107519
  H        -6.0216098867        2.6326542183       18.1188260990
  H        -1.9647560292        3.7336386770       15.8243627854
  H        -2.0527788351        6.2014069353       15.5132083813
  H       -11.5393654281        7.4070916811       29.8706299679
  H       -11.4901497920        2.4121820794       29.8986325895
  H         0.0664951209        3.9406429124        0.3594023757
  H         0.0224522690        6.4414459723        0.3375082406
  H        -9.1221225384        1.5800276894       22.6635693107
  H        -9.0786722310        2.2399981661       24.3214313974
  H       -10.5897443815        1.6060560318       23.6771282830
  H        -7.1383845350        8.3966168785       24.1180881870
  H        -8.6423745629        7.7525512749       23.4664747019
  H        -8.6107058462        8.4139070605       25.1248171397
  H        -3.3343935954        9.9608136968        7.5285292477
  H         3.1869010906        0.5178869977        6.4194250572
  H        -3.1871673214        0.8065988563        8.1732826499
  H         1.2945057106       10.0037784225        8.5928240364
  H         1.1923658198        0.6212563311        9.6194801971
  H         1.2216330481        0.8084148578        7.8485567315
  C        -3.8457084385        7.8885355337       16.0921700407
  C        -6.2849988271       10.4160531447       18.2424042733
  C        -3.8960363726        2.1903385550       16.7869881725
  C        -3.2294390907       10.9040178594       13.8326426811
  C       -13.7323259557        7.7791399891       31.3078748291
  C       -11.3894771536       10.3218596756       29.5958725367
  C       -13.6457927886        2.0000323274       31.3231326189
  C         1.2330427140       10.6865690937        2.2093961118
  C       -10.7263017665       10.3914097663       28.2630534643
  C        -9.4702294727        0.2532172793       28.0376818059
  C        -8.9735372035        0.3940290681       26.7396351702
  C        -9.6650159284       -0.1379557536       25.6380928055
  C       -10.9099732884        9.9762924255       25.8750515733
  C       -11.4262069831        9.8565566086       27.1626078589
  C        -9.1741800963        0.0828780260       24.2419729529
  C        -8.5603958147        9.9105817265       23.5470904858
  C        -6.7866294224       -0.0142461607       21.9467552771
  C        -8.0527382887       10.1302403483       22.1569357236
  C        -8.7357432970        9.6134962844       21.0419068574
  C        -8.2094618910        9.7408800567       19.7549528055
  C        -6.9625932943       10.3550256358       19.5609050026
  C        -6.2372599679        0.0877054049       20.6720646781
  C         0.6647670816       -0.0345098541        3.5720699911
  C         1.1497392147       10.0258193603        4.6501486513
  C         0.4877732427       10.0306729334        5.8767425887
  C        -0.6364254349        0.0158177616        6.1034773499
  C        -1.1362479041        0.7466173775        5.0014026264
  C        -0.5155243402        0.7029928825        3.7593440755
  C        -1.3254532169        0.0604328342        7.4227262452
  C        -0.6507198404        0.0993554797        8.6114980310
  C        -0.9085896363        0.9856591399       10.9593855774
  C        -1.3507358070        0.1288689918        9.9260829264
  C        -2.4838091084       10.0834683292       10.2136413126
  C        -3.1396306859       10.1211239664       11.4417474025
  C        -2.6377936175        0.1770333453       12.4578054949
  C        -1.5253394017        0.9961210018       12.2036901056
  C        -3.8810136242        6.4557690703       16.6046868762
  C        -4.9254163133        5.8376194075       17.3669651730
  C        -2.8298898669        5.7051430720       16.0951822867
  C        -5.9448252651        6.5333043194       18.0836132076
  C        -6.9058557476        5.8344598558       18.7835037130
  C        -3.8481199948        3.6730679891       16.8511560507
  C        -2.7869945020        4.3118854355       16.2443444878
  C        -4.9252775338        4.3984485381       17.4291086158
  C        -5.9724072215        3.7188136341       18.1046619795
  C        -6.9414078383        4.4267599298       18.7617524952
  C       -13.7056288948        6.2910274639       31.2017495775
  C       -12.6116255506        5.6229391966       30.5647156185
  C       -14.7297220270        5.5790289336       31.8013092752
  C       -11.5792914084        6.3206834852       29.8738113132
  C       -10.6148282214        5.6165403275       29.1961533665
  C       -13.6543956176        3.4892768024       31.2290151021
  C       -14.7050572034        4.1729026924       31.8148155704
  C       -12.5905603721        4.1835383742       30.5780112649
  C       -11.5490614363        3.4976051617       29.8909402951
  C       -10.6059403161        4.2117818801       29.1995362018
  C        -9.4987918156        1.4457917748       23.6847373842
  C        -8.2303225738        8.5493168004       24.1054296489
  C        -2.8147987556        0.1512400784        7.3800045197
  C         0.8364734320        0.1996158895        8.6728584888
  O        -3.0284159663        8.6943462651       16.7030967433
  O        -5.3886064319        8.4488297520       15.9685055970
  O        -6.9617850201       10.5292960960       17.1075080351
  O        -5.0029780343       -0.4147166646       18.1661203454
  O        -4.8639690650        1.7137033173       16.1058557520
  O        -2.9649897383        1.5426805301       17.3634139547
  O        -2.3873157147        0.4449964757       14.7702178447
  O        -4.4289541456       10.4927854849       14.0209875685
  O       -14.7938854635        8.3794637237       30.9234727354
  O       -12.6946757632        8.3109044109       31.8097104300
  O       -10.7048315346       10.3325121690       30.7329951198
  O       -12.6346952876       10.2569256587       29.6602418237
  O       -12.6333665838        1.4652811287       31.8731966729
  O       -14.6716442780        1.3960696479       30.8616253349
  O         0.4068265654       -0.0097099968        1.2596789134
  O         2.4912985698       10.5427331399        2.0636394065
  F        -7.8727173443        6.4716369461       19.4900793078
  F        -7.9601366967        3.7762347030       19.3654466116
  F        -9.6116617728        6.2341274459       28.5361292582
  F        -9.6010539465        3.5982975831       28.5354494503
  O        -5.4035974425        7.9528610187       14.5599286900
  C        -4.0383190643        7.7416020111       14.5409600787
  O        -3.4054708081        7.4365901985       13.5695410067
     123
 i =      189, E =      -996.1992499230
 Zn        -2.5154870056       10.5736764464       16.6335312464
 Zn        -5.2827043888       10.5794315208       15.8406096202
 Zn       -15.1505707089       10.2849431561       31.2306669813
 Zn         3.1790465933       10.5990412180        0.1211034408
  H        -8.9185546777        0.7062512640       28.8550985202
  H        -8.0391098116        0.9299910285       26.5837573019
  H       -11.4665675632        9.5598700642       25.0288034883
  H       -12.3796879765        9.3513424718       27.3327124970
  H        -6.2421357579        0.3685322025       22.8085065274
  H        -9.6928959524        9.0962967038       21.1703027517
  H        -8.7576785149        9.2997508539       18.9177415499
  H        -5.2648511490        0.5503878547       20.5267873147
  H         2.0544027303        9.4192744018        4.5102887952
  H         0.8787478975        9.3947315945        6.6781193133
  H        -2.0235409648        1.3543099636        5.1142659344
  H        -0.9445439059        1.2344956326        2.9200427193
  H        -0.0747769129        1.6642461499       10.7839998892
  H        -2.7996539736        9.3471406979        9.4739528472
  H        -3.9609131652        9.4358497896       11.6485535438
  H        -1.1511768802        1.6456611692       12.9929616239
  H        -5.9671216767        7.6167711162       18.1038997018
  H        -6.0323227612        2.6308637825       18.1104107925
  H        -1.9692673650        3.7343955557       15.8184270269
  H        -2.0643982553        6.2025979563       15.5044334162
  H       -11.5360919615        7.4072914789       29.8689619692
  H       -11.4887232770        2.4127995098       29.9030626442
  H         0.0668245431        3.9386849486        0.3563094182
  H         0.0217979379        6.4395944632        0.3360831699
  H        -9.1063554055        1.5726037698       22.6648710996
  H        -9.0620861452        2.2303104886       24.3238595192
  H       -10.5761543601        1.6072074818       23.6749554329
  H        -7.1554201090        8.3714396394       24.1137874499
  H        -8.6634975424        7.7411453665       23.4574942791
  H        -8.6295073275        8.3977417006       25.1176886126
  H        -3.3288703721        9.9460248923        7.5323422376
  H         3.1903973261        0.5027823167        6.4226277669
  H        -3.1837785165        0.7921497278        8.1766379416
  H         1.3005974974        9.9971439792        8.6009307012
  H         1.1952120749        0.6189419191        9.6211533595
  H         1.2270675322        0.7990571792        7.8492712723
  C        -3.8577401444        7.8854761468       16.0942489508
  C        -6.2847775052       10.4145873986       18.2428808189
  C        -3.8970387736        2.1888235251       16.7846453553
  C        -3.2264256794       10.9020836916       13.8321796252
  C       -13.7329338359        7.7791475426       31.3086580096
  C       -11.3901148336       10.3218602500       29.5952699765
  C       -13.6451111273        1.9998779536       31.3222592793
  C         1.2339521678       10.6840685774        2.2098443241
  C       -10.7273704702       10.3889030823       28.2619869576
  C        -9.4690320882        0.2468440934       28.0363891478
  C        -8.9715968741        0.3853388863       26.7384709513
  C        -9.6648444403       -0.1447537005       25.6368706419
  C       -10.9129152256        9.9749226656       25.8737941615
  C       -11.4297206892        9.8572974309       27.1613933676
  C        -9.1722761184        0.0740003621       24.2411035662
  C        -8.5650224393        9.8985705001       23.5445513124
  C        -6.7836992378       -0.0328066324       21.9495193218
  C        -8.0546092703       10.1195525984       22.1557495159
  C        -8.7404210213        9.6116549986       21.0380686972
  C        -8.2118663212        9.7413874400       19.7526552317
  C        -6.9607010846       10.3476970937       19.5617155747
  C        -6.2325428439        0.0708888701       20.6756436344
  C         0.6659078144       -0.0442444714        3.5730415504
  C         1.1551840847       10.0198261117        4.6519269820
  C         0.4942903808       10.0239384662        5.8792751648
  C        -0.6330405493        0.0044810061        6.1055300998
  C        -1.1370850608        0.7317420333        5.0028397499
  C        -0.5165887973        0.6893677537        3.7608334886
  C        -1.3208574734        0.0480577966        7.4251182176
  C        -0.6457255211        0.0915023780        8.6134003779
  C        -0.9080162739        0.9846615924       10.9578807027
  C        -1.3450551716        0.1210130773        9.9280727250
  C        -2.4744812768       10.0717481162       10.2175332051
  C        -3.1305369114       10.1108441362       11.4452229481
  C        -2.6338381891        0.1733022504       12.4582878206
  C        -1.5244687390        0.9957122502       12.2022252559
  C        -3.8893671715        6.4533034929       16.6006229815
  C        -4.9322838405        5.8338112607       17.3607771323
  C        -2.8381117021        5.7046388798       16.0887593385
  C        -5.9502415123        6.5313825237       18.0766783585
  C        -6.9106029543        5.8337479613       18.7774990177
  C        -3.8523641171        3.6718278234       16.8460116997
  C        -2.7923288472        4.3117114322       16.2373492161
  C        -4.9323122672        4.3952714395       17.4213329046
  C        -5.9803649065        3.7166070459       18.0959010512
  C        -6.9460030692        4.4259817717       18.7564910919
  C       -13.7055612735        6.2912087613       31.2010919582
  C       -12.6108547649        5.6238510987       30.5641925540
  C       -14.7292058883        5.5784756051       31.8007468915
  C       -11.5784097144        6.3208166302       29.8728823006
  C       -10.6149212399        5.6160403787       29.1947178717
  C       -13.6534868833        3.4892677437       31.2283276363
  C       -14.7047558765        4.1722822772       31.8129107854
  C       -12.5895975270        4.1842626154       30.5779635233
  C       -11.5477959351        3.4981174890       29.8919975027
  C       -10.6051075751        4.2112745455       29.1983012214
  C        -9.4862171515        1.4398537637       23.6850851327
  C        -8.2462439030        8.5331220599       24.0993459958
  C        -2.8104174246        0.1372810637        7.3836997627
  C         0.8412791057        0.1928782971        8.6756879816
  O        -3.0642761755        8.7032319872       16.7133573395
  O        -5.4063579215        8.4501025540       15.9595025521
  O        -6.9626920771       10.5277801943       17.1083052763
  O        -5.0027853028       -0.4143338893       18.1652949520
  O        -4.8651279822        1.7114083194       16.1044155893
  O        -2.9659460105        1.5428420272       17.3633712482
  O        -2.3858718628        0.4448375725       14.7704639728
  O        -4.4255594072       10.4907618936       14.0180917819
  O       -14.7944911404        8.3794272360       30.9242796794
  O       -12.6946123024        8.3112544427       31.8090944510
  O       -10.7050514221       10.3323165764       30.7323564903
  O       -12.6352902522       10.2566384808       29.6600735844
  O       -12.6330724876        1.4653448527       31.8732633120
  O       -14.6714075882        1.3960862619       30.8615633114
  O         0.4073327621       -0.0109403341        1.2604631032
  O         2.4922139440       10.5414969121        2.0634132894
  F        -7.8726542839        6.4709321268       19.4899633980
  F        -7.9615250472        3.7756641214       19.3654517314
  F        -9.6114098226        6.2352850942       28.5364570850
  F        -9.6005066889        3.5976139428       28.5347403554
  O        -5.4072969435        7.9539178927       14.5537790472
  C        -4.0438298172        7.7432487921       14.5413295433
  O        -3.4054063502        7.4383208312       13.5728965703
     123
 i =      190, E =      -996.1994146888
 Zn        -2.5162163119       10.5726075044       16.6321118254
 Zn        -5.2843624231       10.5835054560       15.8452827059
 Zn       -15.1500915951       10.2848638929       31.2302614289
 Zn         3.1791239642       10.5993190314        0.1210613062
  H        -8.9211021384        0.7131817247       28.8562145743
  H        -8.0420588941        0.9392840064       26.5846192269
  H       -11.4622109118        9.5583644410       25.0300523916
  H       -12.3748370724        9.3471240461       27.3339301174
  H        -6.2452319868        0.3870327670       22.8045013412
  H        -9.6844828262        9.0894685332       21.1767463474
  H        -8.7542034350        9.2934286197       18.9216022511
  H        -5.2724874454        0.5693298716       20.5211294710
  H         2.0480485906        9.4213595986        4.5082819575
  H         0.8707306928        9.3968960355        6.6752579744
  H        -2.0217467750        1.3678705989        5.1134553184
  H        -0.9423208403        1.2465766532        2.9192027568
  H        -0.0728447115        1.6625785256       10.7864023447
  H        -2.8121235334        9.3609494712        9.4690427913
  H        -3.9705040557        9.4468521546       11.6457677760
  H        -1.1486151534        1.6426484292       12.9957830790
  H        -5.9651647635        7.6188264814       18.1109101740
  H        -6.0242944238        2.6333790534       18.1165302118
  H        -1.9659628034        3.7349047684       15.8231809195
  H        -2.0557559191        6.2018193754       15.5112809717
  H       -11.5388069447        7.4063573808       29.8710991780
  H       -11.4909609043        2.4115016995       29.8995734599
  H         0.0653400040        3.9405794033        0.3592126830
  H         0.0223239037        6.4415963237        0.3374310462
  H        -9.1185896916        1.5787683172       22.6639274698
  H        -9.0750928876        2.2381865026       24.3221843648
  H       -10.5866921320        1.6066262151       23.6767293458
  H        -7.1423267067        8.3912216513       24.1170700142
  H        -8.6472027468        7.7500270618       23.4643090350
  H        -8.6150466756        8.4098990937       25.1231588983
  H        -3.3329056052        9.9577874481        7.5304820334
  H         3.1875382721        0.5141813235        6.4205907192
  H        -3.1862425747        0.8038133685        8.1742582528
  H         1.2954387399       10.0022986863        8.5942796155
  H         1.1932451389        0.6203393065        9.6199520586
  H         1.2227409637        0.8066613423        7.8490262323
  C        -3.8491558324        7.8894274003       16.0920466527
  C        -6.2853008880       10.4166423267       18.2420546632
  C        -3.8962971478        2.1903498490       16.7864890082
  C        -3.2287876418       10.9036048341       13.8323491992
  C       -13.7322888533        7.7787253676       31.3081537838
  C       -11.3895831008       10.3216633860       29.5958058272
  C       -13.6461754265        1.9998093656       31.3235964239
  C         1.2332063773       10.6867326122        2.2095196032
  C       -10.7266023957       10.3912713960       28.2629031359
  C        -9.4699943710        0.2519324630       28.0374231000
  C        -8.9732568209        0.3924923382       26.7394238043
  C        -9.6648644507       -0.1396117378       25.6378706812
  C       -10.9105105092        9.9760116148       25.8749075571
  C       -11.4267339962        9.8562125008       27.1624748191
  C        -9.1739740253        0.0810732670       24.2417843194
  C        -8.5615553496        9.9080867570       23.5467429316
  C        -6.7863359239       -0.0185417673       21.9472490247
  C        -8.0533940270       10.1275145769       22.1567627717
  C        -8.7366862907        9.6122001625       21.0412646194
  C        -8.2101509018        9.7407605199       19.7545573735
  C        -6.9628318419       10.3540791450       19.5606196294
  C        -6.2368345700        0.0842564967       20.6725723384
  C         0.6646860282       -0.0366892394        3.5722302771
  C         1.1509418068       10.0248384479        4.6506186368
  C         0.4893564301       10.0292960838        5.8774604817
  C        -0.6356643616        0.0134363064        6.1039533592
  C        -1.1365895885        0.7435517654        5.0019193009
  C        -0.5158561531        0.7001705453        3.7598915510
  C        -1.3242511047        0.0575908455        7.4233823581
  C        -0.6497515946        0.0977259816        8.6120928578
  C        -0.9082870065        0.9853747134       10.9592337578
  C        -1.3494653712        0.1271091827        9.9267674860
  C        -2.4820072690       10.0809531733       10.2147981901
  C        -3.1374715736       10.1188249308       11.4429348723
  C        -2.6368885035        0.1767362605       12.4580011916
  C        -1.5246322459        0.9959822360       12.2037090649
  C        -3.8825024414        6.4573372313       16.6047463169
  C        -4.9263122436        5.8377576994       17.3661739852
  C        -2.8317190797        5.7064401114       16.0949681491
  C        -5.9459846664        6.5334327412       18.0827298261
  C        -6.9066329372        5.8347458333       18.7830296454
  C        -3.8488180458        3.6731452803       16.8505766522
  C        -2.7879390507        4.3129122230       16.2438072144
  C        -4.9258258803        4.3986529915       17.4286199577
  C        -5.9737426694        3.7193476180       18.1033841063
  C        -6.9422400904        4.4270929799       18.7615027999
  C       -13.7057987368        6.2905938517       31.2017756529
  C       -12.6117390294        5.6224656571       30.5652728630
  C       -14.7298195392        5.5787728496       31.8017287669
  C       -11.5792084534        6.3199139534       29.8742216477
  C       -10.6151756427        5.6158368505       29.1964232631
  C       -13.6546709302        3.4889696289       31.2298023640
  C       -14.7056168051        4.1726353010       31.8150114761
  C       -12.5905979281        4.1830629818       30.5785220902
  C       -11.5492181882        3.4968962398       29.8913678868
  C       -10.6056772380        4.2109178547       29.1994631362
  C        -9.4959759933        1.4448089746       23.6848917711
  C        -8.2341499194        8.5456702898       24.1039954588
  C        -2.8136540790        0.1483314143        7.3813564154
  C         0.8374510866        0.1979645249        8.6734989342
  O        -3.0367490688        8.6968071258       16.7043880852
  O        -5.3934588635        8.4484244527       15.9663446385
  O        -6.9622686851       10.5289110724       17.1075547292
  O        -5.0030863172       -0.4142940067       18.1659958071
  O        -4.8643230297        1.7138776709       16.1053738903
  O        -2.9649628017        1.5426834433       17.3629430739
  O        -2.3873407698        0.4449682767       14.7701463560
  O        -4.4280803923       10.4924653844       14.0199563817
  O       -14.7936641222        8.3793707461       30.9236333836
  O       -12.6946145473        8.3104324239       31.8098747325
  O       -10.7048396189       10.3324719265       30.7329761641
  O       -12.6347731803       10.2567872346       29.6602540723
  O       -12.6334880065        1.4652947599       31.8734053747
  O       -14.6718070460        1.3958442008       30.8615791127
  O         0.4067941534       -0.0101943942        1.2598910273
  O         2.4912745575       10.5421111922        2.0635038861
  F        -7.8729942358        6.4718556365       19.4902063239
  F        -7.9603495633        3.7758567646       19.3657451647
  F        -9.6117964872        6.2344657659       28.5360271178
  F        -9.6010847410        3.5985802006       28.5353462835
  O        -5.4057547059        7.9516313262       14.5585207737
  C        -4.0408745786        7.7418682054       14.5402374075
  O        -3.4057998012        7.4371693570       13.5701760680
     123
 i =      191, E =      -996.1994299725
 Zn        -2.5162120866       10.5727527187       16.6312154163
 Zn        -5.2841869564       10.5835580266       15.8457804716
 Zn       -15.1500787750       10.2848636811       31.2302221514
 Zn         3.1791729058       10.5992865723        0.1210582267
  H        -8.9208770163        0.7125386279       28.8562090252
  H        -8.0417098950        0.9382860367       26.5846287331
  H       -11.4625426079        9.5584989264       25.0300613286
  H       -12.3751770677        9.3474774430       27.3339254147
  H        -6.2445644061        0.3849131132       22.8048057321
  H        -9.6847585152        9.0892725626       21.1765453532
  H        -8.7548233965        9.2940035972       18.9213850014
  H        -5.2721875147        0.5681997765       20.5213667646
  H         2.0484151568        9.4210760635        4.5081344580
  H         0.8713454288        9.3965863728        6.6752684668
  H        -2.0218836139        1.3666218787        5.1136225259
  H        -0.9427438476        1.2454472356        2.9192741471
  H        -0.0727367714        1.6626086190       10.7855890411
  H        -2.8115628626        9.3599017722        9.4696210659
  H        -3.9695165361        9.4461037225       11.6468392034
  H        -1.1480322065        1.6428880731       12.9954212455
  H        -5.9658149396        7.6190215277       18.1100746192
  H        -6.0252715823        2.6334252549       18.1155267742
  H        -1.9666351148        3.7349942972       15.8226823372
  H        -2.0559996591        6.2014559862       15.5103354338
  H       -11.5389863263        7.4059133872       29.8711467773
  H       -11.4912595442        2.4109759754       29.8999907941
  H         0.0646342305        3.9409026110        0.3592974630
  H         0.0224126429        6.4419745405        0.3375524335
  H        -9.1175010261        1.5783476593       22.6641224383
  H        -9.0740009254        2.2376655674       24.3222930525
  H       -10.5857768243        1.6068496215       23.6766020767
  H        -7.1433949587        8.3896784198       24.1167255098
  H        -8.6485358205        7.7493912073       23.4637303851
  H        -8.6161893194        8.4087058345       25.1227553375
  H        -3.3323214628        9.9567086989        7.5310116608
  H         3.1878033149        0.5132291813        6.4209717164
  H        -3.1856919655        0.8030290656        8.1744913884
  H         1.2957894989       10.0018700441        8.5945664003
  H         1.1935996293        0.6202728133        9.6201590893
  H         1.2231241893        0.8059945478        7.8491130761
  C        -3.8503906091        7.8894858397       16.0914398145
  C        -6.2854675547       10.4162229235       18.2419514900
  C        -3.8965924901        2.1903629722       16.7868876017
  C        -3.2288517731       10.9039696261       13.8319862258
  C       -13.7320371066        7.7786413946       31.3076958317
  C       -11.3896284315       10.3212719186       29.5958026208
  C       -13.6465010695        1.9997714010       31.3241006295
  C         1.2330985733       10.6859014052        2.2095350334
  C       -10.7266555948       10.3913587779       28.2629479795
  C        -9.4698135978        0.2514024086       28.0373673944
  C        -8.9731130260        0.3918164972       26.7393540917
  C        -9.6649708661       -0.1399972135       25.6378466308
  C       -10.9107293360        9.9758650345       25.8749512643
  C       -11.4269181955        9.8562877750       27.1625654404
  C        -9.1735271265        0.0807066501       24.2419510506
  C        -8.5620719849        9.9071570024       23.5465917746
  C        -6.7861184955       -0.0199078192       21.9474801248
  C        -8.0533697476       10.1263132870       22.1567229729
  C        -8.7369790959        9.6121340827       21.0410621660
  C        -8.2104058772        9.7408463530       19.7543393970
  C        -6.9629951652       10.3541600847       19.5606337750
  C        -6.2366419834        0.0834071208       20.6728172626
  C         0.6648588101       -0.0369003451        3.5722980574
  C         1.1512441679       10.0244841272        4.6504683888
  C         0.4898629360       10.0288636133        5.8774060248
  C        -0.6353188648        0.0127114584        6.1042122753
  C        -1.1365632302        0.7425788229        5.0021884978
  C        -0.5161765783        0.6992640769        3.7599941368
  C        -1.3239165357        0.0571644957        7.4235881303
  C        -0.6492373078        0.0968534687        8.6121786317
  C        -0.9078706304        0.9851594702       10.9590637437
  C        -1.3490436962        0.1267028673        9.9268035332
  C        -2.4812757768       10.0801388665       10.2150966118
  C        -3.1366587419       10.1180816871       11.4432273602
  C        -2.6362232955        0.1764675476       12.4579392732
  C        -1.5243025562        0.9961377547       12.2035097159
  C        -3.8824854866        6.4573959762       16.6047566737
  C        -4.9265858969        5.8379183111       17.3662031838
  C        -2.8318565320        5.7066183964       16.0944448739
  C        -5.9464189042        6.5336491147       18.0826635906
  C        -6.9065253809        5.8348240951       18.7835584985
  C        -3.8491817851        3.6730901069       16.8505965664
  C        -2.7882818382        4.3129734093       16.2441469242
  C        -4.9258179966        4.3987548799       17.4289419125
  C        -5.9740415934        3.7194191150       18.1032885278
  C        -6.9422870894        4.4272261035       18.7615944249
  C       -13.7057690415        6.2904240318       31.2020635526
  C       -12.6119729514        5.6220774123       30.5655042171
  C       -14.7300624334        5.5787456602       31.8016302856
  C       -11.5794658238        6.3195090727       29.8743265628
  C       -10.6153779735        5.6153798858       29.1968721047
  C       -13.6549910820        3.4888434899       31.2300476791
  C       -14.7058812680        4.1726095579       31.8154173232
  C       -12.5906804070        4.1827143826       30.5788189900
  C       -11.5493667276        3.4963861699       29.8916623663
  C       -10.6057480625        4.2104478647       29.1997227846
  C        -9.4951651107        1.4444563767       23.6849982603
  C        -8.2351307557        8.5446104259       24.1036735455
  C        -2.8133309715        0.1473726321        7.3815625119
  C         0.8379038965        0.1976360244        8.6737357454
  O        -3.0402051902        8.6983549305       16.7047208605
  O        -5.3944541528        8.4473519171       15.9656876781
  O        -6.9623234735       10.5291412530       17.1074064694
  O        -5.0033875728       -0.4140793098       18.1658386720
  O        -4.8642318523        1.7137129640       16.1053753722
  O        -2.9649019886        1.5427778818       17.3627745901
  O        -2.3874872697        0.4448743703       14.7699316687
  O        -4.4281483285       10.4927330681       14.0195985900
  O       -14.7936181016        8.3793089119       30.9236918914
  O       -12.6946489789        8.3100982927       31.8101708599
  O       -10.7048468052       10.3325742291       30.7329631762
  O       -12.6348330572       10.2569373140       29.6603316484
  O       -12.6335809777        1.4651476677       31.8733715788
  O       -14.6718626732        1.3957491638       30.8615432212
  O         0.4068161747       -0.0098260024        1.2598728167
  O         2.4912967533       10.5423986572        2.0634911732
  F        -7.8730359323        6.4721418260       19.4902546479
  F        -7.9604508812        3.7761087388       19.3658299196
  F        -9.6119794651        6.2339749979       28.5359382010
  F        -9.6012141267        3.5986086262       28.5355648158
  O        -5.4061085615        7.9511498001       14.5579115180
  C        -4.0412195181        7.7418543427       14.5396345745
  O        -3.4062074919        7.4370202914       13.5696825327
     123
 i =      192, E =      -996.1994516315
 Zn        -2.5165388351       10.5733665980       16.6290498643
 Zn        -5.2847930400       10.5848020292       15.8468605300
 Zn       -15.1499442749       10.2846581609       31.2301516048
 Zn         3.1791485782       10.5994477363        0.1210676378
  H        -8.9203430307        0.7112812918       28.8562142029
  H        -8.0407947007        0.9358470567       26.5846706817
  H       -11.4630679190        9.5582951115       25.0302815619
  H       -12.3756537016        9.3480055898       27.3341285724
  H        -6.2431351841        0.3789346124       22.8055212524
  H        -9.6850332725        9.0875201936       21.1761116506
  H        -8.7564505046        9.2949165222       18.9208050087
  H        -5.2721975494        0.5659503581       20.5219369109
  H         2.0492422449        9.4208026810        4.5074737112
  H         0.8730699172        9.3955324976        6.6751523929
  H        -2.0227334769        1.3633637181        5.1144641026
  H        -0.9444911988        1.2426838243        2.9197176512
  H        -0.0721653650        1.6624327977       10.7840123408
  H        -2.8103208545        9.3574292383        9.4710694425
  H        -3.9672770088        9.4445054014       11.6495528452
  H        -1.1470082311        1.6436697952       12.9948024034
  H        -5.9676233213        7.6196695079       18.1092142669
  H        -6.0276529989        2.6339699326       18.1129316684
  H        -1.9683862452        3.7352955581       15.8216535080
  H        -2.0565080012        6.2003798030       15.5086451318
  H       -11.5396913820        7.4046008848       29.8722889665
  H       -11.4919809555        2.4095698194       29.9007027370
  H         0.0627285865        3.9420637870        0.3598711163
  H         0.0225945620        6.4432906661        0.3379323404
  H        -9.1147191812        1.5776665135       22.6648238774
  H        -9.0712559040        2.2366901427       24.3230229352
  H       -10.5832145361        1.6075456725       23.6765795729
  H        -7.1465835088        8.3858490273       24.1159520327
  H        -8.6521877000        7.7475580452       23.4621616940
  H        -8.6195002906        8.4053964982       25.1218840505
  H        -3.3304650907        9.9540468220        7.5334516945
  H         3.1881439474        0.5099760534        6.4224194402
  H        -3.1842909202        0.8011645383        8.1756898201
  H         1.2968100111       10.0004316470        8.5948687851
  H         1.1949634291        0.6194461185        9.6203729060
  H         1.2239326107        0.8044361883        7.8493812397
  C        -3.8540157009        7.8911771861       16.0904376603
  C        -6.2861080793       10.4170760312       18.2416556726
  C        -3.8967561694        2.1908190944       16.7870714424
  C        -3.2289611817       10.9042940753       13.8311971983
  C       -13.7320519087        7.7780836244       31.3086529766
  C       -11.3896730011       10.3210280956       29.5959408708
  C       -13.6471446351        1.9995678724       31.3248555931
  C         1.2330974990       10.6866212143        2.2094929559
  C       -10.7269589644       10.3915589119       28.2630524551
  C        -9.4694105910        0.2497726953       28.0374999981
  C        -8.9729921869        0.3910407955       26.7394860172
  C        -9.6646715720       -0.1414613753       25.6379548200
  C       -10.9110417883        9.9758909656       25.8749850097
  C       -11.4270048876        9.8558645259       27.1626490783
  C        -9.1737301838        0.0789884653       24.2417893374
  C        -8.5624810105        9.9053089505       23.5468481311
  C        -6.7858517512       -0.0238083588       21.9478858725
  C        -8.0539752515       10.1240686644       22.1567492723
  C        -8.7374203049        9.6106272645       21.0406944740
  C        -8.2113157433        9.7406565000       19.7537454270
  C        -6.9639146355       10.3541763704       19.5604432419
  C        -6.2368061484        0.0815293282       20.6732044779
  C         0.6644195312       -0.0382607420        3.5722003437
  C         1.1520871174       10.0240682390        4.6504347922
  C         0.4910946608       10.0279168462        5.8775549250
  C        -0.6345507878        0.0111328197        6.1046819552
  C        -1.1368055387        0.7403524863        5.0027644862
  C        -0.5165997016        0.6975596113        3.7604585751
  C        -1.3227897034        0.0555114174        7.4241989605
  C        -0.6481203203        0.0954096370        8.6126559182
  C        -0.9070821401        0.9848838549       10.9588277827
  C        -1.3474612464        0.1250674078        9.9274731496
  C        -2.4797351605       10.0782351804       10.2158945134
  C        -3.1347871081       10.1164268697       11.4440636029
  C        -2.6352433886        0.1764483265       12.4577166353
  C        -1.5230845642        0.9960198684       12.2034546288
  C        -3.8824585203        6.4588900362       16.6049681421
  C        -4.9263980891        5.8385811840       17.3672034349
  C        -2.8321571527        5.7075679379       16.0945411744
  C        -5.9465922251        6.5344115745       18.0834547862
  C        -6.9061097713        5.8349289166       18.7842994284
  C        -3.8496166257        3.6732933578       16.8514573110
  C        -2.7889785698        4.3135063001       16.2452592865
  C        -4.9255940226        4.3992497395       17.4301730702
  C        -5.9745051585        3.7199691720       18.1037295910
  C        -6.9421474731        4.4275758493       18.7626976587
  C       -13.7059033220        6.2898667463       31.2018351139
  C       -12.6122949057        5.6208042608       30.5663686856
  C       -14.7302712886        5.5790054360       31.8023603624
  C       -11.5794153672        6.3182738385       29.8755824070
  C       -10.6159298358        5.6142234481       29.1976530974
  C       -13.6558234136        3.4884750300       31.2315123994
  C       -14.7069247298        4.1728777783       31.8162220760
  C       -12.5908466652        4.1815565816       30.5801891197
  C       -11.5499579673        3.4950173286       29.8921632966
  C       -10.6053020144        4.2091737824       29.2012066064
  C        -9.4928182441        1.4438914367       23.6855275791
  C        -8.2381599215        8.5416200325       24.1029882844
  C        -2.8122781574        0.1449239355        7.3829268927
  C         0.8390288658        0.1961850510        8.6742220307
  O        -3.0487376568        8.7033960362       16.7047452677
  O        -5.3963945746        8.4454569626       15.9649565081
  O        -6.9626505979       10.5292995914       17.1071081834
  O        -5.0041464759       -0.4130867804       18.1661850391
  O        -4.8642940397        1.7140349527       16.1058057085
  O        -2.9647803230        1.5432300218       17.3628967543
  O        -2.3879326002        0.4450072258       14.7694885661
  O        -4.4285584587       10.4935237747       14.0184440418
  O       -14.7929390911        8.3791270217       30.9230134815
  O       -12.6942927675        8.3093341341       31.8102129172
  O       -10.7048284786       10.3324458308       30.7331196305
  O       -12.6348543187       10.2568950843       29.6605218278
  O       -12.6339929820        1.4649317793       31.8736781046
  O       -14.6721962427        1.3953835514       30.8617638933
  O         0.4065736575       -0.0102777504        1.2599310598
  O         2.4911425825       10.5418458600        2.0634789802
  F        -7.8730318430        6.4723422485       19.4900543651
  F        -7.9602970633        3.7759386378       19.3661734834
  F        -9.6124979732        6.2336203108       28.5359472317
  F        -9.6012886062        3.5989252345       28.5359564806
  O        -5.4079759690        7.9489325922       14.5571365824
  C        -4.0424623043        7.7418210424       14.5388560682
  O        -3.4071221050        7.4370277370       13.5692329309
     123
 i =      193, E =      -996.1994639101
 Zn        -2.5165102143       10.5737536038       16.6290141854
 Zn        -5.2851390729       10.5857463860       15.8475728660
 Zn       -15.1498492521       10.2847803484       31.2300270025
 Zn         3.1791040728       10.5996255176        0.1211856764
  H        -8.9203014211        0.7112116585       28.8565455637
  H        -8.0407158726        0.9359490429       26.5850390281
  H       -11.4627675272        9.5582376414       25.0305803866
  H       -12.3754624763        9.3478552192       27.3343888430
  H        -6.2427790064        0.3789116766       22.8055372346
  H        -9.6844540109        9.0863703175       21.1766648718
  H        -8.7565579702        9.2945761040       18.9212399362
  H        -5.2730983154        0.5670214261       20.5215638654
  H         2.0487196282        9.4212100286        4.5071092864
  H         0.8728209419        9.3954865189        6.6748757913
  H        -2.0228618337        1.3641738196        5.1149252683
  H        -0.9447522948        1.2435437970        2.9200044051
  H        -0.0720557802        1.6620631673       10.7842488296
  H        -2.8107280165        9.3576881128        9.4708662930
  H        -3.9678730058        9.4449535918       11.6494968247
  H        -1.1468763566        1.6433494185       12.9950263721
  H        -5.9677442391        7.6195839561       18.1103763696
  H        -6.0274734574        2.6342882436       18.1125679127
  H        -1.9682848050        3.7351194331       15.8222012567
  H        -2.0551996529        6.2001036092       15.5098724305
  H       -11.5400389334        7.4044640454       29.8732860894
  H       -11.4915992492        2.4094459676       29.9005037633
  H         0.0624807564        3.9426289712        0.3602122993
  H         0.0228331366        6.4438701376        0.3380403305
  H        -9.1151903814        1.5780678639       22.6651140883
  H        -9.0717117095        2.2368808982       24.3234077078
  H       -10.5836750037        1.6076064285       23.6771146869
  H        -7.1460433701        8.3865340877       24.1163565226
  H        -8.6515607299        7.7480085950       23.4626905485
  H        -8.6189051216        8.4057071195       25.1222695214
  H        -3.3300344977        9.9544396678        7.5340793656
  H         3.1876729293        0.5098788166        6.4227075249
  H        -3.1844651087        0.8009820487        8.1759666227
  H         1.2966761568       10.0005984032        8.5948634370
  H         1.1950921284        0.6191969148        9.6203134259
  H         1.2237842147        0.8045817786        7.8493621727
  C        -3.8534465486        7.8926171116       16.0904484330
  C        -6.2860380898       10.4177238217       18.2416718201
  C        -3.8968103968        2.1912793255       16.7873953559
  C        -3.2291456716       10.9044454535       13.8311325744
  C       -13.7315197055        7.7781034547       31.3079304569
  C       -11.3896228758       10.3204859919       29.5961012039
  C       -13.6475005397        1.9995555950       31.3255472921
  C         1.2328567883       10.6863162946        2.2095439383
  C       -10.7268565976       10.3917799969       28.2633005163
  C        -9.4693923825        0.2501573137       28.0377183629
  C        -8.9728000841        0.3906179204       26.7396883515
  C        -9.6648030090       -0.1410294898       25.6381934777
  C       -10.9109266224        9.9757878340       25.8753452272
  C       -11.4268836992        9.8558224371       27.1630212884
  C        -9.1730796238        0.0797068522       24.2423253053
  C        -8.5629331395        9.9053237058       23.5468010690
  C        -6.7858736757       -0.0230085701       21.9478447709
  C        -8.0536538593       10.1240570614       22.1568993270
  C        -8.7373421652        9.6103174696       21.0412261655
  C        -8.2115238075        9.7406057531       19.7541202060
  C        -6.9645814230       10.3548268501       19.5601690847
  C        -6.2372721675        0.0816323344       20.6729317239
  C         0.6646204375       -0.0371129637        3.5723548096
  C         1.1514814298       10.0243576489        4.6502444129
  C         0.4910032109       10.0283683088        5.8776228778
  C        -0.6345617679        0.0117849250        6.1045943167
  C        -1.1369344583        0.7412342991        5.0029328144
  C        -0.5169438192        0.6981116241        3.7605044045
  C        -1.3225651752        0.0551453331        7.4242846463
  C        -0.6482294599        0.0959158056        8.6128629286
  C        -0.9068092519        0.9843461113       10.9590595324
  C        -1.3478164318        0.1251221793        9.9274984850
  C        -2.4798461042       10.0780195557       10.2159974781
  C        -3.1352949009       10.1167358735       11.4439593166
  C        -2.6353133333        0.1764063579       12.4576604381
  C        -1.5231445542        0.9960032980       12.2035682425
  C        -3.8813284762        6.4599435435       16.6060580615
  C        -4.9257177462        5.8392157902       17.3676515254
  C        -2.8315384533        5.7079463382       16.0955440941
  C        -5.9460688848        6.5342790889       18.0844218754
  C        -6.9056687610        5.8349361336       18.7855038459
  C        -3.8491308463        3.6737289485       16.8522392382
  C        -2.7888127453        4.3137927888       16.2454059852
  C        -4.9251168393        4.3997652029       17.4308528340
  C        -5.9742267870        3.7203854107       18.1041285859
  C        -6.9419381434        4.4275299107       18.7635614865
  C       -13.7056597995        6.2897373203       31.2023648700
  C       -12.6120024529        5.6206043078       30.5670635477
  C       -14.7303692260        5.5790779333       31.8024250718
  C       -11.5792407442        6.3181364799       29.8760907323
  C       -10.6152357474        5.6144912171       29.1984606931
  C       -13.6558710513        3.4883975756       31.2316961579
  C       -14.7068998023        4.1729828136       31.8165856975
  C       -12.5907613427        4.1813630345       30.5804819323
  C       -11.5493031748        3.4949745263       29.8929891168
  C       -10.6054229276        4.2093716477       29.2012149478
  C        -9.4932802994        1.4441228727       23.6857968525
  C        -8.2376422033        8.5421753026       24.1033659010
  C        -2.8120692757        0.1453885045        7.3832493616
  C         0.8389846384        0.1961460167        8.6740390801
  O        -3.0481068091        8.7053324476       16.7046559159
  O        -5.3937581976        8.4454797034       15.9662384873
  O        -6.9626270962       10.5293392557       17.1071750698
  O        -5.0039854825       -0.4134160135       18.1663682837
  O        -4.8641060786        1.7145960431       16.1055662714
  O        -2.9646594170        1.5433836044       17.3624883960
  O        -2.3880077566        0.4449051809       14.7694340640
  O        -4.4290944685       10.4941157401       14.0185030228
  O       -14.7926652516        8.3792272796       30.9230775202
  O       -12.6943603309        8.3094150125       31.8105717765
  O       -10.7048021076       10.3326725621       30.7332463125
  O       -12.6348492414       10.2571373131       29.6605103144
  O       -12.6338644153        1.4650233765       31.8735932953
  O       -14.6722512986        1.3955010018       30.8615362764
  O         0.4065923126       -0.0099489775        1.2598226757
  O         2.4909938546       10.5422604832        2.0634757204
  F        -7.8731632498        6.4722551937       19.4908413245
  F        -7.9602899968        3.7755144493       19.3662252509
  F        -9.6121604876        6.2334312521       28.5358151317
  F        -9.6014542831        3.5991354417       28.5355574791
  O        -5.4079394573        7.9485386980       14.5581977829
  C        -4.0423706596        7.7416326169       14.5385285161
  O        -3.4073249869        7.4371850045       13.5688063873
     123
 i =      194, E =      -996.1994777518
 Zn        -2.5163402394       10.5746444360       16.6292162138
 Zn        -5.2851972381       10.5869725540       15.8490997631
 Zn       -15.1497522178       10.2847839999       31.2299840400
 Zn         3.1790613853       10.5997459518        0.1214893666
  H        -8.9201898789        0.7113334666       28.8570939911
  H        -8.0404963219        0.9361917013       26.5856670539
  H       -11.4622016701        9.5580013611       25.0310707701
  H       -12.3749624468        9.3474459290       27.3348879769
  H        -6.2423596014        0.3795688151       22.8054021468
  H        -9.6833132143        9.0845897685       21.1776542070
  H        -8.7567407877        9.2937296754       18.9218850347
  H        -5.2744262802        0.5688060779       20.5207929346
  H         2.0478555555        9.4219337593        4.5064275292
  H         0.8721937508        9.3957425099        6.6742096443
  H        -2.0228333901        1.3656685397        5.1156209610
  H        -0.9451464664        1.2454327318        2.9203907149
  H        -0.0720287098        1.6613845196       10.7850691282
  H        -2.8112057111        9.3584003878        9.4703834511
  H        -3.9692765980        9.4458329620       11.6485642996
  H        -1.1473382491        1.6426889979       12.9953950305
  H        -5.9674493389        7.6196899249       18.1128701899
  H        -6.0264368204        2.6346803850       18.1123966278
  H        -1.9680704826        3.7350586486       15.8232662373
  H        -2.0524914035        6.2003023404       15.5123852283
  H       -11.5403625531        7.4046064424       29.8749589588
  H       -11.4907427565        2.4095711971       29.9000053158
  H         0.0624941775        3.9433371934        0.3607130811
  H         0.0231370109        6.4445024288        0.3381226169
  H        -9.1163245724        1.5789589316       22.6656018007
  H        -9.0727306121        2.2375082297       24.3241154395
  H       -10.5845616108        1.6075158393       23.6781666769
  H        -7.1450193582        8.3881585415       24.1171600639
  H        -8.6502020622        7.7486271685       23.4637472076
  H        -8.6177140508        8.4066993946       25.1230600047
  H        -3.3297689793        9.9545973532        7.5348468329
  H         3.1870166881        0.5100721060        6.4233571955
  H        -3.1844991661        0.8011207641        8.1765645625
  H         1.2963352168       10.0007339209        8.5944011414
  H         1.1955332752        0.6190453694        9.6202355289
  H         1.2235300058        0.8046516782        7.8491877824
  C        -3.8519835699        7.8949097351       16.0912453166
  C        -6.2862943022       10.4172807511       18.2419104288
  C        -3.8966137671        2.1919898070       16.7876789470
  C        -3.2295637007       10.9047106599       13.8312120484
  C       -13.7311575637        7.7783597105       31.3077818467
  C       -11.3895833340       10.3209481259       29.5963324078
  C       -13.6474637495        1.9996318622       31.3254965988
  C         1.2326804746       10.6872150145        2.2096118283
  C       -10.7265778481       10.3915652663       28.2636410948
  C        -9.4693005735        0.2505043973       28.0382469885
  C        -8.9726389442        0.3908399870       26.7402107046
  C        -9.6645828031       -0.1407839510       25.6387123642
  C       -10.9106355268        9.9759378318       25.8757959282
  C       -11.4266191720        9.8558107723       27.1634364496
  C        -9.1731669903        0.0803699358       24.2427805046
  C        -8.5625104392        9.9062650874       23.5474093379
  C        -6.7860542644       -0.0223817886       21.9479912727
  C        -8.0536976353       10.1244855687       22.1572017134
  C        -8.7370189954        9.6097096993       21.0417460098
  C        -8.2117465007        9.7407768269       19.7544112804
  C        -6.9651965024       10.3555289424       19.5602661884
  C        -6.2382467003        0.0832654099       20.6729081538
  C         0.6639560175       -0.0358080304        3.5722376273
  C         1.1511436094       10.0255941574        4.6499810585
  C         0.4904006143       10.0289421000        5.8771950256
  C        -0.6346449822        0.0128388954        6.1048179144
  C        -1.1370656428        0.7425514612        5.0033480932
  C        -0.5172066940        0.6998808651        3.7607742973
  C        -1.3227848544        0.0563240116        7.4244749548
  C        -0.6481275230        0.0955609271        8.6129656531
  C        -0.9068364795        0.9837192783       10.9594353910
  C        -1.3481582471        0.1252574113        9.9274008277
  C        -2.4802880081       10.0783225751       10.2158598135
  C        -3.1362006256       10.1171403262       11.4436084777
  C        -2.6360488691        0.1763490480       12.4575241129
  C        -1.5235930494        0.9956861733       12.2037496067
  C        -3.8794920061        6.4613004881       16.6074207865
  C        -4.9241233905        5.8404289989       17.3693536785
  C        -2.8300824198        5.7086244986       16.0970943336
  C        -5.9450843390        6.5343342127       18.0859778181
  C        -6.9047779573        5.8348808880       18.7871072174
  C        -3.8484925464        3.6744428905       16.8530941696
  C        -2.7883778921        4.3143778225       16.2460531786
  C        -4.9242545158        4.4008446033       17.4316870479
  C        -5.9731495154        3.7208992503       18.1048975649
  C        -6.9413930064        4.4273967850       18.7643782649
  C       -13.7052179569        6.2899235138       31.2027784930
  C       -12.6113624787        5.6204544721       30.5680974857
  C       -14.7302165362        5.5795003454       31.8025049466
  C       -11.5788822346        6.3182844743       29.8770569961
  C       -10.6142969339        5.6151278323       29.1995569654
  C       -13.6559083076        3.4885229849       31.2321435442
  C       -14.7068733688        4.1734391106       31.8170066175
  C       -12.5906268536        4.1812278182       30.5810533680
  C       -11.5485467343        3.4951629411       29.8939674934
  C       -10.6055533112        4.2099949793       29.2017243786
  C        -9.4940754502        1.4447047049       23.6863586945
  C        -8.2367062355        8.5432309184       24.1040610918
  C        -2.8123119200        0.1456947310        7.3835983530
  C         0.8389760683        0.1963861660        8.6739041625
  O        -3.0455765730        8.7088577025       16.7044479553
  O        -5.3883299157        8.4452900861       15.9687485385
  O        -6.9625313799       10.5299250845       17.1069758489
  O        -5.0042862595       -0.4128763507       18.1665065809
  O        -4.8638418284        1.7152456471       16.1056088664
  O        -2.9647533847        1.5436715971       17.3626642687
  O        -2.3879088902        0.4450608048       14.7691982126
  O        -4.4299335921       10.4949549691       14.0192753088
  O       -14.7923536354        8.3793395602       30.9227738610
  O       -12.6942265380        8.3097607404       31.8107424489
  O       -10.7047560775       10.3324748780       30.7334004334
  O       -12.6347876975       10.2569185612       29.6606624464
  O       -12.6339091555        1.4651127132       31.8737684797
  O       -14.6723395607        1.3956486157       30.8616974724
  O         0.4065126758       -0.0099325988        1.2597993763
  O         2.4907596567       10.5422926221        2.0635904566
  F        -7.8735096066        6.4726543650       19.4904860329
  F        -7.9602906353        3.7757173732       19.3662641874
  F        -9.6120368784        6.2333335417       28.5357067221
  F        -9.6016420168        3.5990443270       28.5357084031
  O        -5.4071051225        7.9481466692       14.5605024176
  C        -4.0405341493        7.7414860624       14.5387695087
  O        -3.4066411141        7.4371575041       13.5684192115
     123
 i =      195, E =      -996.1994941730
 Zn        -2.5159243314       10.5765830554       16.6293683493
 Zn        -5.2856863090       10.5879687336       15.8496627644
 Zn       -15.1497426520       10.2846007253       31.2299153700
 Zn         3.1790936792       10.5996720783        0.1215978169
  H        -8.9195052867        0.7102080240       28.8572152003
  H        -8.0397200661        0.9345637956       26.5858192069
  H       -11.4624828896        9.5577773950       25.0313677796
  H       -12.3752003098        9.3475219266       27.3352646399
  H        -6.2415483149        0.3750586134       22.8061711115
  H        -9.6835431753        9.0828594860       21.1771978537
  H        -8.7582000564        9.2944911083       18.9213899238
  H        -5.2747302181        0.5672502901       20.5213047850
  H         2.0486244583        9.4223521863        4.5056328353
  H         0.8736384951        9.3951031158        6.6737046550
  H        -2.0236287849        1.3632656261        5.1165077157
  H        -0.9467075494        1.2441570043        2.9208541233
  H        -0.0719204234        1.6608613335       10.7853864595
  H        -2.8090322779        9.3559464796        9.4711993745
  H        -3.9683908505        9.4443292484       11.6484682337
  H        -1.1485514086        1.6430198849       12.9949073104
  H        -5.9683966382        7.6206272260       18.1143540579
  H        -6.0250825121        2.6354965361       18.1123161719
  H        -1.9684255151        3.7369580734       15.8229704600
  H        -2.0524463005        6.2023934969       15.5127775814
  H       -11.5404597092        7.4048552182       29.8763915579
  H       -11.4902763435        2.4097144813       29.8993775724
  H         0.0626046006        3.9436836810        0.3612282041
  H         0.0231705347        6.4446948201        0.3380754645
  H        -9.1142352986        1.5786282443       22.6664255593
  H        -9.0704615770        2.2363890627       24.3252004839
  H       -10.5827160267        1.6079756673       23.6785333783
  H        -7.1473541930        8.3849402786       24.1169880944
  H        -8.6530273240        7.7470613365       23.4628036770
  H        -8.6204512949        8.4043623053       25.1226339047
  H        -3.3284228278        9.9524325813        7.5370100472
  H         3.1870186902        0.5073572014        6.4247919839
  H        -3.1833433055        0.7994661497        8.1778710315
  H         1.2975876433        9.9991987421        8.5946862466
  H         1.1968019721        0.6179402255        9.6202146036
  H         1.2242946442        0.8031091968        7.8492609400
  C        -3.8531540933        7.8982310890       16.0915788738
  C        -6.2868425979       10.4180281525       18.2423986362
  C        -3.8961585356        2.1930210823       16.7872221267
  C        -3.2295554348       10.9046620753       13.8314390454
  C       -13.7311560680        7.7785001492       31.3082128969
  C       -11.3894774015       10.3208436442       29.5963860773
  C       -13.6475728338        1.9997167026       31.3256190481
  C         1.2324430591       10.6871042439        2.2095818529
  C       -10.7264556991       10.3910499177       28.2636968484
  C        -9.4689645772        0.2497446183       28.0384151177
  C        -8.9721324353        0.3896357624       26.7403970296
  C        -9.6644213950       -0.1412706613       25.6388537970
  C       -10.9105974938        9.9754292757       25.8759648594
  C       -11.4268526315        9.8558929730       27.1635562167
  C        -9.1729151032        0.0791118954       24.2428040473
  C        -8.5633360737        9.9042873742       23.5474003791
  C        -6.7861539186       -0.0248371238       21.9483157929
  C        -8.0541602118       10.1226314286       22.1573758207
  C        -8.7377214912        9.6089434193       21.0416035411
  C        -8.2126766112        9.7403295386       19.7542110868
  C        -6.9659673670       10.3547666210       19.5604819952
  C        -6.2386391190        0.0819254423       20.6732603568
  C         0.6640871577       -0.0355805419        3.5723473050
  C         1.1514613346       10.0252981154        4.6495702548
  C         0.4912595276       10.0283992873        5.8770767616
  C        -0.6343716213        0.0113729189        6.1051770008
  C        -1.1371580331        0.7410649681        5.0039415163
  C        -0.5181514221        0.6986104563        3.7609021382
  C        -1.3219658466        0.0546514798        7.4251495231
  C        -0.6470730004        0.0944546091        8.6135180163
  C        -0.9067162783        0.9831458959       10.9594066019
  C        -1.3470271191        0.1234225330        9.9279834895
  C        -2.4792881991       10.0766859685       10.2163953325
  C        -3.1354981582       10.1159799651       11.4440136695
  C        -2.6361987463        0.1759487723       12.4576551856
  C        -1.5238716926        0.9953065442       12.2034699530
  C        -3.8796000741        6.4635236364       16.6076037418
  C        -4.9237799412        5.8420696784       17.3701045288
  C        -2.8302457678        5.7105821245       16.0974058851
  C        -5.9447899455        6.5352624628       18.0869773430
  C        -6.9045177876        5.8349615120       18.7872178574
  C        -3.8483939850        3.6758041980       16.8528173492
  C        -2.7886666544        4.3162491868       16.2457588914
  C        -4.9238775593        4.4023555638       17.4318977049
  C        -5.9723794445        3.7217028447       18.1049292261
  C        -6.9408740410        4.4275188584       18.7647859230
  C       -13.7050566353        6.2900944516       31.2028949857
  C       -12.6108040087        5.6204430810       30.5689323670
  C       -14.7299685812        5.5797574916       31.8028682671
  C       -11.5785068598        6.3185350237       29.8781139150
  C       -10.6141639421        5.6153638628       29.2000639669
  C       -13.6558700996        3.4886484470       31.2325566510
  C       -14.7069065687        4.1736949587       31.8171993923
  C       -12.5904364215        4.1812501203       30.5816954738
  C       -11.5483659213        3.4952879102       29.8942441710
  C       -10.6054460103        4.2103189497       29.2024154671
  C        -9.4923159474        1.4441806978       23.6870409449
  C        -8.2388918554        8.5408818455       24.1038205127
  C        -2.8115388204        0.1435812408        7.3849031157
  C         0.8400600784        0.1948896712        8.6742607626
  O        -3.0476701886        8.7148948922       16.7037028099
  O        -5.3863081583        8.4456312596       15.9686712786
  O        -6.9623370555       10.5295321538       17.1068287040
  O        -5.0047002414       -0.4131322027       18.1673151086
  O        -4.8638614532        1.7158224901       16.1061070034
  O        -2.9646359548        1.5447330656       17.3627458173
  O        -2.3873342498        0.4451198168       14.7688814757
  O        -4.4303249981       10.4954668727       14.0194719678
  O       -14.7921887858        8.3792590320       30.9223983136
  O       -12.6939855221        8.3100077092       31.8106057434
  O       -10.7047782245       10.3325349946       30.7334422401
  O       -12.6347170222       10.2570122586       29.6607720247
  O       -12.6339726229        1.4650403323       31.8736888376
  O       -14.6722711825        1.3955469811       30.8617560186
  O         0.4064514216       -0.0097890664        1.2596623469
  O         2.4906138286       10.5424327111        2.0637479732
  F        -7.8734779848        6.4720213071       19.4907205158
  F        -7.9601702191        3.7758559389       19.3658618348
  F        -9.6123370992        6.2336595461       28.5365150771
  F        -9.6016701063        3.5992906065       28.5352982322
  O        -5.4062707511        7.9478883141       14.5607464568
  C        -4.0394445320        7.7420566986       14.5388358833
  O        -3.4062375565        7.4372790608       13.5679016530
     123
 i =      196, E =      -996.1995026755
 Zn        -2.5153168599       10.5813216753       16.6302155787
 Zn        -5.2862818507       10.5888783264       15.8506128327
 Zn       -15.1498000973       10.2845390288       31.2299713416
 Zn         3.1790550268       10.5995813970        0.1216926797
  H        -8.9178068776        0.7068026090       28.8573120330
  H        -8.0376346728        0.9297020781       26.5860743751
  H       -11.4635691073        9.5575233419       25.0316475057
  H       -12.3763738099        9.3483925752       27.3356792576
  H        -6.2399091368        0.3630833180       22.8085953111
  H        -9.6856658163        9.0803628874       21.1754201994
  H        -8.7613936086        9.2968414945       18.9200047618
  H        -5.2744137341        0.5609068892       20.5236264974
  H         2.0512282251        9.4231751716        4.5045931106
  H         0.8781261943        9.3934478607        6.6735792961
  H        -2.0256119611        1.3563883979        5.1188962106
  H        -0.9503105925        1.2396509726        2.9223910164
  H        -0.0718956739        1.6597748397       10.7860539270
  H        -2.8030842681        9.3486744940        9.4740688349
  H        -3.9650487734        9.4388173752       11.6493182962
  H        -1.1513198768        1.6439510305       12.9941002726
  H        -5.9700058324        7.6223336231       18.1178447663
  H        -6.0236713425        2.6371867626       18.1100291343
  H        -1.9686504278        3.7430570180       15.8220159762
  H        -2.0545587506        6.2088368540       15.5131322250
  H       -11.5394608754        7.4052908522       29.8797487181
  H       -11.4893616107        2.4103723150       29.8993444822
  H         0.0628671805        3.9436897160        0.3616563986
  H         0.0226543830        6.4444974146        0.3379239080
  H        -9.1079130703        1.5770712611       22.6684586343
  H        -9.0636649211        2.2325187737       24.3280308920
  H       -10.5770234869        1.6089484352       23.6793712376
  H        -7.1545686026        8.3748463632       24.1161765172
  H        -8.6615375075        7.7422458055       23.4598243249
  H        -8.6285409643        8.3973091090       25.1207835942
  H        -3.3251777113        9.9460859135        7.5422757909
  H         3.1873608418        0.4992874650        6.4280916228
  H        -3.1809740545        0.7938249956        8.1810896027
  H         1.3006746271        9.9952898717        8.5967177487
  H         1.1994639656        0.6150746641        9.6208305338
  H         1.2265959386        0.7987950175        7.8498648966
  C        -3.8575068582        7.9057664989       16.0926273328
  C        -6.2876896774       10.4175977814       18.2433653653
  C        -3.8957936628        2.1955805247       16.7866997331
  C        -3.2289997208       10.9036018171       13.8319671119
  C       -13.7311397614        7.7786686924       31.3087305680
  C       -11.3894465416       10.3212479773       29.5965139589
  C       -13.6473048341        1.9996994573       31.3252521924
  C         1.2322068336       10.6874045524        2.2096057330
  C       -10.7262843122       10.3894795307       28.2638268188
  C        -9.4681395507        0.2472910944       28.0385669014
  C        -8.9708672426        0.3861810205       26.7406486126
  C        -9.6638080725       -0.1437397303       25.6390319749
  C       -10.9109594402        9.9744313436       25.8761138671
  C       -11.4275722319        9.8559461708       27.1636358207
  C        -9.1721708135        0.0751233476       24.2428059234
  C        -8.5652629354        9.8989363579       23.5470438022
  C        -6.7859780425       -0.0323823642       21.9495108046
  C        -8.0555164010       10.1178311319       22.1574904320
  C        -8.7396195785        9.6060952602       21.0409437861
  C        -8.2146844807        9.7393105128       19.7537889388
  C        -6.9674503677       10.3530759627       19.5607548231
  C        -6.2388980088        0.0762595322       20.6745086925
  C         0.6636160555       -0.0374634884        3.5724622358
  C         1.1532080739       10.0246031613        4.6495858582
  C         0.4934175933       10.0259345282        5.8773775788
  C        -0.6328507245        0.0074999717        6.1065616406
  C        -1.1383013259        0.7355642054        5.0052130834
  C        -0.5193078777        0.6951353787        3.7620409240
  C        -1.3197371177        0.0494554400        7.4269487115
  C        -0.6444044892        0.0900878607        8.6150969760
  C        -0.9059079797        0.9811840426       10.9600639884
  C        -1.3446846433        0.1197141182        9.9294196301
  C        -2.4752690576       10.0712264391       10.2184584692
  C        -3.1333762477       10.1120573791       11.4450926401
  C        -2.6358457213        0.1738002132       12.4581414473
  C        -1.5248711274        0.9945347736       12.2032297932
  C        -3.8808802947        6.4691376912       16.6085772572
  C        -4.9238389553        5.8454194446       17.3710432019
  C        -2.8317222145        5.7159515656       16.0980595057
  C        -5.9450727472        6.5370087452       18.0883533162
  C        -6.9049740546        5.8357376486       18.7871304210
  C        -3.8488325613        3.6793946680       16.8509403356
  C        -2.7894627635        4.3213233060       16.2445298102
  C        -4.9245742686        4.4053710334       17.4307175681
  C        -5.9720823506        3.7233090778       18.1036882967
  C        -6.9410411610        4.4283891064       18.7638830853
  C       -13.7045612393        6.2902046268       31.2043306389
  C       -12.6095583205        5.6208207118       30.5707804435
  C       -14.7299461353        5.5798973173       31.8034322457
  C       -11.5770627866        6.3189056359       29.8804819265
  C       -10.6132522350        5.6160585071       29.2007604906
  C       -13.6555113325        3.4887753165       31.2333669899
  C       -14.7066479665        4.1738017618       31.8177271303
  C       -12.5897892493        4.1816272553       30.5832362934
  C       -11.5477315810        3.4959185354       29.8952610972
  C       -10.6050511143        4.2110532154       29.2034959071
  C        -9.4869828850        1.4421085473       23.6886420577
  C        -8.2456535052        8.5339907974       24.1024971607
  C        -2.8094623658        0.1374213140        7.3883810899
  C         0.8426583610        0.1909783145        8.6754964347
  O        -3.0562970047        8.7291842249       16.7033316773
  O        -5.3860312482        8.4468621458       15.9678610799
  O        -6.9626461033       10.5293695635       17.1072316927
  O        -5.0053316856       -0.4123354031       18.1682808365
  O        -4.8635425586        1.7170519566       16.1063195245
  O        -2.9648268159        1.5474063770       17.3630530675
  O        -2.3863680889        0.4463008828       14.7684633429
  O        -4.4300752863       10.4956150696       14.0208521473
  O       -14.7920757221        8.3792164139       30.9223889092
  O       -12.6939057918        8.3106651221       31.8106960602
  O       -10.7048248347       10.3323018427       30.7335193207
  O       -12.6346924517       10.2568143654       29.6608256395
  O       -12.6340314753        1.4650033105       31.8739856828
  O       -14.6722741821        1.3956631324       30.8620314130
  O         0.4062413225       -0.0101319533        1.2596391249
  O         2.4903869558       10.5422153122        2.0639720671
  F        -7.8739553303        6.4721579987       19.4905724363
  F        -7.9594379728        3.7762407450       19.3655738207
  F        -9.6121348596        6.2339234607       28.5365928728
  F        -9.6016406526        3.5985338439       28.5356637848
  O        -5.4071773166        7.9474177314       14.5612705050
  C        -4.0386683513        7.7440540181       14.5387853525
  O        -3.4055096296        7.4372043121       13.5685657954
     123
 i =      197, E =      -996.1995203153
 Zn        -2.5155360984       10.5789897711       16.6304730948
 Zn        -5.2855994296       10.5877391632       15.8497607277
 Zn       -15.1498213254       10.2847116982       31.2300883935
 Zn         3.1790267988       10.5995690516        0.1215917918
  H        -8.9180180533        0.7070466220       28.8572404366
  H        -8.0378180759        0.9302647692       26.5860591976
  H       -11.4637223194        9.5581173563       25.0312676212
  H       -12.3764928940        9.3488061890       27.3352831345
  H        -6.2403962112        0.3663153419       22.8079928662
  H        -9.6860797441        9.0828022765       21.1756447791
  H        -8.7605547604        9.2968396461       18.9202278743
  H        -5.2733491897        0.5609872145       20.5234461169
  H         2.0509285819        9.4226657446        4.5051405659
  H         0.8772314346        9.3939598855        6.6739613355
  H        -2.0248145118        1.3580204141        5.1180317228
  H        -0.9488075808        1.2404606587        2.9218912255
  H        -0.0717417818        1.6599772294       10.7854944153
  H        -2.8037536246        9.3494576726        9.4737609951
  H        -3.9653954669        9.4396941836       11.6490362275
  H        -1.1503902866        1.6440608872       12.9939254606
  H        -5.9689325041        7.6219249010       18.1165027634
  H        -6.0241739364        2.6366525791       18.1106083742
  H        -1.9680906459        3.7420370838       15.8220066530
  H        -2.0548989898        6.2078953734       15.5125301302
  H       -11.5390138613        7.4056753024       29.8777311831
  H       -11.4892202723        2.4107558048       29.9006181995
  H         0.0633634160        3.9430527057        0.3611113985
  H         0.0225617554        6.4439227685        0.3377366023
  H        -9.1090532661        1.5768510836       22.6678481271
  H        -9.0648232193        2.2327995513       24.3272987844
  H       -10.5779772352        1.6083629363       23.6791507436
  H        -7.1529640771        8.3764698048       24.1164944401
  H        -8.6597273107        7.7429818333       23.4607101212
  H        -8.6266731841        8.3989928309       25.1210634158
  H        -3.3262059895        9.9469917412        7.5400026229
  H         3.1878192511        0.5012631377        6.4268247047
  H        -3.1816792058        0.7944920408        8.1799882383
  H         1.3003879069        9.9960976293        8.5968513975
  H         1.1984854054        0.6160149124        9.6206822594
  H         1.2263592619        0.7994050126        7.8495023043
  C        -3.8560649467        7.9029349736       16.0921275284
  C        -6.2870821770       10.4174332849       18.2431503064
  C        -3.8956691211        2.1945510232       16.7864235244
  C        -3.2290200817       10.9038582130       13.8317773963
  C       -13.7315294502        7.7787374330       31.3089872739
  C       -11.3895067030       10.3209580539       29.5964816222
  C       -13.6470275951        1.9998514187       31.3251385006
  C         1.2323833047       10.6869351439        2.2095903184
  C       -10.7264365981       10.3900361182       28.2637980578
  C        -9.4680698320        0.2470795816       28.0384550294
  C        -8.9709928400        0.3868205538       26.7405622014
  C        -9.6638152129       -0.1438988747       25.6390366429
  C       -10.9111573961        9.9748401841       25.8759340578
  C       -11.4274577802        9.8558860586       27.1635198867
  C        -9.1722575626        0.0757502853       24.2429599141
  C        -8.5643447820        9.9002849936       23.5472312058
  C        -6.7857938223       -0.0309727196       21.9493758758
  C        -8.0550080925       10.1185579365       22.1574266779
  C        -8.7393121366        9.6072774373       21.0408416383
  C        -8.2139531980        9.7398261983       19.7538228752
  C        -6.9662158366       10.3527064150       19.5608880878
  C        -6.2381156143        0.0769376765       20.6744987196
  C         0.6638579541       -0.0375584488        3.5723869751
  C         1.1529329867       10.0243075190        4.6495965329
  C         0.4932956902       10.0264321232        5.8774450736
  C        -0.6333353669        0.0077521513        6.1059549279
  C        -1.1377257139        0.7367565614        5.0048562402
  C        -0.5188006157        0.6955493120        3.7617254561
  C        -1.3202654695        0.0503940547        7.4262613424
  C        -0.6449135926        0.0907067100        8.6143933496
  C        -0.9063549173        0.9820194005       10.9596244259
  C        -1.3444731407        0.1200504269        9.9291082680
  C        -2.4759733677       10.0725301251       10.2176940065
  C        -3.1331614382       10.1123108981       11.4447714937
  C        -2.6359199266        0.1743152930       12.4578173936
  C        -1.5243127828        0.9944786931       12.2032538554
  C        -3.8805099547        6.4671140698       16.6088303454
  C        -4.9245145453        5.8441948856       17.3698426488
  C        -2.8316462619        5.7145386238       16.0971582483
  C        -5.9453083025        6.5366017920       18.0874282908
  C        -6.9053327842        5.8353738820       18.7860927801
  C        -3.8489219846        3.6782557733       16.8507395958
  C        -2.7890430618        4.3200023846       16.2447939459
  C        -4.9248621678        4.4041955060       17.4302534328
  C        -5.9728425951        3.7227883778       18.1032419334
  C        -6.9416444008        4.4280121491       18.7635466195
  C       -13.7047485426        6.2904309541       31.2038283341
  C       -12.6099105398        5.6213143135       30.5697825129
  C       -14.7297317114        5.5797305248       31.8032659431
  C       -11.5773773445        6.3192617771       29.8792758574
  C       -10.6139050173        5.6159087338       29.1997035947
  C       -13.6551319295        3.4889699007       31.2328811277
  C       -14.7063055430        4.1736071081       31.8173671078
  C       -12.5895140359        4.1820652329       30.5827796792
  C       -11.5478940423        3.4962272769       29.8946668208
  C       -10.6048173469        4.2109446680       29.2029281057
  C        -9.4879110362        1.4420986630       23.6881318881
  C        -8.2441199863        8.5353998001       24.1026326847
  C        -2.8099313607        0.1383683959        7.3870780351
  C         0.8421395170        0.1917815575        8.6751558315
  O        -3.0523459669        8.7230137621       16.7032578948
  O        -5.3860228645        8.4466742849       15.9687692944
  O        -6.9624024488       10.5292815355       17.1072467676
  O        -5.0049054753       -0.4128409806       18.1677890406
  O        -4.8637204012        1.7164540741       16.1062496918
  O        -2.9650531800        1.5457537780       17.3631043345
  O        -2.3867213725        0.4457033072       14.7685667319
  O        -4.4296329407       10.4946078686       14.0206889459
  O       -14.7924148717        8.3792934243       30.9226477708
  O       -12.6940511234        8.3107412322       31.8105282328
  O       -10.7047910471       10.3323969448       30.7334858931
  O       -12.6347596731       10.2569262656       29.6607746566
  O       -12.6338423651        1.4650497130       31.8738628468
  O       -14.6720812869        1.3958892446       30.8619351836
  O         0.4063282933       -0.0100613011        1.2597384220
  O         2.4905713568       10.5422631847        2.0638025744
  F        -7.8733045762        6.4719987539       19.4908297492
  F        -7.9601914032        3.7757226085       19.3654623241
  F        -9.6122702185        6.2341143168       28.5363086548
  F        -9.6013200858        3.5990002147       28.5355133948
  O        -5.4064253106        7.9485894905       14.5611362704
  C        -4.0392073028        7.7436935926       14.5391118027
  O        -3.4064103272        7.4371598505       13.5685744761
     123
 i =      198, E =      -996.1995296465
 Zn        -2.5155612513       10.5792639904       16.6300028692
 Zn        -5.2851219848       10.5872542560       15.8499796776
 Zn       -15.1498272731       10.2847412751       31.2301592289
 Zn         3.1790661302       10.5996620999        0.1212904229
  H        -8.9174572704        0.7059468417       28.8568930864
  H        -8.0374055186        0.9286729636       26.5856481245
  H       -11.4644140421        9.5580443643       25.0310935524
  H       -12.3770781555        9.3492229328       27.3351604424
  H        -6.2402291230        0.3628564796       22.8086149396
  H        -9.6875929461        9.0834581435       21.1746093107
  H        -8.7614638681        9.2978811442       18.9193829796
  H        -5.2723960282        0.5578804303       20.5244185066
  H         2.0522364532        9.4225008508        4.5048919347
  H         0.8789783605        9.3933167659        6.6740169425
  H        -2.0254171617        1.3549829719        5.1180553453
  H        -0.9495814095        1.2379449231        2.9219100914
  H        -0.0718820623        1.6601088402       10.7847696206
  H        -2.8014771253        9.3468056397        9.4746821451
  H        -3.9637561886        9.4377586173       11.6495248808
  H        -1.1510096346        1.6451090510       12.9930548107
  H        -5.9690168131        7.6225915085       18.1159197458
  H        -6.0233764118        2.6373336846       18.1111361075
  H        -1.9680611920        3.7439549375       15.8206308678
  H        -2.0562427814        6.2094706498       15.5110013249
  H       -11.5384645962        7.4057389953       29.8766824624
  H       -11.4899386912        2.4108103002       29.9010884825
  H         0.0635084952        3.9426904791        0.3609798957
  H         0.0222968211        6.4436014169        0.3375925473
  H        -9.1063508859        1.5757025581       22.6681002261
  H        -9.0619915529        2.2311314040       24.3278114499
  H       -10.5756792352        1.6086930578       23.6787667238
  H        -7.1557543542        8.3723145912       24.1159987318
  H        -8.6632344514        7.7410396463       23.4593624610
  H        -8.6298861506        8.3964492426       25.1199164013
  H        -3.3254590966        9.9450223981        7.5407599412
  H         3.1886105143        0.4991969573        6.4274633057
  H        -3.1805426525        0.7925703739        8.1803387263
  H         1.3016253626        9.9948048947        8.5976638924
  H         1.1992299475        0.6150015537        9.6207804977
  H         1.2276105171        0.7975589942        7.8493092484
  C        -3.8567004717        7.9036072045       16.0913213236
  C        -6.2870998586       10.4171259739       18.2430607022
  C        -3.8957851111        2.1948903316       16.7862724415
  C        -3.2290347962       10.9037972744       13.8316735810
  C       -13.7316597078        7.7787466746       31.3090102850
  C       -11.3894773039       10.3206129544       29.5963514833
  C       -13.6470695735        1.9998660288       31.3252516509
  C         1.2325024735       10.6864826786        2.2095436848
  C       -10.7264636468       10.3897345195       28.2636488850
  C        -9.4678332587        0.2462481941       28.0381825756
  C        -8.9706565161        0.3853019844       26.7402798327
  C        -9.6638962521       -0.1448299743       25.6387871084
  C       -10.9114185384        9.9742068188       25.8757611101
  C       -11.4277640038        9.8558020428       27.1633852497
  C        -9.1717877188        0.0744845012       24.2428930301
  C        -8.5654736831        9.8980493062       23.5467653532
  C        -6.7857267524       -0.0338255308       21.9497422787
  C        -8.0553756176       10.1163973303       22.1572643420
  C        -8.7400447742        9.6067234888       21.0401586980
  C        -8.2144440381        9.7398037124       19.7532978419
  C        -6.9660440929       10.3517734353       19.5609360555
  C        -6.2375794967        0.0744434714       20.6750379366
  C         0.6639491553       -0.0388507894        3.5723015962
  C         1.1538660158       10.0235523462        4.6494840214
  C         0.4945599749       10.0254493372        5.8774900476
  C        -0.6328725058        0.0056528015        6.1060108682
  C        -1.1378912302        0.7343545126        5.0049930494
  C        -0.5192239131        0.6933890025        3.7617640718
  C        -1.3192566743        0.0482516971        7.4265511386
  C        -0.6438168603        0.0891338997        8.6145773544
  C        -0.9060044518        0.9815616437       10.9591937969
  C        -1.3436790079        0.1187996870        9.9291438229
  C        -2.4742675395       10.0703490475       10.2183554142
  C        -3.1319505318       10.1108548674       11.4451704731
  C        -2.6355503267        0.1740290325       12.4577047546
  C        -1.5243913345        0.9948063290       12.2026771881
  C        -3.8811172050        6.4680358663       16.6080082823
  C        -4.9247424789        5.8449538947       17.3696075842
  C        -2.8318624221        5.7158738081       16.0967802974
  C        -5.9461495094        6.5372641167       18.0866801509
  C        -6.9059749076        5.8359849433       18.7857073852
  C        -3.8485969713        3.6788454395       16.8503557093
  C        -2.7892119511        4.3212621251       16.2439847707
  C        -4.9246287755        4.4048510761       17.4297494812
  C        -5.9726502870        3.7234898490       18.1028028783
  C        -6.9416512364        4.4286298338       18.7628519858
  C       -13.7051400876        6.2905407313       31.2035595883
  C       -12.6102180904        5.6215884960       30.5695541885
  C       -14.7296289950        5.5795321918       31.8036077975
  C       -11.5777039094        6.3193491417       29.8787183667
  C       -10.6144097754        5.6156547553       29.1994219847
  C       -13.6548648999        3.4890046495       31.2329666077
  C       -14.7062862303        4.1733727811       31.8170471197
  C       -12.5896421588        4.1823236612       30.5823098468
  C       -11.5482843504        3.4962520393       29.8943720146
  C       -10.6050572491        4.2107228801       29.2023861296
  C        -9.4858244398        1.4412007040       23.6881836338
  C        -8.2467128042        8.5326652809       24.1016851253
  C        -2.8088967541        0.1362696812        7.3875451387
  C         0.8432178503        0.1903720424        8.6752098846
  O        -3.0524712048        8.7232838505       16.7024431652
  O        -5.3870935063        8.4461461854       15.9675341452
  O        -6.9625284391       10.5293205908       17.1073004706
  O        -5.0049904440       -0.4130708272       18.1674736407
  O        -4.8636400124        1.7165208133       16.1058968850
  O        -2.9651229089        1.5461106829       17.3629661707
  O        -2.3868983817        0.4461124580       14.7683492425
  O        -4.4291794012       10.4937871159       14.0209745279
  O       -14.7926982039        8.3791869828       30.9230210827
  O       -12.6941744248        8.3107955920       31.8105675277
  O       -10.7047374632       10.3324942268       30.7333782271
  O       -12.6347480295       10.2570588640       29.6606895722
  O       -12.6337427359        1.4651544560       31.8737423930
  O       -14.6720429733        1.3959245525       30.8617824112
  O         0.4064120525       -0.0100440941        1.2597459444
  O         2.4906840588       10.5421730164        2.0636016767
  F        -7.8737720164        6.4723763503       19.4907683404
  F        -7.9597963543        3.7761160796       19.3657047967
  F        -9.6122901667        6.2339647721       28.5363443784
  F        -9.6013705831        3.5993035426       28.5356086267
  O        -5.4064204965        7.9485511817       14.5590544062
  C        -4.0391481810        7.7440693256       14.5383165582
  O        -3.4060456831        7.4369816350       13.5682653681
     123
 i =      199, E =      -996.1995401015
 Zn        -2.5155914053       10.5804512012       16.6303313208
 Zn        -5.2847326655       10.5872280344       15.8503318014
 Zn       -15.1499343287       10.2850733603       31.2302257914
 Zn         3.1790738191       10.5996373794        0.1215085504
  H        -8.9163045370        0.7034699531       28.8571216205
  H        -8.0361411235        0.9252137637       26.5859347502
  H       -11.4652231702        9.5583586305       25.0311375768
  H       -12.3781840739        9.3502649861       27.3351354740
  H        -6.2398885102        0.3576733326       22.8098206837
  H        -9.6897719462        9.0842780805       21.1736358899
  H        -8.7628198820        9.2992753716       18.9186952565
  H        -5.2709518997        0.5527748175       20.5261541237
  H         2.0540004189        9.4228521226        4.5046460811
  H         0.8816102866        9.3928085958        6.6743426761
  H        -2.0259042599        1.3516062758        5.1191729310
  H        -0.9505427893        1.2357041201        2.9228275280
  H        -0.0720189727        1.6592291333       10.7844321749
  H        -2.7977619483        9.3418267664        9.4766605854
  H        -3.9615007745        9.4342260799       11.6505902086
  H        -1.1520781731        1.6456186188       12.9922820911
  H        -5.9682570729        7.6239937638       18.1184417106
  H        -6.0230761261        2.6387996588       18.1093548084
  H        -1.9665835965        3.7483762754       15.8200374275
  H        -2.0566370238        6.2133513309       15.5117455556
  H       -11.5368427241        7.4062047701       29.8768667251
  H       -11.4891621845        2.4113794924       29.9034229622
  H         0.0639725774        3.9420341545        0.3603747906
  H         0.0219236929        6.4430858835        0.3373709225
  H        -9.1026716251        1.5741031898       22.6694938835
  H        -9.0578111627        2.2284572090       24.3296412876
  H       -10.5722291006        1.6087338980       23.6796648054
  H        -7.1597386115        8.3661496403       24.1158898351
  H        -8.6681213327        7.7380757640       23.4581406219
  H        -8.6343442913        8.3927067806       25.1190323564
  H        -3.3239256112        9.9407734219        7.5419522117
  H         3.1895511874        0.4950067242        6.4287272370
  H        -3.1794763043        0.7881743749        8.1816206921
  H         1.3033398828        9.9924463872        8.5998439909
  H         1.2000667089        0.6138148947        9.6213847892
  H         1.2293018410        0.7941831208        7.8497145256
  C        -3.8572530690        7.9063848713       16.0909590436
  C        -6.2869638767       10.4164800772       18.2431066500
  C        -3.8955595954        2.1962636042       16.7854828648
  C        -3.2293312892       10.9035670729       13.8320732015
  C       -13.7318455457        7.7789770114       31.3091284922
  C       -11.3895020653       10.3202512575       29.5963402271
  C       -13.6465443773        2.0000701852       31.3253323998
  C         1.2323059247       10.6858466155        2.2096643502
  C       -10.7265110527       10.3893185703       28.2636953001
  C        -9.4669878088        0.2439034996       28.0384474020
  C        -8.9699272268        0.3829195129       26.7405360933
  C        -9.6632967979       -0.1470712437       25.6389143076
  C       -10.9117434875        9.9739778514       25.8759029386
  C       -11.4280800373        9.8552467049       27.1634684370
  C        -9.1710781437        0.0719718074       24.2430784405
  C        -8.5662569340        9.8947841997       23.5466763619
  C        -6.7852953408       -0.0381555892       21.9505349357
  C        -8.0556659732       10.1134342166       22.1574315942
  C        -8.7409915622        9.6056791733       21.0398293212
  C        -8.2151371043        9.7393306923       19.7531170613
  C        -6.9658909005       10.3500990632       19.5611345037
  C        -6.2367878311        0.0702338941       20.6759296359
  C         0.6641264637       -0.0399528274        3.5725606077
  C         1.1550117753       10.0229009499        4.6495294056
  C         0.4960381096       10.0241134501        5.8776772150
  C        -0.6317615753        0.0034127192        6.1067791342
  C        -1.1381668668        0.7314565198        5.0057878036
  C        -0.5196850119        0.6912081779        3.7624333839
  C        -1.3180579445        0.0448768584        7.4273173721
  C        -0.6423309105        0.0859857102        8.6151413898
  C        -0.9055780916        0.9800260182       10.9592949458
  C        -1.3421411346        0.1160795526        9.9297954494
  C        -2.4717731111       10.0666029539       10.2196323348
  C        -3.1301356846       10.1077780711       11.4460669449
  C        -2.6352730574        0.1725354847       12.4579834930
  C        -1.5247663786        0.9942184027       12.2024414375
  C        -3.8803855223        6.4709897738       16.6093516090
  C        -4.9251143145        5.8470007404       17.3687659899
  C        -2.8315345773        5.7191316998       16.0975057492
  C        -5.9462033454        6.5387431176       18.0873108219
  C        -6.9061281185        5.8366089305       18.7853663796
  C        -3.8482198602        3.6807082418       16.8490784736
  C        -2.7883270813        4.3242024895       16.2443328755
  C        -4.9242018674        4.4066085934       17.4291323432
  C        -5.9729774025        3.7249841000       18.1009760081
  C        -6.9419829582        4.4293782343       18.7618035666
  C       -13.7045408933        6.2908248893       31.2047684982
  C       -12.6100130459        5.6221882455       30.5697196423
  C       -14.7296285229        5.5794932057       31.8033324778
  C       -11.5770712761        6.3197920731       29.8790847567
  C       -10.6143255220        5.6156945216       29.1995135606
  C       -13.6544567735        3.4892524516       31.2327929015
  C       -14.7055165338        4.1733281422       31.8177242789
  C       -12.5886355037        4.1828793928       30.5833372225
  C       -11.5477554585        3.4967381967       29.8951860795
  C       -10.6046441788        4.2107459704       29.2024177674
  C        -9.4826508357        1.4396423546       23.6893806135
  C        -8.2503490464        8.5285071071       24.1010800342
  C        -2.8077399383        0.1321909037        7.3887650783
  C         0.8445912749        0.1880156679        8.6761231362
  O        -3.0519319879        8.7263359029       16.7017898760
  O        -5.3854037402        8.4461616174       15.9693351345
  O        -6.9624784523       10.5295771987       17.1075508326
  O        -5.0048957104       -0.4133907444       18.1675430553
  O        -4.8634348583        1.7171947264       16.1057529715
  O        -2.9649390208        1.5473511438       17.3624417206
  O        -2.3872353364        0.4465542479       14.7680816728
  O        -4.4291037464       10.4930378165       14.0218914204
  O       -14.7931664740        8.3792378216       30.9237242703
  O       -12.6944051891        8.3110647768       31.8107945157
  O       -10.7047719379       10.3324814199       30.7334052017
  O       -12.6347599499       10.2570988984       29.6607033333
  O       -12.6334338829        1.4649797899       31.8737833215
  O       -14.6717561872        1.3964434974       30.8618501852
  O         0.4063515435       -0.0098098801        1.2597790369
  O         2.4905480005       10.5422970103        2.0637283939
  F        -7.8735166027        6.4724792008       19.4910763741
  F        -7.9596340171        3.7760542040       19.3654452959
  F        -9.6120826173        6.2340039804       28.5360745696
  F        -9.6015105324        3.5993075262       28.5357520258
  O        -5.4070423472        7.9492834835       14.5596835043
  C        -4.0396737987        7.7453062120       14.5383673261
  O        -3.4068977639        7.4370816155       13.5685547742
     123
 i =      200, E =      -996.1995459260
 Zn        -2.5155194407       10.5807106069       16.6305043972
 Zn        -5.2848514162       10.5875487005       15.8502095780
 Zn       -15.1500160454       10.2851600203       31.2303162612
 Zn         3.1790675877       10.5998269628        0.1215403040
  H        -8.9155624539        0.7015563973       28.8569365576
  H        -8.0351393158        0.9225229116       26.5858183180
  H       -11.4660093925        9.5581552753       25.0310160181
  H       -12.3790365537        9.3508427392       27.3350939451
  H        -6.2396199166        0.3528403126       22.8108385162
  H        -9.6917811163        9.0847641752       21.1722469649
  H        -8.7639279358        9.3003169615       18.9177848781
  H        -5.2697768582        0.5481007356       20.5275991122
  H         2.0557512156        9.4229764843        4.5045547388
  H         0.8841554489        9.3920544703        6.6746581776
  H        -2.0267118257        1.3476904079        5.1198826719
  H        -0.9517205804        1.2327457101        2.9233745111
  H        -0.0723369914        1.6587854174       10.7838603833
  H        -2.7944410780        9.3375275818        9.4783026465
  H        -3.9594230941        9.4311749471       11.6515781377
  H        -1.1531240654        1.6463794163       12.9914048048
  H        -5.9682608253        7.6245145816       18.1193616100
  H        -6.0229021386        2.6394882085       18.1081862246
  H        -1.9661671504        3.7503351624       15.8188579554
  H        -2.0564906021        6.2148729409       15.5118101198
  H       -11.5362178007        7.4063891850       29.8768733963
  H       -11.4887290795        2.4115525597       29.9041669391
  H         0.0643606310        3.9418536081        0.3600835370
  H         0.0219738184        6.4430008763        0.3373453725
  H        -9.0988498967        1.5726127672       22.6703893284
  H        -9.0537625924        2.2259091184       24.3308451376
  H       -10.5688413847        1.6090623092       23.6798627930
  H        -7.1639676076        8.3601749573       24.1154256994
  H        -8.6730148189        7.7352241040       23.4565918611
  H        -8.6389105797        8.3887904582       25.1177210408
  H        -3.3224940124        9.9373245302        7.5434755834
  H         3.1904236656        0.4911601948        6.4297681232
  H        -3.1781684670        0.7848439789        8.1826315747
  H         1.3048713667        9.9901699281        8.6013267477
  H         1.2011023030        0.6123912446        9.6218729723
  H         1.2307286587        0.7914794796        7.8501849180
  C        -3.8583493430        7.9076912995       16.0902903850
  C        -6.2868912490       10.4156273610       18.2431503909
  C        -3.8954196735        2.1970049121       16.7852291930
  C        -3.2292539860       10.9033583279       13.8321878250
  C       -13.7319709080        7.7789819988       31.3094772619
  C       -11.3896166972       10.3201416652       29.5963323213
  C       -13.6463976967        2.0001893806       31.3252741855
  C         1.2323758724       10.6855129399        2.2097037130
  C       -10.7264238039       10.3883937682       28.2637498688
  C        -9.4665942790        0.2424955436       28.0382565679
  C        -8.9692939763        0.3808192617       26.7403793909
  C        -9.6632285702       -0.1488581705       25.6389677795
  C       -10.9121590288        9.9730645168       25.8758907875
  C       -11.4285748431        9.8553087461       27.1635325920
  C        -9.1702921371        0.0698336591       24.2433623881
  C        -8.5673604481        9.8918744310       23.5462246843
  C        -6.7849424437       -0.0421814030       21.9511663883
  C        -8.0560472143       10.1105055652       22.1571883433
  C        -8.7420069974        9.6046513823       21.0391533071
  C        -8.2158163628        9.7389619809       19.7526530148
  C        -6.9658295977       10.3484170592       19.5612572043
  C        -6.2362744705        0.0667038718       20.6766490801
  C         0.6642795795       -0.0414294992        3.5726685459
  C         1.1560779458       10.0219869272        4.6495315062
  C         0.4977383310       10.0228415633        5.8780254363
  C        -0.6310242307        0.0007411319        6.1071456439
  C        -1.1383307282        0.7284473809        5.0063787907
  C        -0.5202516139        0.6885323844        3.7628401305
  C        -1.3167826709        0.0420880273        7.4279503196
  C        -0.6409013981        0.0832574245        8.6156775327
  C        -0.9054969363        0.9791847024       10.9592699466
  C        -1.3405493461        0.1137025270        9.9304678103
  C        -2.4695088686       10.0634843242       10.2206265435
  C        -3.1284723059       10.1050767839       11.4467175468
  C        -2.6350607542        0.1713985816       12.4578997366
  C        -1.5249550427        0.9936742181       12.2022562849
  C        -3.8804081445        6.4724669579       16.6089743975
  C        -4.9249516061        5.8479386840       17.3685416950
  C        -2.8313973991        5.7206774350       16.0976216036
  C        -5.9463792550        6.5392834476       18.0869933564
  C        -6.9060538541        5.8370226690       18.7853599374
  C        -3.8478840517        3.6816950188       16.8483410627
  C        -2.7882278142        4.3255967891       16.2434222149
  C        -4.9244751667        4.4074930981       17.4277868509
  C        -5.9727580015        3.7257116657       18.1004535318
  C        -6.9421391538        4.4297784565       18.7611247232
  C       -13.7045913968        6.2909002630       31.2043610282
  C       -12.6094221582        5.6224524007       30.5703347347
  C       -14.7294373479        5.5794885467       31.8034092090
  C       -11.5769733055        6.3199680003       29.8786652818
  C       -10.6139476427        5.6158893135       29.1995482877
  C       -13.6539350658        3.4894110953       31.2330136275
  C       -14.7052922910        4.1733536403       31.8174460612
  C       -12.5886759713        4.1830797496       30.5826401361
  C       -11.5471608256        3.4969263948       29.8956797703
  C       -10.6044188157        4.2108855834       29.2023266247
  C        -9.4795604774        1.4380975567       23.6899911383
  C        -8.2542549260        8.5246566027       24.1000364237
  C        -2.8065317645        0.1287875299        7.3899083648
  C         0.8459406762        0.1857477161        8.6769055303
  O        -3.0531525115        8.7276947382       16.7019004272
  O        -5.3858132302        8.4459918848       15.9685677849
  O        -6.9624234113       10.5297107025       17.1077236220
  O        -5.0048459414       -0.4134037097       18.1673242516
  O        -4.8632562995        1.7177256371       16.1056474791
  O        -2.9651538778        1.5476143920       17.3625640538
  O        -2.3874972172        0.4471448466       14.7681343630
  O        -4.4289336513       10.4928744569       14.0221507836
  O       -14.7931750673        8.3793218059       30.9238746787
  O       -12.6944211016        8.3112560648       31.8107021442
  O       -10.7047749851       10.3324649507       30.7333510499
  O       -12.6348691080       10.2570428435       29.6607514441
  O       -12.6333278933        1.4650528761       31.8736907051
  O       -14.6716729268        1.3965837320       30.8617399349
  O         0.4063450383       -0.0099474348        1.2598811770
  O         2.4906284353       10.5421785247        2.0636900696
  F        -7.8734521230        6.4727284754       19.4911123279
  F        -7.9596447964        3.7761056523       19.3650305496
  F        -9.6118625266        6.2340942098       28.5356627043
  F        -9.6014488673        3.5991756619       28.5359149438
  O        -5.4069475078        7.9496282681       14.5586258375
  C        -4.0395090355        7.7460566844       14.5378002934
  O        -3.4066518708        7.4368138749       13.5685752165
     123
 i =      201, E =      -996.1995526163
 Zn        -2.5155726538       10.5805223118       16.6306685189
 Zn        -5.2851117694       10.5880305794       15.8499299541
 Zn       -15.1500836021       10.2850901405       31.2304254054
 Zn         3.1789525468       10.6000125918        0.1216796751
  H        -8.9147914420        0.6995111039       28.8567229739
  H        -8.0340935755        0.9194576928       26.5856622985
  H       -11.4667874161        9.5576642417       25.0310253467
  H       -12.3800252443        9.3514567934       27.3351299056
  H        -6.2394699821        0.3477315435       22.8116502345
  H        -9.6938988333        9.0855393543       21.1704737465
  H        -8.7648884555        9.3010767977       18.9167393637
  H        -5.2682853434        0.5427149253       20.5290271977
  H         2.0577607839        9.4231393742        4.5046256652
  H         0.8870330374        9.3913477515        6.6750530874
  H        -2.0275314224        1.3432744308        5.1207463805
  H        -0.9530322789        1.2294618406        2.9239868082
  H        -0.0728805096        1.6584971116       10.7833239357
  H        -2.7907031558        9.3327097846        9.4798898192
  H        -3.9572455607        9.4277459821       11.6525892967
  H        -1.1545420954        1.6470505129       12.9904910674
  H        -5.9680044737        7.6245420865       18.1202301581
  H        -6.0231321468        2.6397931992       18.1066241209
  H        -1.9660481920        3.7511350462       15.8176010281
  H        -2.0550650495        6.2153433993       15.5125521278
  H       -11.5357532562        7.4067006525       29.8768080982
  H       -11.4877439429        2.4117655473       29.9048054557
  H         0.0648298169        3.9419516363        0.3597469724
  H         0.0224978456        6.4432046376        0.3373211593
  H        -9.0944952093        1.5708304481       22.6714228752
  H        -9.0491046345        2.2231551223       24.3323082401
  H       -10.5649739903        1.6092878538       23.6801845154
  H        -7.1687073644        8.3534265927       24.1149471877
  H        -8.6786728966        7.7319613335       23.4548195235
  H        -8.6442334759        8.3844935113       25.1162128672
  H        -3.3207489104        9.9332347999        7.5452525629
  H         3.1913511101        0.4867843279        6.4310068098
  H        -3.1767543352        0.7811785832        8.1837167703
  H         1.3065812091        9.9874190038        8.6030376396
  H         1.2023409660        0.6104243077        9.6224624247
  H         1.2322985911        0.7884691653        7.8505703602
  C        -3.8592632728        7.9079968746       16.0905233027
  C        -6.2867055550       10.4150221056       18.2431367833
  C        -3.8952865550        2.1972694425       16.7849643871
  C        -3.2293829840       10.9025636448       13.8321308454
  C       -13.7316103929        7.7791413340       31.3090462714
  C       -11.3896946940       10.3199549835       29.5963692579
  C       -13.6462280628        2.0003011236       31.3250278444
  C         1.2325411103       10.6852674111        2.2098372406
  C       -10.7265562588       10.3875226865       28.2637018393
  C        -9.4662716270        0.2408702501       28.0381676586
  C        -8.9686177366        0.3783022466       26.7403480466
  C        -9.6629924636       -0.1507747951       25.6390198676
  C       -10.9124398433        9.9720189924       25.8758373484
  C       -11.4291243305        9.8551259796       27.1634893019
  C        -9.1696227191        0.0673536161       24.2434962780
  C        -8.5687230427        9.8884385623       23.5458123938
  C        -6.7846446175       -0.0467862205       21.9516918253
  C        -8.0566775690       10.1074354135       22.1569778386
  C        -8.7429587885        9.6035445938       21.0382460610
  C        -8.2163153020        9.7383568585       19.7519783720
  C        -6.9655079023       10.3461953026       19.5613937907
  C        -6.2355323214        0.0627145753       20.6774135122
  C         0.6641652899       -0.0434114091        3.5727765558
  C         1.1576172598       10.0212913627        4.6497927090
  C         0.4993244628       10.0212817662        5.8783467367
  C        -0.6300016287       -0.0018775009        6.1078890191
  C        -1.1386925514        0.7247682318        5.0069801335
  C        -0.5206150972        0.6858463177        3.7634354113
  C        -1.3153000420        0.0386460164        7.4289411238
  C        -0.6392781258        0.0805699516        8.6165867805
  C        -0.9050502625        0.9778420146       10.9591656584
  C        -1.3394628237        0.1111822771        9.9311016115
  C        -2.4669021123       10.0593997072       10.2220011743
  C        -3.1269967789       10.1023482319       11.4475477669
  C        -2.6345608448        0.1700339400       12.4578883054
  C        -1.5253264952        0.9933732211       12.2017689091
  C        -3.8804443745        6.4729729800       16.6080739248
  C        -4.9246657294        5.8482159765       17.3684537637
  C        -2.8308691896        5.7214147422       16.0976781531
  C        -5.9461455141        6.5393579000       18.0869615726
  C        -6.9061485902        5.8372639904       18.7851717858
  C        -3.8476683374        3.6820289636       16.8472406334
  C        -2.7880975627        4.3262036054       16.2426331449
  C        -4.9243766514        4.4078714544       17.4267849345
  C        -5.9727215572        3.7260407770       18.0995075649
  C        -6.9418696123        4.4299873101       18.7607158488
  C       -13.7043092468        6.2910237396       31.2042615869
  C       -12.6094151732        5.6227098809       30.5697739965
  C       -14.7291647515        5.5794929124       31.8031777208
  C       -11.5765489071        6.3203139172       29.8788120390
  C       -10.6138707465        5.6159494978       29.1995670986
  C       -13.6535123320        3.4895365258       31.2325715214
  C       -14.7049380007        4.1734287421       31.8170101412
  C       -12.5880750078        4.1833217733       30.5828739181
  C       -11.5465850455        3.4971287741       29.8958592496
  C       -10.6040560183        4.2109521172       29.2022770971
  C        -9.4760074198        1.4365136468       23.6907298935
  C        -8.2586059902        8.5201884334       24.0988389780
  C        -2.8051233489        0.1248612761        7.3911720169
  C         0.8475792278        0.1829404264        8.6776412603
  O        -3.0540082611        8.7276659038       16.7023419272
  O        -5.3860161771        8.4457284135       15.9684616487
  O        -6.9623574114       10.5296552847       17.1078290060
  O        -5.0047115240       -0.4129806349       18.1672845471
  O        -4.8631159854        1.7181059741       16.1053321433
  O        -2.9653155038        1.5477181660       17.3628196249
  O        -2.3880810916        0.4472808824       14.7682249571
  O        -4.4292873136       10.4926038492       14.0221273030
  O       -14.7931425571        8.3792994963       30.9239976553
  O       -12.6943650405        8.3114110649       31.8108243520
  O       -10.7047753559       10.3324993412       30.7333781634
  O       -12.6349416033       10.2570338906       29.6607335735
  O       -12.6333382889        1.4651282189       31.8737061594
  O       -14.6716681651        1.3966303595       30.8617841662
  O         0.4064418767       -0.0101484885        1.2600646970
  O         2.4907919584       10.5420128744        2.0636409807
  F        -7.8738566908        6.4726805210       19.4909145397
  F        -7.9590272551        3.7763052603       19.3653331368
  F        -9.6118403127        6.2338954727       28.5357993515
  F        -9.6011889624        3.5991706850       28.5357907676
  O        -5.4070605453        7.9495723843       14.5580530290
  C        -4.0393107890        7.7465951782       14.5377344864
  O        -3.4062002555        7.4368341451       13.5687838395
     123
 i =      202, E =      -996.1995599913
 Zn        -2.5156065276       10.5807189696       16.6306354229
 Zn        -5.2850021939       10.5884829536       15.8499453623
 Zn       -15.1501198579       10.2849231751       31.2303920845
 Zn         3.1788644401       10.6000436765        0.1219181933
  H        -8.9142141326        0.6979959391       28.8566602254
  H        -8.0333131877        0.9169630445       26.5856267697
  H       -11.4672370237        9.5571801093       25.0311908657
  H       -12.3808070162        9.3519411064       27.3352419181
  H        -6.2394237210        0.3443127063       22.8120459395
  H        -9.6950074766        9.0857900062       21.1691750645
  H        -8.7654063386        9.3015048376       18.9160553976
  H        -5.2674468179        0.5393311289       20.5298417854
  H         2.0591283193        9.4228246458        4.5046665891
  H         0.8890819248        9.3905782485        6.6753427085
  H        -2.0280829097        1.3398574520        5.1214286868
  H        -0.9540952612        1.2267138945        2.9244460290
  H        -0.0731269289        1.6577778600       10.7828710400
  H        -2.7881820178        9.3288967298        9.4812662151
  H        -3.9557231568        9.4252949049       11.6537067221
  H        -1.1550593232        1.6469091310       12.9899920135
  H        -5.9679285181        7.6244791037       18.1199283529
  H        -6.0230393611        2.6398022590       18.1057052574
  H        -1.9660919182        3.7507766945       15.8165209702
  H        -2.0533136964        6.2150327808       15.5135035135
  H       -11.5356590298        7.4064710470       29.8768405831
  H       -11.4870236087        2.4114924383       29.9046872443
  H         0.0653118274        3.9423146150        0.3599428446
  H         0.0233719288        6.4435687092        0.3376809295
  H        -9.0908606671        1.5691408148       22.6721843308
  H        -9.0452886396        2.2210463090       24.3332987437
  H       -10.5617677347        1.6093254372       23.6802263313
  H        -7.1720250471        8.3482812940       24.1145746470
  H        -8.6827378343        7.7294184138       23.4534255946
  H        -8.6479974574        8.3811431382       25.1151509949
  H        -3.3193678473        9.9305691293        7.5471212943
  H         3.1921919244        0.4833446335        6.4318956220
  H        -3.1755172007        0.7792575683        8.1841187547
  H         1.3077945152        9.9856139266        8.6039829908
  H         1.2033740861        0.6084189360        9.6234913070
  H         1.2334024930        0.7864402492        7.8514998844
  C        -3.8594560276        7.9074705346       16.0900372407
  C        -6.2865540569       10.4145601031       18.2430935642
  C        -3.8951078506        2.1973430961       16.7845392592
  C        -3.2292502525       10.9023146699       13.8322715293
  C       -13.7313355032        7.7791893219       31.3088962238
  C       -11.3897400723       10.3200684877       29.5963713462
  C       -13.6461327417        2.0002071630       31.3246630251
  C         1.2325714361       10.6846991510        2.2099221950
  C       -10.7266731980       10.3868877313       28.2636041714
  C        -9.4659912197        0.2395720722       28.0382176235
  C        -8.9681842228        0.3764138660       26.7404127808
  C        -9.6626292284       -0.1523097430       25.6390199992
  C       -10.9125354116        9.9712928557       25.8758549841
  C       -11.4295456576        9.8548600120       27.1634499681
  C        -9.1689382721        0.0653422076       24.2435322431
  C        -8.5696649964        9.8855812243       23.5455367211
  C        -6.7845661960       -0.0498152414       21.9519697150
  C        -8.0571071687       10.1052211751       22.1568648082
  C        -8.7433947939        9.6025416809       21.0375841944
  C        -8.2164592276        9.7378484792       19.7514838324
  C        -6.9652426541       10.3447338950       19.5614591627
  C        -6.2350250270        0.0599622483       20.6779042155
  C         0.6644211939       -0.0447041446        3.5730070780
  C         1.1585983230       10.0203514568        4.6498935309
  C         0.5007386368       10.0201576387        5.8787122308
  C        -0.6292542624       -0.0040132044        6.1084233565
  C        -1.1387205594        0.7220763735        5.0075575041
  C        -0.5210248607        0.6835026720        3.7638312682
  C        -1.3141711438        0.0365659852        7.4296711982
  C        -0.6381348129        0.0780942795        8.6173370123
  C        -0.9046628647        0.9765147430       10.9591636263
  C        -1.3384786720        0.1088158315        9.9317814075
  C        -2.4652818186       10.0563985358       10.2230248479
  C        -3.1257297330       10.1001342085       11.4484341705
  C        -2.6339273156        0.1687794394       12.4581637646
  C        -1.5252514247        0.9926374796       12.2015717158
  C        -3.8803563884        6.4726130414       16.6072566759
  C        -4.9244736120        5.8480165777       17.3681054309
  C        -2.8303998274        5.7211735532       16.0972349338
  C        -5.9457513059        6.5392768173       18.0866981139
  C        -6.9056145549        5.8371635459       18.7852309367
  C        -3.8473681006        3.6819794598       16.8468637749
  C        -2.7879655947        4.3259067797       16.2419034905
  C        -4.9241163993        4.4078876205       17.4264797593
  C        -5.9725451005        3.7259858356       18.0990509407
  C        -6.9414295842        4.4298315983       18.7607991427
  C       -13.7041092911        6.2910495446       31.2035669300
  C       -12.6090841649        5.6225771642       30.5696213182
  C       -14.7286112169        5.5796647815       31.8033207482
  C       -11.5762224048        6.3201328257       29.8787480706
  C       -10.6133522775        5.6160194376       29.1996163631
  C       -13.6533315406        3.4894568709       31.2324564022
  C       -14.7048313414        4.1736560804       31.8164963707
  C       -12.5880439541        4.1831814752       30.5827219937
  C       -11.5462418091        3.4968713110       29.8961048202
  C       -10.6041910669        4.2110190107       29.2024575943
  C        -9.4730390292        1.4352326260       23.6912673237
  C        -8.2616126644        8.5166617839       24.0980007834
  C        -2.8040376346        0.1221342450        7.3921069967
  C         0.8486565474        0.1809959782        8.6784916703
  O        -3.0541275206        8.7271058169       16.7019368988
  O        -5.3857743863        8.4455069246       15.9683487388
  O        -6.9623626407       10.5294750517       17.1078908867
  O        -5.0045048329       -0.4133320875       18.1671955647
  O        -4.8632099015        1.7181511587       16.1053821692
  O        -2.9651400736        1.5482196229       17.3625468450
  O        -2.3880934704        0.4470852840       14.7683875233
  O        -4.4295440362       10.4931107567       14.0219560008
  O       -14.7928759457        8.3792777883       30.9236084562
  O       -12.6941249926        8.3113861523       31.8107026845
  O       -10.7048292321       10.3323713780       30.7334014023
  O       -12.6349611454       10.2569069725       29.6607879874
  O       -12.6334285051        1.4651123398       31.8738108330
  O       -14.6717893264        1.3965334821       30.8618910224
  O         0.4065320155       -0.0101944353        1.2601328368
  O         2.4909125406       10.5420011074        2.0636815668
  F        -7.8736371126        6.4726742875       19.4906727115
  F        -7.9590616868        3.7763483440       19.3650030547
  F        -9.6117836701        6.2341481389       28.5358581121
  F        -9.6014495002        3.5991019494       28.5357157454
  O        -5.4075141504        7.9488679600       14.5579891872
  C        -4.0394212993        7.7462747101       14.5373367029
  O        -3.4061091248        7.4365919620       13.5683861627
     123
 i =      203, E =      -996.1995697351
 Zn        -2.5154977473       10.5809586095       16.6305196462
 Zn        -5.2851215629       10.5898149976       15.8500628566
 Zn       -15.1502436565       10.2847515754       31.2304375183
 Zn         3.1788081231       10.6000847659        0.1226353283
  H        -8.9119650063        0.6919521474       28.8563789998
  H        -8.0299487467        0.9072784806       26.5855586972
  H       -11.4690715960        9.5553279340       25.0314374835
  H       -12.3836717118        9.3536578886       27.3354524260
  H        -6.2384739243        0.3291861451       22.8143874162
  H        -9.6999371376        9.0861150740       21.1640602625
  H        -8.7678761801        9.3034326666       18.9129752985
  H        -5.2639519591        0.5254634726       20.5335046521
  H         2.0648838972        9.4223729033        4.5045927269
  H         0.8974397761        9.3877511438        6.6763312242
  H        -2.0304052326        1.3264798622        5.1241916067
  H        -0.9582106750        1.2163674631        2.9264802366
  H        -0.0745245683        1.6553368883       10.7813206051
  H        -2.7781797584        9.3141307080        9.4869008301
  H        -3.9495852167        9.4150837650       11.6576665054
  H        -1.1582601324        1.6475239376       12.9879773812
  H        -5.9668647977        7.6245004214       18.1196069485
  H        -6.0230617320        2.6399599975       18.1021758311
  H        -1.9660642481        3.7507039673       15.8134211300
  H        -2.0489157814        6.2156624005       15.5166164113
  H       -11.5348467337        7.4060847051       29.8769214215
  H       -11.4847964746        2.4110284762       29.9052741169
  H         0.0661834565        3.9431975921        0.3600336533
  H         0.0259091306        6.4444108475        0.3385535429
  H        -9.0771913293        1.5633904205       22.6752561975
  H        -9.0307192715        2.2127204519       24.3374306047
  H       -10.5495655096        1.6100434627       23.6806873270
  H        -7.1856497711        8.3281276633       24.1130179085
  H        -8.6990145101        7.7195560790       23.4477776942
  H        -8.6631158446        8.3681650056       25.1107145265
  H        -3.3137027228        9.9194527199        7.5539660740
  H         3.1951748064        0.4698941621        6.4355499912
  H        -3.1710973652        0.7700361856        8.1868310883
  H         1.3126447968        9.9777631543        8.6079144724
  H         1.2075538107        0.6014229426        9.6265378286
  H         1.2376160542        0.7776090918        7.8543368625
  C        -3.8598001641        7.9068150061       16.0892423404
  C        -6.2863528685       10.4129953500       18.2432326284
  C        -3.8944375447        2.1977432365       16.7830274714
  C        -3.2289413410       10.9010219195       13.8324400057
  C       -13.7306196113        7.7793667015       31.3083854971
  C       -11.3900775401       10.3194474256       29.5964016654
  C       -13.6462116134        2.0001632389       31.3244317150
  C         1.2327566656       10.6831495352        2.2101949405
  C       -10.7269091227       10.3846812949       28.2635519079
  C        -9.4646641142        0.2344637173       28.0380771573
  C        -8.9662683204        0.3692204927       26.7403514843
  C        -9.6616332521       -0.1585039875       25.6391081986
  C       -10.9133364131        9.9681929330       25.8759770304
  C       -11.4310432714        9.8540815152       27.1635934960
  C        -9.1663588832        0.0576689308       24.2439710105
  C        -8.5732608089        9.8751682525       23.5442027849
  C        -6.7838676941       -0.0623924008       21.9534116918
  C        -8.0586203318       10.0958355949       22.1561275310
  C        -8.7458802329        9.5988841541       21.0349563023
  C        -8.2176180524        9.7357337181       19.7495813489
  C        -6.9644902006       10.3388724326       19.5617897223
  C        -6.2331947051        0.0490027765       20.6799670966
  C         0.6652589706       -0.0495812091        3.5737530432
  C         1.1627494965       10.0173203607        4.6503000009
  C         0.5061687108       10.0156250451        5.8798759194
  C        -0.6259211770       -0.0120519393        6.1106667941
  C        -1.1390982878        0.7114889667        5.0098257575
  C        -0.5226209716        0.6746217548        3.7654973931
  C        -1.3099452962        0.0268994194        7.4323106621
  C        -0.6335916700        0.0693567610        8.6197764672
  C        -0.9040871156        0.9721488128       10.9593265754
  C        -1.3338970106        0.0998364549        9.9342862004
  C        -2.4585353206       10.0451939917       10.2267592950
  C        -3.1208165765       10.0910775780       11.4511912987
  C        -2.6325137150        0.1640610600       12.4586911072
  C        -1.5257464940        0.9899474387       12.2010591525
  C        -3.8800867557        6.4722120422       16.6056016561
  C        -4.9238603964        5.8477618596       17.3671637187
  C        -2.8289602316        5.7212142552       16.0966310542
  C        -5.9445046543        6.5391607543       18.0864971669
  C        -6.9047169719        5.8369832813       18.7848619046
  C        -3.8469269173        3.6822823933       16.8449045277
  C        -2.7875058894        4.3257323014       16.2397952418
  C        -4.9236381829        4.4081081388       17.4253566106
  C        -5.9721794566        3.7259405723       18.0975459550
  C        -6.9408440489        4.4295126052       18.7601816412
  C       -13.7030012289        6.2911363950       31.2023082875
  C       -12.6082104945        5.6220652610       30.5689168072
  C       -14.7272668943        5.5801151927       31.8028214292
  C       -11.5751051819        6.3198058860       29.8790769628
  C       -10.6126366407        5.6159234726       29.1993062408
  C       -13.6531182707        3.4894065677       31.2316164857
  C       -14.7042748611        4.1742219666       31.8159332488
  C       -12.5872858652        4.1826458514       30.5828736050
  C       -11.5450021237        3.4964113403       29.8963577363
  C       -10.6033234785        4.2109657675       29.2032154239
  C        -9.4617552902        1.4302396364       23.6934990350
  C        -8.2741495815        8.5032078393       24.0944189064
  C        -2.7999540062        0.1112456128        7.3961355257
  C         0.8530281769        0.1730295678        8.6817784117
  O        -3.0543254734        8.7266753615       16.7016088976
  O        -5.3846742111        8.4447823151       15.9687794766
  O        -6.9623395054       10.5289186809       17.1080975322
  O        -5.0042282572       -0.4132958382       18.1669929782
  O        -4.8630425471        1.7181026824       16.1049228299
  O        -2.9651839631        1.5489203172       17.3619258723
  O        -2.3880435309        0.4467245088       14.7685299630
  O        -4.4302403185       10.4937145955       14.0216847069
  O       -14.7921689601        8.3794148427       30.9226790938
  O       -12.6936009272        8.3114878139       31.8104017471
  O       -10.7049552125       10.3323274593       30.7333111766
  O       -12.6353142768       10.2569732360       29.6610347537
  O       -12.6334908191        1.4650519389       31.8736781361
  O       -14.6718470341        1.3964044170       30.8617636587
  O         0.4067090314       -0.0105232325        1.2604986409
  O         2.4912911141       10.5416793570        2.0637307700
  F        -7.8733276855        6.4720991185       19.4903841252
  F        -7.9588436660        3.7764622940       19.3647863503
  F        -9.6116936368        6.2341577623       28.5360349355
  F        -9.6010522359        3.5988220343       28.5352234073
  O        -5.4078292560        7.9474889075       14.5583160181
  C        -4.0398906287        7.7461773985       14.5368406816
  O        -3.4059608107        7.4372376412       13.5678388867
     123
 i =      204, E =      -996.1995789956
 Zn        -2.5155120484       10.5800964361       16.6304322793
 Zn        -5.2854665454       10.5893077355       15.8500863111
 Zn       -15.1501541137       10.2848040549       31.2304392540
 Zn         3.1788143025       10.6000042993        0.1224780027
  H        -8.9123927727        0.6929238038       28.8564436221
  H        -8.0303484545        0.9085505891       26.5856805352
  H       -11.4685304019        9.5551410369       25.0313987147
  H       -12.3831307306        9.3532495040       27.3353844431
  H        -6.2386242616        0.3314183316       22.8140864638
  H        -9.6987719336        9.0850921963       21.1646950666
  H        -8.7670419157        9.3026588877       18.9132286347
  H        -5.2647558815        0.5281518584       20.5329013922
  H         2.0641572150        9.4222509703        4.5046921439
  H         0.8963439883        9.3879850094        6.6762663952
  H        -2.0299740900        1.3282169313        5.1239312421
  H        -0.9575890892        1.2175724402        2.9263447731
  H        -0.0741197078        1.6551932589       10.7818213290
  H        -2.7801891548        9.3161077736        9.4863875071
  H        -3.9503603132        9.4161219689       11.6576131206
  H        -1.1575334801        1.6469019387       12.9886518705
  H        -5.9665784367        7.6240275273       18.1190702506
  H        -6.0231831799        2.6394359175       18.1030832399
  H        -1.9660546244        3.7495748540       15.8147374550
  H        -2.0498353221        6.2152458366       15.5165050524
  H       -11.5351366315        7.4058783060       29.8770925969
  H       -11.4854241545        2.4108746213       29.9048031249
  H         0.0656700781        3.9431776120        0.3602977467
  H         0.0256936726        6.4443321705        0.3387293102
  H        -9.0787313965        1.5641076261       22.6748860495
  H        -9.0324241643        2.2137146805       24.3368142570
  H       -10.5508969012        1.6099686747       23.6805689277
  H        -7.1837846233        8.3308329829       24.1130020387
  H        -8.6966582308        7.7207947915       23.4483435606
  H        -8.6609980101        8.3698627823       25.1111318618
  H        -3.3146027683        9.9213596881        7.5537790953
  H         3.1947158408        0.4712781982        6.4349110394
  H        -3.1717315993        0.7718451024        8.1862512080
  H         1.3119389309        9.9784805288        8.6070374740
  H         1.2068184014        0.6015361720        9.6264921833
  H         1.2369641670        0.7792885650        7.8545012722
  C        -3.8590708487        7.9060126718       16.0897701584
  C        -6.2864053971       10.4131235179       18.2433704294
  C        -3.8946282331        2.1969775691       16.7837042984
  C        -3.2287920712       10.9009867977       13.8324239565
  C       -13.7305215401        7.7792236232       31.3080649015
  C       -11.3900337375       10.3196810064       29.5964367504
  C       -13.6463495932        2.0000562178       31.3245500671
  C         1.2326931499       10.6829799737        2.2101971072
  C       -10.7269463547       10.3850363095       28.2635751491
  C        -9.4648914641        0.2351052380       28.0381295465
  C        -8.9665355058        0.3703357842       26.7404341372
  C        -9.6615425073       -0.1578625616       25.6390903224
  C       -10.9131248909        9.9686547355       25.8759276867
  C       -11.4306271369        9.8538221537       27.1635185071
  C        -9.1667648284        0.0583461081       24.2437581161
  C        -8.5723345775        9.8766997285       23.5443034388
  C        -6.7839642842       -0.0602304582       21.9530731397
  C        -8.0582079158       10.0971074297       22.1561050129
  C        -8.7453052702        9.5989051481       21.0353568306
  C        -8.2173153495        9.7356182212       19.7498912443
  C        -6.9646956647       10.3399059580       19.5616282737
  C        -6.2336172198        0.0508472910       20.6794798860
  C         0.6654116476       -0.0487628541        3.5738037326
  C         1.1620817686       10.0174568852        4.6502695288
  C         0.5055638353       10.0162625166        5.8798717144
  C        -0.6264691462       -0.0111767594        6.1104920570
  C        -1.1387611089        0.7130557625        5.0097653868
  C        -0.5223302202        0.6756965823        3.7654146225
  C        -1.3103960089        0.0283184956        7.4322439080
  C        -0.6342620570        0.0704657831        8.6198293179
  C        -0.9040624291        0.9723835070       10.9594582691
  C        -1.3349823632        0.1009449702        9.9340735530
  C        -2.4600407703       10.0467263848       10.2263854475
  C        -3.1215854747       10.0921455398       11.4511327162
  C        -2.6325358873        0.1645226867       12.4589345775
  C        -1.5252969035        0.9897799462       12.2014123297
  C        -3.8800343246        6.4713385492       16.6066049184
  C        -4.9240388362        5.8470098365       17.3672089864
  C        -2.8291766010        5.7203309634       16.0970063791
  C        -5.9445822625        6.5386900190       18.0865686072
  C        -6.9048099731        5.8368105735       18.7850238074
  C        -3.8471142396        3.6815010294       16.8453169435
  C        -2.7874603931        4.3249982824       16.2404764386
  C        -4.9237008654        4.4072522114       17.4258056199
  C        -5.9722528207        3.7254316796       18.0982075471
  C        -6.9409055961        4.4293789380       18.7605287286
  C       -13.7030890587        6.2909256154       31.2028897431
  C       -12.6083779227        5.6218902971       30.5691879840
  C       -14.7275982166        5.5799514289       31.8028640476
  C       -11.5755809906        6.3195593177       29.8788287190
  C       -10.6127643133        5.6157305262       29.1995173566
  C       -13.6533644045        3.4892789363       31.2319075609
  C       -14.7043718602        4.1740007649       31.8165398180
  C       -12.5876453673        4.1824742014       30.5826238647
  C       -11.5453394066        3.4962609222       29.8962029132
  C       -10.6035103408        4.2107707385       29.2029506583
  C        -9.4629885103        1.4307377702       23.6932430125
  C        -8.2724378322        8.5049741812       24.0947332048
  C        -2.8003597681        0.1129669603        7.3957444183
  C         0.8524424072        0.1737583930        8.6815293145
  O        -3.0527713608        8.7250439975       16.7016822477
  O        -5.3850526723        8.4450694755       15.9691951697
  O        -6.9623651647       10.5289479999       17.1081862753
  O        -5.0042476735       -0.4134755597       18.1672241320
  O        -4.8632415234        1.7176108061       16.1052182889
  O        -2.9652065363        1.5479632131       17.3621917468
  O        -2.3877347641        0.4465756790       14.7685138452
  O        -4.4299759309       10.4934887934       14.0216701940
  O       -14.7921489845        8.3793582689       30.9228098610
  O       -12.6937261475        8.3113679098       31.8106071694
  O       -10.7049295608       10.3322125451       30.7333474361
  O       -12.6352679286       10.2569126192       29.6609343953
  O       -12.6335170536        1.4650647594       31.8737105497
  O       -14.6718881722        1.3963387608       30.8617876847
  O         0.4066989860       -0.0103538305        1.2604906788
  O         2.4912511756       10.5418127665        2.0637020500
  F        -7.8731888714        6.4723052167       19.4905271351
  F        -7.9590233456        3.7763965300       19.3647753673
  F        -9.6118070489        6.2341193715       28.5359573783
  F        -9.6009895755        3.5987397953       28.5353700164
  O        -5.4078608562        7.9473381655       14.5594026206
  C        -4.0399566813        7.7457212897       14.5374907984
  O        -3.4065859802        7.4371047469       13.5681081803
     123
 i =      205, E =      -996.1995908641
 Zn        -2.5155251188       10.5792991339       16.6303492875
 Zn        -5.2858832141       10.5888227499       15.8505194228
 Zn       -15.1500835860       10.2848483878       31.2305129055
 Zn         3.1787983560       10.5998248380        0.1222424603
  H        -8.9116855114        0.6908065685       28.8562636428
  H        -8.0290325498        0.9049469609       26.5858091830
  H       -11.4688434476        9.5539687424       25.0313852792
  H       -12.3838640137        9.3534935546       27.3352891310
  H        -6.2378380078        0.3247798189       22.8152501954
  H        -9.6995939853        9.0828796844       21.1631001115
  H        -8.7675179659        9.3028386952       18.9118179676
  H        -5.2641229069        0.5244323997       20.5341571895
  H         2.0664573518        9.4218942377        4.5045474543
  H         0.8997974454        9.3865274587        6.6767120688
  H        -2.0305829357        1.3231302077        5.1252065186
  H        -0.9589922068        1.2133583486        2.9274195173
  H        -0.0741736241        1.6535777592       10.7817784635
  H        -2.7777012740        9.3107151482        9.4889842013
  H        -3.9476003133        9.4112680403       11.6599562634
  H        -1.1582250168        1.6466111729       12.9885578828
  H        -5.9656528387        7.6232926450       18.1183326991
  H        -6.0237169200        2.6387153095       18.1031918119
  H        -1.9658039802        3.7487976007       15.8160011662
  H        -2.0511365033        6.2159631300       15.5171035333
  H       -11.5353273128        7.4054278145       29.8774030327
  H       -11.4857463830        2.4105231196       29.9046435384
  H         0.0650377304        3.9432773085        0.3606410664
  H         0.0256441591        6.4443144498        0.3390701060
  H        -9.0732697938        1.5621423000       22.6759859949
  H        -9.0266210847        2.2103037068       24.3383807983
  H       -10.5460644369        1.6105589654       23.6807295643
  H        -7.1886999838        8.3232755818       24.1116435825
  H        -8.7026325843        7.7172123976       23.4455725563
  H        -8.6666037255        8.3649364389       25.1088311309
  H        -3.3129255377        9.9175728696        7.5572320083
  H         3.1957093377        0.4656681375        6.4361935321
  H        -3.1702163467        0.7689770671        8.1872321280
  H         1.3135620385        9.9750457078        8.6082007608
  H         1.2079001982        0.5977079603        9.6282473370
  H         1.2385892415        0.7765437097        7.8562830329
  C        -3.8581860355        7.9055597230       16.0904113024
  C        -6.2865112830       10.4123674408       18.2438585895
  C        -3.8945546926        2.1960543310       16.7839359332
  C        -3.2283348521       10.9002194521       13.8324821370
  C       -13.7306438453        7.7789157503       31.3084415260
  C       -11.3900179792       10.3190457145       29.5964228904
  C       -13.6465786954        1.9998281151       31.3248210444
  C         1.2327377730       10.6819032953        2.2103021537
  C       -10.7271292183       10.3845112573       28.2635242721
  C        -9.4644328404        0.2330894675       28.0379705058
  C        -8.9657804664        0.3676938747       26.7403648731
  C        -9.6609559867       -0.1603731368       25.6389494771
  C       -10.9132280597        9.9673369938       25.8758768334
  C       -11.4308681613        9.8531460175       27.1634282742
  C        -9.1653246575        0.0556242753       24.2438662018
  C        -8.5737033043        9.8726383878       23.5434632842
  C        -6.7836716552       -0.0647861136       21.9535050266
  C        -8.0584246576       10.0932597404       22.1558442872
  C        -8.7458583260        9.5965467782       21.0345850330
  C        -8.2178628394        9.7344615207       19.7493399029
  C        -6.9648150777       10.3385216135       19.5615882294
  C        -6.2333920717        0.0475587088       20.6800085590
  C         0.6658985739       -0.0505759402        3.5741377117
  C         1.1636657520       10.0160868814        4.6504866256
  C         0.5078071164       10.0143330850        5.8804612922
  C        -0.6249581197       -0.0143350727        6.1116025942
  C        -1.1387154815        0.7091118673        5.0108934883
  C        -0.5225584576        0.6723439125        3.7663924151
  C        -1.3088298037        0.0251224609        7.4334162920
  C        -0.6326945785        0.0663540365        8.6210097638
  C        -0.9039239001        0.9705355483       10.9596657286
  C        -1.3338838874        0.0976452570        9.9350429145
  C        -2.4585311478       10.0428764636       10.2278564838
  C        -3.1197088029       10.0882523185       11.4526221058
  C        -2.6318621254        0.1626351510       12.4595468912
  C        -1.5249424452        0.9881837951       12.2017334597
  C        -3.8798248728        6.4706440358       16.6084014664
  C        -4.9244942892        5.8461909477       17.3665953967
  C        -2.8297061647        5.7196437334       16.0970838995
  C        -5.9449380310        6.5379470529       18.0863353352
  C        -6.9049971585        5.8364460139       18.7851258695
  C        -3.8474059536        3.6805924553       16.8452929728
  C        -2.7872370120        4.3244379064       16.2411698931
  C        -4.9239665984        4.4061860209       17.4257078408
  C        -5.9726896698        3.7247641367       18.0981644739
  C        -6.9410952905        4.4290414341       18.7607579272
  C       -13.7031594721        6.2906278218       31.2033029021
  C       -12.6084754735        5.6215494742       30.5694250263
  C       -14.7276147333        5.5798448174       31.8034047478
  C       -11.5759415155        6.3190569767       29.8786228819
  C       -10.6127287170        5.6154096035       29.1997841727
  C       -13.6537325901        3.4890070855       31.2322770574
  C       -14.7043864470        4.1737872563       31.8173006932
  C       -12.5878415771        4.1821285337       30.5826941389
  C       -11.5456833102        3.4958903272       29.8962258402
  C       -10.6038231900        4.2104687320       29.2026560067
  C        -9.4586131537        1.4288076345       23.6939823377
  C        -8.2769524457        8.4998779547       24.0928680833
  C        -2.7988392470        0.1090429063        7.3974899711
  C         0.8539297360        0.1703513421        8.6829947262
  O        -3.0507209058        8.7235912990       16.7017608164
  O        -5.3857381788        8.4458245803       15.9697416875
  O        -6.9625205907       10.5289463922       17.1087207854
  O        -5.0042426959       -0.4135874212       18.1675665896
  O        -4.8636917090        1.7171382074       16.1055626592
  O        -2.9650783926        1.5469472970       17.3624458430
  O        -2.3872244878        0.4461289269       14.7685302819
  O        -4.4295336137       10.4932026729       14.0218095471
  O       -14.7918708417        8.3792728938       30.9225537439
  O       -12.6936348236        8.3111810761       31.8105505638
  O       -10.7049757611       10.3322996526       30.7333334174
  O       -12.6353118316       10.2571594520       29.6607960280
  O       -12.6335205178        1.4649851823       31.8737121149
  O       -14.6718965754        1.3961728083       30.8618049756
  O         0.4068067248       -0.0102679042        1.2606354455
  O         2.4914081779       10.5418947030        2.0635772758
  F        -7.8731142231        6.4723930685       19.4906826138
  F        -7.9594095702        3.7760194931       19.3645673683
  F        -9.6117794426        6.2341532009       28.5357358110
  F        -9.6012689423        3.5986486941       28.5354581346
  O        -5.4079310566        7.9474856907       14.5609251800
  C        -4.0403818357        7.7452006341       14.5383059707
  O        -3.4073949140        7.4371375622       13.5685444379
     123
 i =      206, E =      -996.1995988527
 Zn        -2.5156688929       10.5793672904       16.6303194420
 Zn        -5.2860351503       10.5884545246       15.8513732393
 Zn       -15.1500923711       10.2848721647       31.2305321532
 Zn         3.1788737471       10.5997980701        0.1220919792
  H        -8.9110826089        0.6890861264       28.8561657275
  H        -8.0278208606        0.9019178901       26.5859270498
  H       -11.4689600155        9.5527190080       25.0314185591
  H       -12.3843030496        9.3534174926       27.3352291020
  H        -6.2370672477        0.3190317210       22.8161528616
  H        -9.6998699555        9.0801617232       21.1621186377
  H        -8.7680517172        9.3026203003       18.9109251332
  H        -5.2640836198        0.5217230894       20.5349699678
  H         2.0682637177        9.4215680972        4.5043001253
  H         0.9027418238        9.3851546633        6.6769509437
  H        -2.0310932042        1.3187163793        5.1264522240
  H        -0.9603418763        1.2099054779        2.9283536515
  H        -0.0741491458        1.6518437428       10.7815663092
  H        -2.7757730354        9.3063790297        9.4911267909
  H        -3.9452846381        9.4072344363       11.6621435958
  H        -1.1584545532        1.6459835967       12.9883312209
  H        -5.9653670224        7.6226712286       18.1179414876
  H        -6.0243786544        2.6378776077       18.1036062079
  H        -1.9655917742        3.7476904909       15.8172996914
  H        -2.0515332387        6.2154106091       15.5175955216
  H       -11.5358757052        7.4052080484       29.8777649917
  H       -11.4861846033        2.4103423206       29.9041958441
  H         0.0645166732        3.9434038084        0.3612004090
  H         0.0255658326        6.4444352583        0.3394229422
  H        -9.0685513482        1.5605461962       22.6769550032
  H        -9.0215653680        2.2075002175       24.3398436031
  H       -10.5416968277        1.6110833209       23.6809472019
  H        -7.1930307918        8.3167926930       24.1103744229
  H        -8.7077471506        7.7141219692       23.4430675196
  H        -8.6713694065        8.3604400234       25.1067985329
  H        -3.3112192951        9.9143987955        7.5605752355
  H         3.1964672926        0.4608649128        6.4374607168
  H        -3.1687810871        0.7666548827        8.1880778957
  H         1.3150050727        9.9721117267        8.6089810626
  H         1.2089469293        0.5939389946        9.6301428760
  H         1.2398861173        0.7738620897        7.8582350639
  C        -3.8569911651        7.9049828865       16.0907795099
  C        -6.2867003483       10.4119692468       18.2440757565
  C        -3.8949515522        2.1956968222       16.7845583743
  C        -3.2282349602       10.8998551803       13.8328243784
  C       -13.7302960923        7.7788241530       31.3078224355
  C       -11.3901248666       10.3190091699       29.5963048920
  C       -13.6469486717        1.9997326496       31.3252995939
  C         1.2327946278       10.6816151739        2.2103881790
  C       -10.7270599218       10.3837754751       28.2634801445
  C        -9.4639333314        0.2313864485       28.0378656542
  C        -8.9651371964        0.3656858983       26.7402847182
  C        -9.6604155713       -0.1626848978       25.6389352164
  C       -10.9132686343        9.9661121706       25.8758657255
  C       -11.4309759086        9.8524700392       27.1634310965
  C        -9.1648714695        0.0528235981       24.2437001502
  C        -8.5740223987        9.8697147704       23.5431957158
  C        -6.7837366498       -0.0687592087       21.9540633944
  C        -8.0588691936       10.0897011960       22.1555223114
  C        -8.7462724621        9.5941794944       21.0336988668
  C        -8.2180417760        9.7331469026       19.7487035029
  C        -6.9649142982       10.3376173414       19.5615932438
  C        -6.2334385151        0.0449363702       20.6806833508
  C         0.6663794878       -0.0519789237        3.5745025683
  C         1.1648205344       10.0147703480        4.6505754316
  C         0.5098944628       10.0128509701        5.8810599206
  C        -0.6239154218       -0.0172475329        6.1123469355
  C        -1.1382002308        0.7061880004        5.0120209348
  C        -0.5231133887        0.6692447527        3.7669994886
  C        -1.3075986458        0.0215132622        7.4342874648
  C        -0.6315448205        0.0634610394        8.6218486684
  C        -0.9036158305        0.9685653627       10.9601255965
  C        -1.3324879502        0.0946364120        9.9360034755
  C        -2.4569092883       10.0395001419       10.2292002762
  C        -3.1183178419       10.0850920345       11.4537500806
  C        -2.6313234466        0.1605857322       12.4601995430
  C        -1.5250137810        0.9867903819       12.2020190623
  C        -3.8799467391        6.4697744275       16.6085894234
  C        -4.9243944293        5.8454943740       17.3671780135
  C        -2.8295625703        5.7187986205       16.0978799090
  C        -5.9451155697        6.5373974897       18.0863099528
  C        -6.9048527256        5.8359756836       18.7853285201
  C        -3.8475135189        3.6800366582       16.8460371321
  C        -2.7870811707        4.3236722960       16.2418543397
  C        -4.9242893028        4.4053089884       17.4259033390
  C        -5.9729433124        3.7239960242       18.0985298143
  C        -6.9412909966        4.4285917445       18.7609145473
  C       -13.7032594865        6.2904249781       31.2039139468
  C       -12.6087586181        5.6212622095       30.5697045187
  C       -14.7276928447        5.5797338724       31.8039926063
  C       -11.5762217932        6.3188178247       29.8789939991
  C       -10.6132311174        5.6150721457       29.1998894969
  C       -13.6539466145        3.4888754995       31.2328730684
  C       -14.7046552341        4.1736075264       31.8177550557
  C       -12.5880510001        4.1818496821       30.5827317134
  C       -11.5459922450        3.4957327286       29.8959739220
  C       -10.6036008562        4.2101704325       29.2026844544
  C        -9.4546103970        1.4272605875       23.6946718841
  C        -8.2809655827        8.4954572411       24.0911870327
  C        -2.7976303579        0.1057933243        7.3989822113
  C         0.8550572184        0.1673267473        8.6844864007
  O        -3.0493757708        8.7230472734       16.7018761200
  O        -5.3856880449        8.4462618348       15.9699526706
  O        -6.9627755293       10.5290362402       17.1090911180
  O        -5.0043295624       -0.4137264587       18.1674559710
  O        -4.8634944167        1.7168184047       16.1051880765
  O        -2.9648805072        1.5468944863       17.3621551735
  O        -2.3869858045        0.4459904192       14.7687464199
  O        -4.4294813293       10.4930574421       14.0221584148
  O       -14.7918005547        8.3791519430       30.9227311098
  O       -12.6937103947        8.3110139275       31.8109688619
  O       -10.7050292215       10.3321397069       30.7331712083
  O       -12.6354120803       10.2569876938       29.6609403994
  O       -12.6335806779        1.4649217912       31.8736242884
  O       -14.6719406891        1.3960071333       30.8616902129
  O         0.4067657875       -0.0105318848        1.2607686374
  O         2.4914393496       10.5416547924        2.0635139406
  F        -7.8729760001        6.4720743607       19.4908165038
  F        -7.9593178508        3.7761262544       19.3653415761
  F        -9.6118594187        6.2335973028       28.5357952539
  F        -9.6009499205        3.5987625892       28.5354144751
  O        -5.4078725565        7.9473916947       14.5621629853
  C        -4.0402561301        7.7444413604       14.5387277821
  O        -3.4077757390        7.4366564095       13.5685777242
     123
 i =      207, E =      -996.1996112546
 Zn        -2.5157417556       10.5792589889       16.6300376710
 Zn        -5.2864439863       10.5881334166       15.8525141664
 Zn       -15.1501256217       10.2849362398       31.2307473018
 Zn         3.1790521106       10.5998381005        0.1216326111
  H        -8.9093012186        0.6844161939       28.8556637260
  H        -8.0250113432        0.8943059700       26.5858005353
  H       -11.4697801708        9.5501542949       25.0314798305
  H       -12.3857777674        9.3536266225       27.3351324091
  H        -6.2352507986        0.3040196565       22.8187012007
  H        -9.7017873929        9.0753431290       21.1590132286
  H        -8.7698886219        9.3029723305       18.9085398049
  H        -5.2630525904        0.5131274955       20.5376512761
  H         2.0729645830        9.4209121362        4.5035684202
  H         0.9101876020        9.3820985911        6.6773528093
  H        -2.0325031259        1.3073455452        5.1291402777
  H        -0.9639432162        1.2009368105        2.9301575566
  H        -0.0742072146        1.6486457521       10.7804722987
  H        -2.7694335033        9.2952095945        9.4959421826
  H        -3.9391349899        9.3977182410       11.6666909867
  H        -1.1597363656        1.6458387121       12.9868066984
  H        -5.9655670169        7.6218188412       18.1173290170
  H        -6.0256491251        2.6366950965       18.1041754915
  H        -1.9655219956        3.7464557846       15.8190236879
  H        -2.0521335547        6.2140607680       15.5172158751
  H       -11.5368994894        7.4047598144       29.8778796370
  H       -11.4870181601        2.4099394551       29.9039019139
  H         0.0638647094        3.9434852757        0.3620120324
  H         0.0252467215        6.4445446063        0.3401912194
  H        -9.0568090133        1.5564662353       22.6793981972
  H        -9.0089262463        2.2003181965       24.3433666043
  H       -10.5310113846        1.6125663464       23.6812678292
  H        -7.2043540084        8.2998630009       24.1075154146
  H        -8.7212626687        7.7065360172       23.4368787592
  H        -8.6838946705        8.3488476707       25.1020292603
  H        -3.3069590902        9.9057976983        7.5677143174
  H         3.1984443904        0.4490632637        6.4407008870
  H        -3.1647990898        0.7596220845        8.1903321898
  H         1.3189562971        9.9647543420        8.6114998997
  H         1.2117986577        0.5856536360        9.6335941625
  H         1.2436795994        0.7667521658        7.8615879425
  C        -3.8562118591        7.9042698090       16.0915847686
  C        -6.2870399237       10.4114253851       18.2444156755
  C        -3.8950605523        2.1954946488       16.7848373917
  C        -3.2279744196       10.8984066691       13.8333069571
  C       -13.7303982822        7.7786436897       31.3080169693
  C       -11.3902507335       10.3186164009       29.5960564727
  C       -13.6471760768        1.9995932494       31.3255515253
  C         1.2330465528       10.6802451412        2.2105380004
  C       -10.7269918528       10.3817986436       28.2632669512
  C        -9.4628154306        0.2273127412       28.0374805197
  C        -8.9634692011        0.3599665779       26.7399442595
  C        -9.6594581255       -0.1680003372       25.6387203279
  C       -10.9135275392        9.9632108078       25.8757925651
  C       -11.4315568489        9.8509306633       27.1633848429
  C        -9.1627386141        0.0463973597       24.2436511844
  C        -8.5767412352        9.8609899742       23.5416800674
  C        -6.7832646603       -0.0795047308       21.9553442563
  C        -8.0598474539       10.0812784604       22.1547613152
  C        -8.7476871471        9.5887344807       21.0317446965
  C        -8.2192087742        9.7307563798       19.7472061459
  C        -6.9652351825       10.3341485797       19.5616833543
  C        -6.2330343466        0.0372502923       20.6822292281
  C         0.6667503798       -0.0562781532        3.5748816942
  C         1.1685115854       10.0122559816        4.6507307523
  C         0.5146235633       10.0085850715        5.8818053134
  C        -0.6210503027       -0.0245216232        6.1142747340
  C        -1.1380519815        0.6973580373        5.0142093044
  C        -0.5240834343        0.6620976730        3.7685861788
  C        -1.3040028624        0.0129875956        7.4366398553
  C        -0.6279506414        0.0557635435        8.6240996305
  C        -0.9023379930        0.9640708059       10.9604852964
  C        -1.3296935415        0.0878289953        9.9378384137
  C        -2.4517159053       10.0301331397       10.2327054658
  C        -3.1144228946       10.0777717913       11.4565243930
  C        -2.6299739205        0.1567667642       12.4611026282
  C        -1.5250000955        0.9844810656       12.2017502351
  C        -3.8800996772        6.4686356205       16.6087694188
  C        -4.9246671518        5.8445732315       17.3676270942
  C        -2.8294898688        5.7178265145       16.0986509552
  C        -5.9452937725        6.5367784786       18.0863703211
  C        -6.9050845467        5.8356149371       18.7852238309
  C        -3.8478833990        3.6794084497       16.8469294624
  C        -2.7871106653        4.3228310866       16.2430620912
  C        -4.9245879040        4.4042160132       17.4266231982
  C        -5.9736301455        3.7229610391       18.0987958173
  C        -6.9414768632        4.4282116013       18.7610177063
  C       -13.7034047175        6.2901940909       31.2045992287
  C       -12.6092177123        5.6207286721       30.5700913870
  C       -14.7279942012        5.5797861520       31.8046062333
  C       -11.5768170728        6.3184032418       29.8791984862
  C       -10.6137738251        5.6147891084       29.1999332629
  C       -13.6545323078        3.4886952844       31.2337032122
  C       -14.7050248254        4.1735604248       31.8188146911
  C       -12.5885269253        4.1813495448       30.5829741547
  C       -11.5466371887        3.4953945144       29.8958793536
  C       -10.6038182312        4.2098737383       29.2027640921
  C        -9.4448463162        1.4232447365       23.6963179709
  C        -8.2913612111        8.4842392376       24.0873356434
  C        -2.7941171894        0.0968957644        7.4024655457
  C         0.8585736411        0.1596849254        8.6873633681
  O        -3.0486087496        8.7226650904       16.7017986219
  O        -5.3860473140        8.4466294099       15.9695894437
  O        -6.9630007992       10.5290145792       17.1095210153
  O        -5.0046791423       -0.4136327446       18.1673558894
  O        -4.8632917000        1.7165238774       16.1052916478
  O        -2.9648933467        1.5465979998       17.3622583705
  O        -2.3869983907        0.4461890082       14.7691823944
  O        -4.4294496374       10.4929111806       14.0225030311
  O       -14.7917491402        8.3791102392       30.9227539087
  O       -12.6937516180        8.3107779389       31.8111642716
  O       -10.7050153599       10.3319736589       30.7328602326
  O       -12.6355516518       10.2567723352       29.6609623437
  O       -12.6337716441        1.4648405316       31.8738113778
  O       -14.6721311237        1.3958558218       30.8617796503
  O         0.4068153599       -0.0106490536        1.2611122335
  O         2.4917606981       10.5414784342        2.0633204701
  F        -7.8729900111        6.4723436168       19.4905973678
  F        -7.9595010867        3.7760177339       19.3652105468
  F        -9.6121152173        6.2338449389       28.5359559346
  F        -9.6010386555        3.5988991342       28.5357332460
  O        -5.4077480633        7.9472109449       14.5628261556
  C        -4.0400901628        7.7433628887       14.5393205825
  O        -3.4082544103        7.4362407831       13.5685981737
     123
 i =      208, E =      -996.1996218610
 Zn        -2.5156912189       10.5796914837       16.6300588160
 Zn        -5.2863228048       10.5883178562       15.8527176411
 Zn       -15.1502008305       10.2848605626       31.2307571038
 Zn         3.1790149922       10.5999452966        0.1213664933
  H        -8.9081935380        0.6817509261       28.8552940749
  H        -8.0236755637        0.8902408459       26.5855053222
  H       -11.4702419953        9.5488471771       25.0316230597
  H       -12.3864244256        9.3534463033       27.3352361412
  H        -6.2344584928        0.2953093908       22.8200603008
  H        -9.7026021281        9.0725666049       21.1573849747
  H        -8.7710380151        9.3030364215       18.9073978637
  H        -5.2625057451        0.5082125962       20.5393114211
  H         2.0755436969        9.4208958509        4.5028604400
  H         0.9142783260        9.3804948692        6.6773321288
  H        -2.0332682029        1.3013776419        5.1307556081
  H        -0.9660164784        1.1963660521        2.9312100739
  H        -0.0740648404        1.6469028626       10.7798746195
  H        -2.7652479153        9.2889326537        9.4983490151
  H        -3.9358789737        9.3929430178       11.6686250905
  H        -1.1606893474        1.6462027766       12.9856447704
  H        -5.9662771408        7.6217864607       18.1178535743
  H        -6.0262639084        2.6367773163       18.1047579226
  H        -1.9654215437        3.7463743187       15.8201815710
  H        -2.0521315682        6.2126698218       15.5166363713
  H       -11.5374454627        7.4049137450       29.8777098664
  H       -11.4873960587        2.4101151512       29.9041061000
  H         0.0640171916        3.9433655013        0.3623617120
  H         0.0246829191        6.4444478273        0.3402745336
  H        -9.0504810652        1.5543419497       22.6809076740
  H        -9.0019433389        2.1963253457       24.3455699031
  H       -10.5253333896        1.6134456630       23.6817373348
  H        -7.2106869774        8.2904316939       24.1059869113
  H        -8.7289583218        7.7025037983       23.4333644745
  H        -8.6908970416        8.3422795241       25.0995009348
  H        -3.3047142394        9.9005467165        7.5711413656
  H         3.1994748414        0.4424635322        6.4426089542
  H        -3.1623854702        0.7550561614        8.1918734023
  H         1.3210202221        9.9603627344        8.6130498994
  H         1.2134742515        0.5812376167        9.6351757262
  H         1.2460433590        0.7624201680        7.8631852960
  C        -3.8563474510        7.9044016887       16.0917504272
  C        -6.2873013279       10.4107327571       18.2444303494
  C        -3.8952900021        2.1955612670       16.7851701488
  C        -3.2281500270       10.8982665202       13.8333548555
  C       -13.7308247968        7.7787071259       31.3088125493
  C       -11.3900764412       10.3178249183       29.5960140843
  C       -13.6472268462        1.9996624198       31.3258734919
  C         1.2331673893       10.6801654015        2.2105136506
  C       -10.7269466030       10.3804978111       28.2631230174
  C        -9.4622919379        0.2252149343       28.0372851857
  C        -8.9625159297        0.3564117861       26.7397854214
  C        -9.6590019043       -0.1704302988       25.6385293731
  C       -10.9133432574        9.9611511863       25.8757600899
  C       -11.4319140092        9.8502494743       27.1633124068
  C        -9.1614168671        0.0431514056       24.2436373994
  C        -8.5787393938        9.8557921335       23.5410238768
  C        -6.7830379460       -0.0855630247       21.9559517672
  C        -8.0602245563       10.0762822579       22.1547375845
  C        -8.7483354636        9.5859571804       21.0310107226
  C        -8.2199821377        9.7291990597       19.7465818254
  C        -6.9657332414       10.3322065039       19.5617557061
  C        -6.2327559805        0.0326772710       20.6829748593
  C         0.6669712781       -0.0584193395        3.5749740007
  C         1.1704515019       10.0110549080        4.6505810620
  C         0.5170516258       10.0060866985        5.8819166593
  C        -0.6192340599       -0.0283446681        6.1153404039
  C        -1.1386010123        0.6920223601        5.0151697215
  C        -0.5246231655        0.6584369003        3.7694894007
  C        -1.3019851426        0.0086963175        7.4378260966
  C        -0.6257406769        0.0508989954        8.6252057119
  C        -0.9018512525        0.9620356186       10.9602013220
  C        -1.3276452393        0.0835312352        9.9388879622
  C        -2.4490669691       10.0252888177       10.2343932734
  C        -3.1118688433       10.0736639790       11.4581030698
  C        -2.6290667237        0.1551183501       12.4612212106
  C        -1.5247895422        0.9835350156       12.2012898610
  C        -3.8797543946        6.4688081496       16.6090801123
  C        -4.9244013244        5.8447395604       17.3685422201
  C        -2.8293490461        5.7177282896       16.0991579674
  C        -5.9453462910        6.5367676585       18.0866507479
  C        -6.9052236467        5.8355817346       18.7853821848
  C        -3.8478258240        3.6793283848       16.8479703747
  C        -2.7872443308        4.3226908473       16.2439499160
  C        -4.9248024757        4.4044033242       17.4268037031
  C        -5.9737911091        3.7230660994       18.0990944284
  C        -6.9418764380        4.4281866080       18.7608971465
  C       -13.7037768606        6.2903305201       31.2046413627
  C       -12.6095327592        5.6209587006       30.5701321551
  C       -14.7281818611        5.5798462179       31.8050847901
  C       -11.5768823975        6.3185786301       29.8794509459
  C       -10.6141063232        5.6147994615       29.1998515674
  C       -13.6546378079        3.4887373111       31.2338449129
  C       -14.7051461021        4.1736287828       31.8189760766
  C       -12.5884830672        4.1816353661       30.5837283377
  C       -11.5470292831        3.4955708435       29.8959576108
  C       -10.6040321849        4.2098547247       29.2028861743
  C        -9.4397014431        1.4212116746       23.6973710666
  C        -8.2971344126        8.4778946064       24.0853169754
  C        -2.7922097399        0.0914642928        7.4044061611
  C         0.8606631985        0.1553032652        8.6887519749
  O        -3.0495196678        8.7235463738       16.7019107945
  O        -5.3854034958        8.4469748203       15.9692544527
  O        -6.9629486022       10.5291996610       17.1095439534
  O        -5.0048377122       -0.4137344840       18.1678790144
  O        -4.8633633755        1.7170470803       16.1054529830
  O        -2.9649475077        1.5467354484       17.3625243687
  O        -2.3875725372        0.4462112176       14.7693449447
  O        -4.4296919460       10.4928549817       14.0224504039
  O       -14.7920250872        8.3790459814       30.9229540081
  O       -12.6937279162        8.3108090965       31.8110387897
  O       -10.7050185894       10.3322392828       30.7329323754
  O       -12.6354405871       10.2570070230       29.6606627128
  O       -12.6337101371        1.4648327946       31.8737994251
  O       -14.6721153224        1.3958437912       30.8617869625
  O         0.4068659459       -0.0109668517        1.2610618994
  O         2.4918209838       10.5411595794        2.0632754918
  F        -7.8732718274        6.4720639843       19.4906925756
  F        -7.9594240270        3.7760477525       19.3655731412
  F        -9.6120435822        6.2334542199       28.5360797365
  F        -9.6012675531        3.5988499066       28.5356246806
  O        -5.4074712560        7.9477166950       14.5622690608
  C        -4.0394290777        7.7432841171       14.5389732086
  O        -3.4072912075        7.4353864783       13.5687797134
     123
 i =      209, E =      -996.1995837294
 Zn        -2.5154483392       10.5814115038       16.6300863770
 Zn        -5.2860880196       10.5892410609       15.8533147914
 Zn       -15.1507998686       10.2846642376       31.2313044479
 Zn         3.1789066276       10.6006707056        0.1198883888
  H        -8.8998032410        0.6614119995       28.8526942967
  H        -8.0128580502        0.8586515331       26.5835549198
  H       -11.4745943477        9.5396712860       25.0320305475
  H       -12.3924532752        9.3540865420       27.3355682123
  H        -6.2287766048        0.2322900516       22.8302832374
  H        -9.7120384069        9.0568022582       21.1437518873
  H        -8.7797671264        9.3052756079       18.8979989711
  H        -5.2563852268        0.4679300271       20.5522011441
  H         2.0955012775        9.4202722884        4.4987384772
  H         0.9450917787        9.3686008512        6.6779755158
  H        -2.0400038431        1.2549784936        5.1420328461
  H        -0.9810993072        1.1609527142        2.9388988852
  H        -0.0738854027        1.6348824978       10.7748855234
  H        -2.7328106707        9.2404440132        9.5173976835
  H        -3.9111655290        9.3565982672       11.6834943178
  H        -1.1684666003        1.6493673518       12.9770408959
  H        -5.9693930040        7.6219252547       18.1200383692
  H        -6.0290677469        2.6374913217       18.1062229675
  H        -1.9646964596        3.7470624031       15.8245713126
  H        -2.0519826733        6.2072897488       15.5140171912
  H       -11.5393420235        7.4054142753       29.8763647705
  H       -11.4888490407        2.4107258718       29.9058971964
  H         0.0652751706        3.9426841804        0.3645744940
  H         0.0229053753        6.4439142934        0.3416040771
  H        -9.0021183450        1.5371389522       22.6918599411
  H        -8.9492103939        2.1661211537       24.3613601963
  H       -10.4814113668        1.6190620303       23.6844289491
  H        -7.2593757293        8.2188963577       24.0953866958
  H        -8.7870421398        7.6703428603       23.4080565003
  H        -8.7440228134        8.2931843687       25.0807716673
  H        -3.2870980012        9.8614806920        7.5970567616
  H         3.2080146566        0.3931071571        6.4561969120
  H        -3.1449503334        0.7210842520        8.2025953059
  H         1.3374206573        9.9282564649        8.6250687525
  H         1.2263961254        0.5494711950        9.6466385893
  H         1.2634523356        0.7304285642        7.8746099319
  C        -3.8579815137        7.9050170781       16.0920608810
  C        -6.2883338841       10.4058576854       18.2447811033
  C        -3.8961712007        2.1959688825       16.7861921085
  C        -3.2281352910       10.8946675565       13.8338736042
  C       -13.7321044763        7.7790764903       31.3109355274
  C       -11.3896590300       10.3150838327       29.5955131785
  C       -13.6470644768        1.9999629686       31.3264067948
  C         1.2339169967       10.6759208495        2.2107261176
  C       -10.7267728769       10.3710511750       28.2620791759
  C        -9.4577203839        0.2078087311       28.0358728909
  C        -8.9556109338        0.3314137970       26.7386744037
  C        -9.6550235731       -0.1912858319       25.6375303522
  C       -10.9135621195        9.9480638594       25.8751897274
  C       -11.4346903595        9.8447017434       27.1626919767
  C        -9.1526255065        0.0167626441       24.2435428023
  C        -8.5912205996        9.8184209394       23.5363975471
  C        -6.7811219274       -0.1319600685       21.9612704104
  C        -8.0642130874       10.0397258728       22.1533165032
  C        -8.7543731710        9.5655835608       21.0239791616
  C        -8.2254121175        9.7193324051       19.7410431557
  C        -6.9673391050       10.3159424826       19.5625864072
  C        -6.2298816764       -0.0024142212       20.6896347370
  C         0.6695190421       -0.0746801607        3.5762898451
  C         1.1846990009       10.0007460531        4.6499338050
  C         0.5363475055        9.9884657949        5.8840126371
  C        -0.6073170193       -0.0587245151        6.1225129913
  C        -1.1407510989        0.6533688384        5.0229197758
  C        -0.5298798026        0.6283528725        3.7755108453
  C        -1.2864747421       -0.0258602681        7.4469261263
  C        -0.6091196131        0.0161517367        8.6337079663
  C        -0.8974578869        0.9461228566       10.9590965517
  C        -1.3129112399        0.0525718758        9.9466375976
  C        -2.4267762148        9.9871197682       10.2477777379
  C        -3.0932442577       10.0431365645       11.4692857774
  C        -2.6225618082        0.1416300152       12.4625678874
  C        -1.5241462946        0.9762650475       12.1980798131
  C        -3.8786244064        6.4700079501       16.6100971031
  C        -4.9239051882        5.8454828213       17.3712584441
  C        -2.8290292630        5.7179210139       16.1009136172
  C        -5.9456846985        6.5368772837       18.0873407789
  C        -6.9064013981        5.8357478736       18.7854131109
  C        -3.8474959951        3.6793217387       16.8514222524
  C        -2.7876921048        4.3227142511       16.2474021973
  C        -4.9255709135        4.4054638543       17.4273078788
  C        -5.9752041107        3.7237974358       18.0989033519
  C        -6.9434745660        4.4283705681       18.7600621241
  C       -13.7052063428        6.2908415832       31.2054158754
  C       -12.6106517979        5.6220624834       30.5707415369
  C       -14.7289321866        5.5798289895       31.8072684467
  C       -11.5774940395        6.3192102281       29.8797857878
  C       -10.6150536124        5.6149458795       29.1998087132
  C       -13.6544482978        3.4890334009       31.2350049390
  C       -14.7053577856        4.1737026306       31.8199384619
  C       -12.5885817424        4.1829314363       30.5860745893
  C       -11.5480695369        3.4962235876       29.8970749064
  C       -10.6052588089        4.2098161285       29.2030883458
  C        -9.3996748294        1.4047795647       23.7050899224
  C        -8.3417069900        8.4298526359       24.0700786282
  C        -2.7773820270        0.0514339173        7.4188365049
  C         0.8765838106        0.1229317683        8.6993182366
  O        -3.0547503495        8.7274623744       16.7020099991
  O        -5.3835574567        8.4480416233       15.9671064449
  O        -6.9627188756       10.5294472824       17.1098967978
  O        -5.0055626664       -0.4146841240       18.1697633397
  O        -4.8636946749        1.7190232875       16.1060035769
  O        -2.9652497155        1.5475408103       17.3637237719
  O        -2.3901143614        0.4469967878       14.7700187070
  O        -4.4305111679       10.4925202499       14.0224245418
  O       -14.7934433438        8.3788713335       30.9246209924
  O       -12.6939322193        8.3112298412       31.8107428344
  O       -10.7051054160       10.3323390124       30.7328561560
  O       -12.6352025324       10.2571419663       29.6596946989
  O       -12.6335748955        1.4649651163       31.8739930177
  O       -14.6722081884        1.3959507683       30.8619465242
  O         0.4073787303       -0.0116468000        1.2614266576
  O         2.4927352747       10.5402951891        2.0626999761
  F        -7.8742586449        6.4715588221       19.4911943855
  F        -7.9595437885        3.7761800000       19.3661212011
  F        -9.6121726919        6.2329176638       28.5367612793
  F        -9.6020557010        3.5988554401       28.5353375406
  O        -5.4066604311        7.9491568041       14.5591146027
  C        -4.0378073571        7.7428818907       14.5380808072
  O        -3.4045298108        7.4324408188       13.5693724216
     123
 i =      210, E =      -996.1996364314
 Zn        -2.5155759656       10.5800314027       16.6301595682
 Zn        -5.2862192759       10.5885603069       15.8523645493
 Zn       -15.1505227943       10.2848867386       31.2311835447
 Zn         3.1791045635       10.6002032715        0.1208824026
  H        -8.9048647967        0.6738193502       28.8542757546
  H        -8.0193966159        0.8779881136       26.5846952914
  H       -11.4717284184        9.5451641615       25.0316423338
  H       -12.3885300098        9.3535043009       27.3352739033
  H        -6.2325269159        0.2715144493       22.8238787840
  H        -9.7061484220        9.0663053247       21.1521558120
  H        -8.7740871203        9.3035211399       18.9039915112
  H        -5.2602112364        0.4926301941       20.5443139751
  H         2.0832009852        9.4207593171        4.5010889280
  H         0.9261536694        9.3758423794        6.6773174843
  H        -2.0359396547        1.2833492593        5.1352662692
  H        -0.9717724884        1.1829996170        2.9343234197
  H        -0.0736707170        1.6418078044       10.7777784346
  H        -2.7523038631        9.2700726352        9.5058764012
  H        -3.9264854781        9.3794048723       11.6741988646
  H        -1.1636615273        1.6474178108       12.9819667474
  H        -5.9675632105        7.6222644441       18.1190377727
  H        -6.0265190711        2.6374484675       18.1057160724
  H        -1.9650075822        3.7467591271       15.8218809320
  H        -2.0517696492        6.2106417988       15.5159228374
  H       -11.5378596123        7.4052818070       29.8770504632
  H       -11.4881031601        2.4104870655       29.9048053866
  H         0.0648840986        3.9429082828        0.3634057050
  H         0.0241023619        6.4440309542        0.3409151324
  H        -9.0315016275        1.5474329105       22.6853187286
  H        -8.9812831816        2.1841562471       24.3517475497
  H       -10.5077680071        1.6153952613       23.6830421240
  H        -7.2298211851        8.2624905206       24.1018155052
  H        -8.7513602665        7.6900827942       23.4236526335
  H        -8.7114347566        8.3230219732       25.0923365178
  H        -3.2977396285        9.8852650247        7.5813692683
  H         3.2029499529        0.4231904811        6.4478189842
  H        -3.1555673864        0.7418566095        8.1959129260
  H         1.3275061851        9.9474520607        8.6173984536
  H         1.2187318730        0.5682714585        9.6396912977
  H         1.2529474940        0.7497412224        7.8677551745
  C        -3.8570416310        7.9044792848       16.0916669526
  C        -6.2875022835       10.4088559611       18.2445184178
  C        -3.8955452317        2.1958283244       16.7855657898
  C        -3.2280262377       10.8963561781       13.8336013182
  C       -13.7315218349        7.7788882941       31.3097569656
  C       -11.3899894712       10.3167289413       29.5957105978
  C       -13.6469576402        1.9998904873       31.3257402806
  C         1.2334428842       10.6782957002        2.2106504524
  C       -10.7265926576       10.3767719995       28.2627684075
  C        -9.4602132914        0.2182939189       28.0366155793
  C        -8.9597270246        0.3467682060       26.7392172711
  C        -9.6574426452       -0.1788698074       25.6381733445
  C       -10.9134167087        9.9558972300       25.8755791715
  C       -11.4327389087        9.8478742132       27.1632068869
  C        -9.1573124808        0.0328038443       24.2439658710
  C        -8.5836852425        9.8410237925       23.5390543896
  C        -6.7822691805       -0.1037103421       21.9580720352
  C        -8.0617898354       10.0621388967       22.1540690462
  C        -8.7505836589        9.5777251849       21.0283287340
  C        -8.2217680797        9.7251977438       19.7445644770
  C        -6.9661424019       10.3256731087       19.5621613029
  C        -6.2316889225        0.0192361452       20.6856454157
  C         0.6677712212       -0.0647766195        3.5754075022
  C         1.1759347554       10.0071446408        4.6502612029
  C         0.5243697075        9.9992397054        5.8825925913
  C        -0.6147680551       -0.0402561063        6.1180076401
  C        -1.1392365029        0.6771840836        5.0182185208
  C        -0.5268407407        0.6466720238        3.7717409041
  C        -1.2959712419       -0.0056892262        7.4412785846
  C        -0.6191844991        0.0376139274        8.6283676314
  C        -0.8998026749        0.9555047689       10.9598961932
  C        -1.3215405968        0.0713436761        9.9419198502
  C        -2.4398037587       10.0103117180       10.2396614338
  C        -3.1046971506       10.0621290226       11.4622049501
  C        -2.6267496796        0.1497715693       12.4616730219
  C        -1.5246974257        0.9805411753       12.1998965013
  C        -3.8792882349        6.4694750253       16.6093172320
  C        -4.9241513369        5.8453177179       17.3695283251
  C        -2.8292006308        5.7178001021       16.0998255962
  C        -5.9452655830        6.5371441114       18.0871518039
  C        -6.9056492196        5.8358563073       18.7854493051
  C        -3.8477147730        3.6796181463       16.8491714527
  C        -2.7871891802        4.3227079244       16.2455048635
  C        -4.9247632670        4.4052646508       17.4276614355
  C        -5.9741181367        3.7236509780       18.0992302949
  C        -6.9421222427        4.4285360017       18.7609928574
  C       -13.7042670449        6.2905884158       31.2048649378
  C       -12.6098319099        5.6214695728       30.5703722882
  C       -14.7284400650        5.5797987025       31.8057928747
  C       -11.5770988978        6.3189890014       29.8794322986
  C       -10.6142241721        5.6152472257       29.1997747191
  C       -13.6544265532        3.4890213764       31.2341679977
  C       -14.7051551895        4.1736695905       31.8193194482
  C       -12.5886205901        4.1821984531       30.5842563503
  C       -11.5472607705        3.4959566109       29.8963521724
  C       -10.6045462822        4.2101974938       29.2031165974
  C        -9.4237926830        1.4143358192       23.7005315468
  C        -8.3144824703        8.4592979339       24.0794795269
  C        -2.7864552207        0.0758131870        7.4100159907
  C         0.8669880491        0.1422858152        8.6928814747
  O        -3.0512213562        8.7244394047       16.7020714833
  O        -5.3844413436        8.4468643142       15.9689045568
  O        -6.9627653652       10.5290820445       17.1095417194
  O        -5.0050858302       -0.4139810411       18.1681067427
  O        -4.8633846163        1.7175611598       16.1057520822
  O        -2.9651595954        1.5469854440       17.3630647474
  O        -2.3883566582        0.4468216673       14.7693791982
  O        -4.4299685900       10.4925702460       14.0224341022
  O       -14.7927021594        8.3791678519       30.9236844106
  O       -12.6939133882        8.3111198518       31.8107077021
  O       -10.7050342935       10.3321965400       30.7327317941
  O       -12.6354154236       10.2570589520       29.6605177052
  O       -12.6336579689        1.4648975998       31.8738662246
  O       -14.6720649735        1.3960290462       30.8618464379
  O         0.4070116311       -0.0109339959        1.2613920005
  O         2.4922230216       10.5410747602        2.0630434621
  F        -7.8735207596        6.4722540881       19.4906734468
  F        -7.9596033345        3.7761078755       19.3653126896
  F        -9.6121685949        6.2337932775       28.5362256265
  F        -9.6015634913        3.5989000333       28.5357541351
  O        -5.4073593104        7.9479302943       14.5613302155
  C        -4.0392071039        7.7432010199       14.5387273521
  O        -3.4066873910        7.4348620402       13.5688162757
     123
 i =      211, E =      -996.1996404780
 Zn        -2.5156612825       10.5798529510       16.6303403897
 Zn        -5.2862010496       10.5885068426       15.8521549870
 Zn       -15.1504809846       10.2849255663       31.2311482653
 Zn         3.1790641693       10.6001338714        0.1208484262
  H        -8.9045109493        0.6731724373       28.8541812125
  H        -8.0190742173        0.8768993956       26.5845555256
  H       -11.4716775186        9.5444773236       25.0316392814
  H       -12.3886025780        9.3533354482       27.3352722382
  H        -6.2325623879        0.2696917514       22.8242322945
  H        -9.7065200388        9.0655336138       21.1515097654
  H        -8.7741071728        9.3032259433       18.9035441872
  H        -5.2600928255        0.4911816118       20.5448309541
  H         2.0841013366        9.4208141037        4.5009522591
  H         0.9273098483        9.3752342463        6.6773180097
  H        -2.0363625645        1.2814074358        5.1356681648
  H        -0.9723398506        1.1817162747        2.9347050437
  H        -0.0735471170        1.6412784927       10.7776627865
  H        -2.7509935987        9.2679538812        9.5067335150
  H        -3.9259336708        9.3781531009       11.6746508529
  H        -1.1641782536        1.6476723622       12.9817075364
  H        -5.9672502404        7.6225134948       18.1190207870
  H        -6.0257990635        2.6376889898       18.1059125251
  H        -1.9648834076        3.7466927777       15.8220762944
  H        -2.0518645613        6.2112854299       15.5163339481
  H       -11.5377019033        7.4053707531       29.8770272233
  H       -11.4881194264        2.4105944817       29.9045752322
  H         0.0649546906        3.9428249585        0.3634953388
  H         0.0243345137        6.4438993072        0.3410402586
  H        -9.0293923765        1.5465369244       22.6857929039
  H        -8.9789651753        2.1829921714       24.3524292440
  H       -10.5057061506        1.6152391116       23.6832970255
  H        -7.2318712076        8.2597086322       24.1013394198
  H        -8.7537326215        7.6885192337       23.4226465772
  H        -8.7135999639        8.3210564324       25.0915036547
  H        -3.2971835890        9.8836401549        7.5825585620
  H         3.2034497268        0.4211482974        6.4483622565
  H        -3.1548735061        0.7406682370        8.1961687470
  H         1.3280581721        9.9458962583        8.6175844535
  H         1.2194351914        0.5664681686        9.6402981104
  H         1.2537517704        0.7483884106        7.8682743838
  C        -3.8570555669        7.9043219939       16.0914738517
  C        -6.2873683622       10.4088178398       18.2445508983
  C        -3.8954820419        2.1957633462       16.7855743443
  C        -3.2277616190       10.8963731272       13.8335750467
  C       -13.7314254562        7.7788873326       31.3093892067
  C       -11.3899633886       10.3168389361       29.5956609285
  C       -13.6470305662        1.9998535339       31.3257686362
  C         1.2333784634       10.6777812824        2.2106960519
  C       -10.7266024651       10.3764066757       28.2626614458
  C        -9.4600319905        0.2175851717       28.0366447567
  C        -8.9594822578        0.3459549242       26.7392973695
  C        -9.6569389198       -0.1800352731       25.6381704037
  C       -10.9132971168        9.9555150713       25.8754820930
  C       -11.4326255058        9.8472177700       27.1630718403
  C        -9.1570973643        0.0313989298       24.2438443009
  C        -8.5839794938        9.8396481727       23.5388261613
  C        -6.7823518963       -0.1051216338       21.9582867033
  C        -8.0619769885       10.0606124614       22.1538591059
  C        -8.7508094412        9.5767124838       21.0279456871
  C        -8.2217618738        9.7245008319       19.7443161902
  C        -6.9660438173       10.3249022700       19.5620628445
  C        -6.2316458108        0.0176921325       20.6858913725
  C         0.6679136268       -0.0652083940        3.5755218640
  C         1.1764101747       10.0066398539        4.6501475295
  C         0.5253641957        9.9986917624        5.8827751201
  C        -0.6145854265       -0.0419143004        6.1181679507
  C        -1.1392956179        0.6757041512        5.0186497073
  C        -0.5271486939        0.6454643886        3.7720575040
  C        -1.2953071459       -0.0066529750        7.4416865905
  C        -0.6184329216        0.0356395289        8.6287693158
  C        -0.8995967061        0.9548715619       10.9599630440
  C        -1.3210014200        0.0701741133        9.9422616017
  C        -2.4388780024       10.0087680004       10.2401252076
  C        -3.1040113099       10.0607587567       11.4625258594
  C        -2.6267859268        0.1493252547       12.4616315642
  C        -1.5245867242        0.9799830940       12.1999138656
  C        -3.8794893545        6.4694675111       16.6093551336
  C        -4.9242602101        5.8454147896       17.3693436507
  C        -2.8292645411        5.7178376424       16.0998604663
  C        -5.9452471917        6.5373473647       18.0873083529
  C        -6.9055225681        5.8359291442       18.7856543201
  C        -3.8476235493        3.6796906783       16.8491519017
  C        -2.7870643471        4.3227763094       16.2454191789
  C        -4.9247041803        4.4053600787       17.4276692510
  C        -5.9736928191        3.7238473029       18.0997064196
  C        -6.9420534319        4.4286498977       18.7611454074
  C       -13.7041839964        6.2905570648       31.2049700275
  C       -12.6097542731        5.6214987518       30.5703568835
  C       -14.7284475587        5.5796823247       31.8055441109
  C       -11.5772029935        6.3190378750       29.8791886032
  C       -10.6141213599        5.6152138265       29.1999555504
  C       -13.6544765599        3.4889917966       31.2338882812
  C       -14.7049660735        4.1735687521       31.8195782053
  C       -12.5887339335        4.1821929061       30.5839017248
  C       -11.5471245259        3.4960491696       29.8962776016
  C       -10.6044659646        4.2101696210       29.2029047688
  C        -9.4218688674        1.4136287885       23.7009684745
  C        -8.3163970767        8.4572528930       24.0787262394
  C        -2.7858209217        0.0741185439        7.4106035254
  C         0.8676715889        0.1408128040        8.6932694433
  O        -3.0507932129        8.7238063369       16.7018165997
  O        -5.3848591567        8.4467668170       15.9690440273
  O        -6.9628845468       10.5288384083       17.1096564446
  O        -5.0049367849       -0.4139874410       18.1680639805
  O        -4.8634473443        1.7174191540       16.1057707692
  O        -2.9650575502        1.5468763420       17.3627760213
  O        -2.3881087877        0.4463919450       14.7693758680
  O        -4.4297744921       10.4924045790       14.0224601064
  O       -14.7927710499        8.3791517911       30.9237372605
  O       -12.6939750485        8.3111224272       31.8106855076
  O       -10.7050165173       10.3320457567       30.7326895892
  O       -12.6353670363       10.2569442162       29.6604191046
  O       -12.6335995877        1.4649208366       31.8737571609
  O       -14.6720178501        1.3960567592       30.8617219266
  O         0.4070858160       -0.0108535447        1.2613785860
  O         2.4922541243       10.5411811582        2.0630171514
  F        -7.8734784451        6.4721004195       19.4908492114
  F        -7.9595171212        3.7760707938       19.3654828863
  F        -9.6121743457        6.2336796691       28.5362656104
  F        -9.6014049605        3.5988828087       28.5355354106
  O        -5.4073972328        7.9477966981       14.5615566491
  C        -4.0396244639        7.7432649106       14.5388450944
  O        -3.4069897771        7.4352360575       13.5688330513
     123
 i =      212, E =      -996.1996460420
 Zn        -2.5156447158       10.5795196759       16.6306592401
 Zn        -5.2859384280       10.5884271621       15.8517287879
 Zn       -15.1505152245       10.2849221768       31.2311635368
 Zn         3.1790596611       10.6000814140        0.1207713016
  H        -8.9038087925        0.6716039714       28.8539730649
  H        -8.0180605476        0.8743292108       26.5844137099
  H       -11.4713354919        9.5427971597       25.0315289900
  H       -12.3885198769        9.3525603224       27.3351867509
  H        -6.2327145447        0.2654581181       22.8249387362
  H        -9.7066032812        9.0627125673       21.1503332909
  H        -8.7740202352        9.3019555307       18.9026616793
  H        -5.2599123196        0.4884068756       20.5458607797
  H         2.0859269257        9.4209130201        4.5003596706
  H         0.9301305880        9.3738012648        6.6771546204
  H        -2.0370630748        1.2770451855        5.1369510387
  H        -0.9736553823        1.1790273977        2.9357742492
  H        -0.0729291636        1.6393112346       10.7773373994
  H        -2.7480207702        9.2631450648        9.5088822351
  H        -3.9243539246        9.3752861425       11.6759147320
  H        -1.1647622965        1.6476625305       12.9809995758
  H        -5.9668795147        7.6228562685       18.1193468644
  H        -6.0245560763        2.6379089619       18.1069326597
  H        -1.9646081568        3.7461091274       15.8234139405
  H        -2.0517788678        6.2115737088       15.5171358833
  H       -11.5376702831        7.4055590905       29.8770100991
  H       -11.4883514396        2.4107382299       29.9041103238
  H         0.0652880519        3.9426324809        0.3640412463
  H         0.0244239397        6.4436194893        0.3413682255
  H        -9.0242667693        1.5444999550       22.6870141715
  H        -8.9732619744        2.1796850937       24.3542345849
  H       -10.5008711254        1.6152710400       23.6840519125
  H        -7.2363891824        8.2528325178       24.1000928821
  H        -8.7591755090        7.6851917104       23.4200540323
  H        -8.7185024447        8.3162358268       25.0895825522
  H        -3.2955127226        9.8800574014        7.5856429256
  H         3.2044484530        0.4160534876        6.4494849242
  H        -3.1533462938        0.7378362082        8.1968497569
  H         1.3296370010        9.9418406431        8.6179196440
  H         1.2208857877        0.5615597351        9.6418726718
  H         1.2555460700        0.7450955847        7.8700778621
  C        -3.8567565468        7.9038501002       16.0912146976
  C        -6.2873428077       10.4081834043       18.2446359863
  C        -3.8954375927        2.1955238048       16.7859338818
  C        -3.2272676947       10.8958778058       13.8335945027
  C       -13.7314861927        7.7788589270       31.3091948655
  C       -11.3899196352       10.3163886723       29.5955513136
  C       -13.6469579148        1.9998067245       31.3254136307
  C         1.2332618172       10.6772138006        2.2107055102
  C       -10.7262644535       10.3755304796       28.2626431447
  C        -9.4593100220        0.2158298034       28.0364403027
  C        -8.9586665305        0.3438381107       26.7391411084
  C        -9.6561646306       -0.1826874918       25.6381650272
  C       -10.9129707970        9.9537543391       25.8754790910
  C       -11.4323001338        9.8460259973       27.1631299618
  C        -9.1557306085        0.0285495353       24.2440685023
  C        -8.5847191151        9.8360738081       23.5384487526
  C        -6.7825090036       -0.1088750984       21.9587309164
  C        -8.0624306952       10.0571823430       22.1536190762
  C        -8.7508600352        9.5738808803       21.0272106912
  C        -8.2216079476        9.7225668750       19.7437391350
  C        -6.9658487040       10.3231930052       19.5621407982
  C        -6.2316014312        0.0150262263       20.6865089327
  C         0.6681152201       -0.0664262521        3.5756899372
  C         1.1775156970       10.0055999657        4.6499679165
  C         0.5269932623        9.9968648472        5.8828797037
  C        -0.6134771420       -0.0449150067        6.1189019427
  C        -1.1392917703        0.6723386845        5.0196227956
  C        -0.5277695713        0.6427374742        3.7727252089
  C        -1.2938665502       -0.0109728377        7.4425696095
  C        -0.6168698809        0.0324034046        8.6295534928
  C        -0.8987002966        0.9526664992       10.9600607169
  C        -1.3193728086        0.0667665484        9.9430606896
  C        -2.4368728651       10.0051899600       10.2414231438
  C        -3.1027381505       10.0581634143       11.4634041838
  C        -2.6260509551        0.1477068149       12.4619111888
  C        -1.5243855948        0.9789077295       12.1996691161
  C        -3.8794660300        6.4692796946       16.6097052012
  C        -4.9242771573        5.8455330266       17.3693588121
  C        -2.8292320301        5.7175222916       16.1000884210
  C        -5.9451017266        6.5375999387       18.0878101004
  C        -6.9052934696        5.8360789735       18.7862610223
  C        -3.8476434256        3.6796023163       16.8495130095
  C        -2.7867101642        4.3225439721       16.2463029478
  C        -4.9243299819        4.4054845791       17.4285669367
  C        -5.9731071441        3.7240373471       18.1006640524
  C        -6.9415989649        4.4288645079       18.7620107018
  C       -13.7043351762        6.2905345730       31.2049973745
  C       -12.6097824510        5.6216443914       30.5703339048
  C       -14.7284141992        5.5795273374       31.8057536305
  C       -11.5772633846        6.3191760456       29.8790518459
  C       -10.6139646930        5.6154159272       29.2000089117
  C       -13.6543767622        3.4890253724       31.2339266191
  C       -14.7048824865        4.1734407646       31.8196926402
  C       -12.5890323500        4.1823004969       30.5833839837
  C       -11.5472321017        3.4961666528       29.8960451552
  C       -10.6044619927        4.2103664012       29.2030761371
  C        -9.4174376231        1.4116821300       23.7019784756
  C        -8.3205209362        8.4524210888       24.0770634498
  C        -2.7844134433        0.0703811562        7.4120992385
  C         0.8692715214        0.1367314527        8.6944839681
  O        -3.0498098166        8.7227083939       16.7016327935
  O        -5.3850041698        8.4465207607       15.9696218276
  O        -6.9629542225       10.5287134275       17.1096960696
  O        -5.0049183094       -0.4139162803       18.1680111955
  O        -4.8635220077        1.7172050681       16.1060051622
  O        -2.9649321302        1.5465656098       17.3627860206
  O        -2.3877753212        0.4462760755       14.7693349086
  O        -4.4294519542       10.4923830556       14.0225416435
  O       -14.7929671793        8.3791099343       30.9239038065
  O       -12.6941244187        8.3112028929       31.8106111811
  O       -10.7050249696       10.3320352399       30.7325949917
  O       -12.6353477308       10.2569780832       29.6603529309
  O       -12.6336274416        1.4649602486       31.8737095839
  O       -14.6720140971        1.3960791523       30.8616957911
  O         0.4070224859       -0.0108258708        1.2614269238
  O         2.4922405969       10.5412213802        2.0629808205
  F        -7.8734279313        6.4723052492       19.4909169513
  F        -7.9597048517        3.7760550606       19.3652153129
  F        -9.6121829454        6.2338194512       28.5360765817
  F        -9.6013370491        3.5989095814       28.5357986926
  O        -5.4077941846        7.9475712690       14.5622424088
  C        -4.0402713918        7.7431081171       14.5389862665
  O        -3.4078024888        7.4355196299       13.5687718480
     123
 i =      213, E =      -996.1996485306
 Zn        -2.5155333689       10.5791983914       16.6309556187
 Zn        -5.2859188220       10.5883225174       15.8511191083
 Zn       -15.1506608782       10.2850581438       31.2314977743
 Zn         3.1791928992       10.6001026195        0.1205376053
  H        -8.9017008632        0.6667465365       28.8532655481
  H        -8.0150924305        0.8663364586       26.5839079525
  H       -11.4709387589        9.5382280907       25.0314819073
  H       -12.3888143997        9.3508229885       27.3351598248
  H        -6.2324128904        0.2507638043       22.8273649063
  H        -9.7077309749        9.0550315906       21.1467247065
  H        -8.7744881177        9.2992969016       18.9001430755
  H        -5.2591833088        0.4790989058       20.5490246927
  H         2.0913685028        9.4212512043        4.4986562277
  H         0.9386880286        9.3698001155        6.6766835125
  H        -2.0391619444        1.2637976040        5.1407368726
  H        -0.9778701077        1.1703691699        2.9387151895
  H        -0.0718396959        1.6343978566       10.7759497454
  H        -2.7392042054        9.2492813799        9.5147918814
  H        -3.9187563826        9.3663171328       11.6798283966
  H        -1.1667537496        1.6480596138       12.9784558906
  H        -5.9666205195        7.6233269064       18.1204136198
  H        -6.0228605467        2.6381846588       18.1093375397
  H        -1.9640059478        3.7447938831       15.8265730596
  H        -2.0512559916        6.2108213329       15.5184478392
  H       -11.5379771448        7.4059708142       29.8768156513
  H       -11.4890772124        2.4110252614       29.9033350490
  H         0.0658737787        3.9423151208        0.3651092217
  H         0.0242855074        6.4431827125        0.3419961939
  H        -9.0096818203        1.5391119384       22.6907038983
  H        -8.9570708135        2.1702260396       24.3592670895
  H       -10.4870004281        1.6162079986       23.6859444921
  H        -7.2503513084        8.2321160294       24.0963809253
  H        -8.7755246185        7.6758810874       23.4124934327
  H        -8.7335105126        8.3018037283       25.0838029132
  H        -3.2904922112        9.8689082133        7.5940789884
  H         3.2071811770        0.4011642561        6.4533005497
  H        -3.1484806601        0.7286612615        8.1994331704
  H         1.3340668829        9.9306251945        8.6196189738
  H         1.2252019603        0.5485315866        9.6461550281
  H         1.2609367169        0.7350845751        7.8745551478
  C        -3.8562623833        7.9030014901       16.0914088122
  C        -6.2873194045       10.4068628554       18.2448371723
  C        -3.8955616620        2.1953303711       16.7867130605
  C        -3.2267114377       10.8941402070       13.8337314524
  C       -13.7320495512        7.7788302462       31.3096534824
  C       -11.3898136025       10.3156444980       29.5952706984
  C       -13.6469633470        1.9998557245       31.3253011346
  C         1.2332612003       10.6761598792        2.2107899802
  C       -10.7255883307       10.3727759959       28.2624654356
  C        -9.4575418242        0.2107991699       28.0359536575
  C        -8.9564155478        0.3372539925       26.7387837173
  C        -9.6543518984       -0.1896761449       25.6381582009
  C       -10.9122044537        9.9487619832       25.8754637919
  C       -11.4318729062        9.8428862495       27.1632036836
  C        -9.1516793760        0.0205621630       24.2448105772
  C        -8.5883657776        9.8249741099       23.5364387590
  C        -6.7824854845       -0.1206811523       21.9599542904
  C        -8.0634054791       10.0466039592       22.1527134587
  C        -8.7517357005        9.5660677247       21.0251753514
  C        -8.2219351900        9.7177283563       19.7422372013
  C        -6.9658773743       10.3182868061       19.5622033433
  C        -6.2313566968        0.0062846213       20.6881155362
  C         0.6684317225       -0.0706074372        3.5760115832
  C         1.1812861514       10.0029542866        4.6496273085
  C         0.5323253507        9.9918931230        5.8833740237
  C        -0.6107005074       -0.0542541445        6.1207551180
  C        -1.1393686708        0.6621363209        5.0223357333
  C        -0.5294917035        0.6345919837        3.7746324353
  C        -1.2895113297       -0.0221036881        7.4452324267
  C        -0.6120607528        0.0216075044        8.6319526146
  C        -0.8967141984        0.9470265300       10.9602357204
  C        -1.3148560907        0.0575401826        9.9453481860
  C        -2.4303683367        9.9942999247       10.2452984550
  C        -3.0982739083       10.0501277317       11.4660971569
  C        -2.6246061035        0.1434984541       12.4624835688
  C        -1.5241967398        0.9760168498       12.1988721458
  C        -3.8792428104        6.4688781670       16.6101924295
  C        -4.9237942962        5.8457009349       17.3704179219
  C        -2.8288348024        5.7167279752       16.1012253947
  C        -5.9445873799        6.5379999735       18.0889551195
  C        -6.9048431071        5.8363066392       18.7872612867
  C        -3.8476045296        3.6794690916       16.8510513483
  C        -2.7861316334        4.3218767442       16.2484188963
  C        -4.9236862272        4.4057057082       17.4306693920
  C        -5.9722937570        3.7243035329       18.1025774030
  C        -6.9409044784        4.4291680816       18.7636854547
  C       -13.7045997131        6.2905741579       31.2052004515
  C       -12.6102287173        5.6218164307       30.5700004497
  C       -14.7285260409        5.5793972161       31.8061291033
  C       -11.5775253609        6.3195512798       29.8790350755
  C       -10.6139603639        5.6159566285       29.2000767003
  C       -13.6545240771        3.4891511990       31.2336640564
  C       -14.7047481509        4.1733491961       31.8202063972
  C       -12.5892894062        4.1824643875       30.5831532022
  C       -11.5476209956        3.4964490307       29.8954843762
  C       -10.6046722085        4.2108757710       29.2032060290
  C        -9.4047946519        1.4060979362       23.7048967028
  C        -8.3331798990        8.4386463080       24.0722605774
  C        -2.7801954290        0.0587960504        7.4164486657
  C         0.8739352447        0.1255613750        8.6977739444
  O        -3.0489444880        8.7214777944       16.7018345442
  O        -5.3849810712        8.4459194296       15.9703541303
  O        -6.9630382741       10.5283973023       17.1099174594
  O        -5.0048959358       -0.4139261691       18.1678544303
  O        -4.8634605112        1.7170274007       16.1063017086
  O        -2.9649413603        1.5462092702       17.3631955910
  O        -2.3875400398        0.4464947307       14.7692326669
  O        -4.4293783153       10.4919720900       14.0225213232
  O       -14.7933243203        8.3792933087       30.9241240429
  O       -12.6943948065        8.3114157004       31.8102546275
  O       -10.7049935757       10.3318357420       30.7323483096
  O       -12.6352796707       10.2568112930       29.6602771596
  O       -12.6335991015        1.4649997401       31.8735314580
  O       -14.6719268646        1.3961624212       30.8615022047
  O         0.4068622447       -0.0107517755        1.2618079772
  O         2.4923517420       10.5411472404        2.0628002656
  F        -7.8733522960        6.4726203549       19.4908106563
  F        -7.9597969556        3.7760621492       19.3653102269
  F        -9.6121897088        6.2340835434       28.5359291102
  F        -9.6014850196        3.5991187300       28.5360405305
  O        -5.4079983171        7.9472727241       14.5629765737
  C        -4.0405650887        7.7426039948       14.5392142853
  O        -3.4082801356        7.4358474497       13.5686026653
     123
 i =      214, E =      -996.1996519702
 Zn        -2.5155794246       10.5793557430       16.6308595313
 Zn        -5.2858700365       10.5885215246       15.8510748943
 Zn       -15.1506029084       10.2850114521       31.2313882002
 Zn         3.1791569100       10.6001352686        0.1205169455
  H        -8.9023726273        0.6684115790       28.8534052006
  H        -8.0161449469        0.8689116313       26.5839508620
  H       -11.4705144832        9.5387287983       25.0316146525
  H       -12.3882760861        9.3505540994       27.3352488368
  H        -6.2329684714        0.2552503799       22.8265259354
  H        -9.7070258766        9.0561254018       21.1477062553
  H        -8.7738707434        9.2989907039       18.9007985874
  H        -5.2596425614        0.4819862855       20.5480359956
  H         2.0898861470        9.4213807611        4.4988519631
  H         0.9363959685        9.3706869280        6.6765257828
  H        -2.0386978654        1.2672276868        5.1397927919
  H        -0.9768555427        1.1729358245        2.9379952188
  H        -0.0719622286        1.6356043164       10.7761356385
  H        -2.7415819904        9.2530263406        9.5131955068
  H        -3.9205538476        9.3692155916       11.6785821940
  H        -1.1661983500        1.6482326263       12.9788679237
  H        -5.9666388514        7.6232393801       18.1201909961
  H        -6.0229625091        2.6381336056       18.1095076990
  H        -1.9641533670        3.7449547168       15.8261188749
  H        -2.0513863567        6.2107489369       15.5178950632
  H       -11.5380472050        7.4058960741       29.8766713096
  H       -11.4889963555        2.4109976729       29.9032265170
  H         0.0657253405        3.9423709684        0.3647082701
  H         0.0242460127        6.4432881134        0.3417301807
  H        -9.0134043445        1.5404875193       22.6898689765
  H        -8.9610226630        2.1726800633       24.3581146519
  H       -10.4903535125        1.6159679538       23.6857631915
  H        -7.2469566767        8.2373702953       24.0970019757
  H        -8.7714023135        7.6782579149       23.4141814978
  H        -8.7296995361        8.3054161730       25.0850515900
  H        -3.2918387966        9.8716347357        7.5917449806
  H         3.2064885616        0.4049738775        6.4523249131
  H        -3.1496933596        0.7308738500        8.1987530363
  H         1.3327544596        9.9329479642        8.6187381730
  H         1.2242781594        0.5509269956        9.6450397002
  H         1.2597586264        0.7372480043        7.8733553323
  C        -3.8566653296        7.9031683156       16.0912763314
  C        -6.2872991110       10.4072077847       18.2447054853
  C        -3.8955432204        2.1954912816       16.7865612868
  C        -3.2267906600       10.8948002289       13.8335582795
  C       -13.7318440764        7.7788777078       31.3093040705
  C       -11.3897381404       10.3158127502       29.5953211595
  C       -13.6468941269        1.9998312466       31.3251458230
  C         1.2332166768       10.6762580135        2.2107554842
  C       -10.7256581860       10.3732766266       28.2624713498
  C        -9.4581211320        0.2124414426       28.0361309337
  C        -8.9570711416        0.3391155889       26.7389163242
  C        -9.6545406083       -0.1880159005       25.6381322554
  C       -10.9119809799        9.9497529039       25.8755100684
  C       -11.4316709655        9.8432036277       27.1631582897
  C        -9.1529258351        0.0224252265       24.2444418306
  C        -8.5872175205        9.8279790570       23.5369720311
  C        -6.7827575219       -0.1173344328       21.9594518113
  C        -8.0632535486       10.0493561062       22.1528648246
  C        -8.7512421561        9.5674364794       21.0256474385
  C        -8.2216693013        9.7185804574       19.7425603013
  C        -6.9658117907       10.3193369958       19.5621056561
  C        -6.2316342767        0.0089531866       20.6875531371
  C         0.6681410162       -0.0693645264        3.5758104140
  C         1.1803738710       10.0039347597        4.6495749743
  C         0.5307831472        9.9929847471        5.8829664876
  C        -0.6112839759       -0.0517514967        6.1202747588
  C        -1.1396219603        0.6646580261        5.0215724002
  C        -0.5289913706        0.6371178275        3.7742110701
  C        -1.2906648394       -0.0193028709        7.4444614911
  C        -0.6132565954        0.0240885092        8.6312285861
  C        -0.8971596831        0.9485207146       10.9600375126
  C        -1.3160464860        0.0600017032        9.9446200370
  C        -2.4320947687        9.9972278379       10.2442177547
  C        -3.0995611255       10.0525289948       11.4652586562
  C        -2.6250453721        0.1449664408       12.4621153744
  C        -1.5240658063        0.9768827266       12.1989488161
  C        -3.8793663297        6.4689000737       16.6099796183
  C        -4.9238130842        5.8456852764       17.3703742606
  C        -2.8289501412        5.7168924855       16.1009218856
  C        -5.9446361365        6.5379451854       18.0888012658
  C        -6.9049164884        5.8363389974       18.7871434465
  C        -3.8475017401        3.6795321814       16.8510515881
  C        -2.7862928361        4.3220463037       16.2480215656
  C        -4.9236668264        4.4056698992       17.4304581888
  C        -5.9721935693        3.7242896578       18.1026098884
  C        -6.9409671971        4.4291112568       18.7634414101
  C       -13.7046188417        6.2905998361       31.2050239619
  C       -12.6101780670        5.6218114270       30.5700448100
  C       -14.7285972267        5.5794280864       31.8058242036
  C       -11.5776184532        6.3194907818       29.8788245021
  C       -10.6140320849        5.6157734330       29.2000594587
  C       -13.6544931382        3.4891190906       31.2336413332
  C       -14.7048011376        4.1733591543       31.8199557080
  C       -12.5893876652        4.1824564602       30.5828603328
  C       -11.5475379065        3.4964396257       29.8955460220
  C       -10.6046741164        4.2106957867       29.2028445332
  C        -9.4078351359        1.4075866133       23.7043086502
  C        -8.3301028533        8.4421486396       24.0732518947
  C        -2.7813035741        0.0616140182        7.4152508832
  C         0.8727917395        0.1279236143        8.6967280281
  O        -3.0498109276        8.7219769070       16.7016280907
  O        -5.3854850604        8.4459718792       15.9697216673
  O        -6.9630199594       10.5284611837       17.1098190174
  O        -5.0048633318       -0.4138993459       18.1679278105
  O        -4.8634907108        1.7172793952       16.1062648373
  O        -2.9649231747        1.5463432751       17.3630430125
  O        -2.3876437355        0.4463916735       14.7692882973
  O        -4.4293388362       10.4922622061       14.0222926844
  O       -14.7932597461        8.3792532796       30.9240714079
  O       -12.6943738834        8.3113288529       31.8104265847
  O       -10.7049656017       10.3319170528       30.7324279303
  O       -12.6352020785       10.2568693203       29.6602032303
  O       -12.6336425398        1.4650396461       31.8736318505
  O       -14.6720030958        1.3961142977       30.8615959244
  O         0.4069845550       -0.0105288360        1.2616407068
  O         2.4923152983       10.5413886480        2.0627814343
  F        -7.8735012594        6.4724758374       19.4909600813
  F        -7.9597717713        3.7760595458       19.3652814039
  F        -9.6122433658        6.2341844221       28.5362116658
  F        -9.6014231802        3.5991305537       28.5357443539
  O        -5.4077842613        7.9475766347       14.5620667573
  C        -4.0404596889        7.7427366235       14.5390840383
  O        -3.4079469576        7.4358132534       13.5685915277
     123
 i =      215, E =      -996.1996554030
 Zn        -2.5156471092       10.5794818681       16.6309142883
 Zn        -5.2857595632       10.5887182046       15.8511576160
 Zn       -15.1505684545       10.2849770820       31.2312614330
 Zn         3.1790764793       10.6001902078        0.1205706112
  H        -8.9024504284        0.6685289087       28.8533969852
  H        -8.0161405483        0.8687542629       26.5840255657
  H       -11.4697160324        9.5374076605       25.0318694845
  H       -12.3877186715        9.3495474471       27.3354048131
  H        -6.2336819630        0.2551163933       22.8263984692
  H        -9.7064837332        9.0543160096       21.1474158238
  H        -8.7731558617        9.2974363637       18.9005530924
  H        -5.2599751316        0.4819168430       20.5480544883
  H         2.0902891553        9.4216696116        4.4984742745
  H         0.9369601785        9.3701686310        6.6761972125
  H        -2.0389455651        1.2661821344        5.1402581812
  H        -0.9773111763        1.1727096170        2.9383545108
  H        -0.0716201783        1.6350414722       10.7759442880
  H        -2.7410720824        9.2518612519        9.5136068285
  H        -3.9205344472        9.3690011952       11.6787283406
  H        -1.1661565845        1.6482991394       12.9785049947
  H        -5.9663253885        7.6231450550       18.1205802189
  H        -6.0225532291        2.6380364184       18.1104457435
  H        -1.9639288205        3.7449666784       15.8266661513
  H        -2.0510444524        6.2106078868       15.5181202394
  H       -11.5380908317        7.4058720953       29.8767051806
  H       -11.4889086999        2.4110426396       29.9029179276
  H         0.0658196335        3.9424044363        0.3645819095
  H         0.0242854093        6.4433504644        0.3417012865
  H        -9.0120384951        1.5399630213       22.6904841862
  H        -8.9591898225        2.1717952311       24.3589067022
  H       -10.4888898281        1.6160545558       23.6864631435
  H        -7.2482754462        8.2354050127       24.0963742468
  H        -8.7729754390        7.6773657948       23.4132525421
  H        -8.7310581808        8.3041533118       25.0842840738
  H        -3.2914737381        9.8704096619        7.5925240916
  H         3.2066386226        0.4033758218        6.4526408598
  H        -3.1492417558        0.7298546349        8.1989490486
  H         1.3329965125        9.9311245375        8.6182965107
  H         1.2248119191        0.5484286722        9.6454223960
  H         1.2604439841        0.7359910322        7.8737897872
  C        -3.8568365241        7.9032207623       16.0913840475
  C        -6.2873061007       10.4068878859       18.2446344573
  C        -3.8955457301        2.1955895138       16.7867304061
  C        -3.2267792152       10.8950654336       13.8334735608
  C       -13.7317436115        7.7789473936       31.3092259042
  C       -11.3895988335       10.3157516967       29.5953556781
  C       -13.6468819115        1.9998297161       31.3251147859
  C         1.2331449382       10.6765512066        2.2107321678
  C       -10.7254913325       10.3727449594       28.2625036972
  C        -9.4581347735        0.2123670658       28.0362361810
  C        -8.9569164146        0.3386844877       26.7390421491
  C        -9.6539665769       -0.1887252852       25.6381786145
  C       -10.9112482304        9.9487306495       25.8756428767
  C       -11.4312252888        9.8423841634       27.1631887922
  C        -9.1524861122        0.0216298720       24.2444437168
  C        -8.5874273500        9.8269368711       23.5368018703
  C        -6.7831838011       -0.1176418962       21.9592867251
  C        -8.0633732552       10.0484100590       22.1527718366
  C        -8.7508875628        9.5660716597       21.0254210091
  C        -8.2213396988        9.7173298723       19.7423782577
  C        -6.9657938112       10.3188189160       19.5619724148
  C        -6.2318500702        0.0085879150       20.6874691075
  C         0.6681852548       -0.0692748225        3.5758609994
  C         1.1805121982       10.0037874706        4.6493352582
  C         0.5313035117        9.9926818001        5.8829008250
  C        -0.6112518981       -0.0527004381        6.1203696607
  C        -1.1396439790        0.6640253672        5.0219128131
  C        -0.5292372815        0.6368085631        3.7743978010
  C        -1.2902735850       -0.0201940617        7.4447913405
  C        -0.6128016322        0.0229389809        8.6315458825
  C        -0.8967834190        0.9479167957       10.9598490446
  C        -1.3157700164        0.0589866450        9.9448049788
  C        -2.4319356889        9.9963208102       10.2445059924
  C        -3.0994272244       10.0521815165       11.4654828494
  C        -2.6247915065        0.1449346688       12.4620636373
  C        -1.5238332808        0.9768151430       12.1986975406
  C        -3.8792042890        6.4688283111       16.6102413254
  C        -4.9234873766        5.8456489707       17.3708726048
  C        -2.8286614283        5.7169510016       16.1013086531
  C        -5.9443085600        6.5379119844       18.0891679292
  C        -6.9047204276        5.8363742801       18.7872832547
  C        -3.8473291439        3.6795184939       16.8514355066
  C        -2.7861449915        4.3221102461       16.2483872691
  C        -4.9233588584        4.4055985825       17.4308435831
  C        -5.9717061949        3.7242230987       18.1033003070
  C        -6.9408032134        4.4290811332       18.7635111006
  C       -13.7045831603        6.2906596724       31.2049624567
  C       -12.6101746710        5.6218825065       30.5699407049
  C       -14.7285941055        5.5794861690       31.8056584334
  C       -11.5775609007        6.3194721957       29.8787227791
  C       -10.6140700821        5.6156849437       29.1998692042
  C       -13.6545017691        3.4891038950       31.2334701126
  C       -14.7046880567        4.1733927558       31.8199036148
  C       -12.5893964893        4.1825214379       30.5827075087
  C       -11.5476693061        3.4964839387       29.8952975446
  C       -10.6045797437        4.2106237650       29.2027102351
  C        -9.4064825574        1.4071780220       23.7049019932
  C        -8.3312854415        8.4407703804       24.0725861297
  C        -2.7808899448        0.0603642441        7.4155628363
  C         0.8733135733        0.1261686661        8.6967845682
  O        -3.0502590083        8.7224502060       16.7014437231
  O        -5.3855553134        8.4459660750       15.9696668342
  O        -6.9630511013       10.5285075099       17.1098437830
  O        -5.0048373813       -0.4139213872       18.1680067744
  O        -4.8634398476        1.7175959858       16.1063335882
  O        -2.9649074035        1.5463351827       17.3630550183
  O        -2.3877858480        0.4463988897       14.7693582042
  O        -4.4293502431       10.4924661599       14.0222234164
  O       -14.7931937857        8.3792124567       30.9239519723
  O       -12.6943012432        8.3113124780       31.8105120779
  O       -10.7049608136       10.3319010164       30.7325390966
  O       -12.6350673344       10.2568727280       29.6600724533
  O       -12.6336277995        1.4650805158       31.8736187072
  O       -14.6720110147        1.3960537247       30.8615877975
  O         0.4069796102       -0.0106824839        1.2615202249
  O         2.4922059611       10.5412903212        2.0628375715
  F        -7.8735516801        6.4724350483       19.4909585845
  F        -7.9596262685        3.7761695234       19.3653587126
  F        -9.6121945370        6.2340352885       28.5360595638
  F        -9.6013870961        3.5989732800       28.5357417868
  O        -5.4076901415        7.9478523851       14.5618526594
  C        -4.0403017415        7.7427568957       14.5391671549
  O        -3.4076935524        7.4354038841       13.5688235698
     123
 i =      216, E =      -996.1996608638
 Zn        -2.5156412472       10.5799950085       16.6309993148
 Zn        -5.2855624886       10.5889017172       15.8513169832
 Zn       -15.1503678034       10.2849591403       31.2310108436
 Zn         3.1789090658       10.6003066308        0.1209668674
  H        -8.9043116321        0.6725940429       28.8537369588
  H        -8.0176688611        0.8736333908       26.5846141175
  H       -11.4660069864        9.5337961637       25.0325462283
  H       -12.3844663127        9.3454715980       27.3358478661
  H        -6.2370682334        0.2652214537       22.8244380761
  H        -9.7026963479        9.0494851355       21.1487081216
  H        -8.7690421247        9.2909325918       18.9012368963
  H        -5.2624931872        0.4888849886       20.5459478946
  H         2.0883092485        9.4227700660        4.4976526417
  H         0.9340045848        9.3701790172        6.6748435343
  H        -2.0386263870        1.2703120099        5.1403304301
  H        -0.9764856222        1.1778555410        2.9385535774
  H        -0.0702602579        1.6345859426       10.7759693732
  H        -2.7449108311        9.2560889886        9.5120154933
  H        -3.9243722107        9.3744678492       11.6769797426
  H        -1.1642888094        1.6478762787       12.9785821847
  H        -5.9650354614        7.6228652541       18.1219611776
  H        -6.0208686054        2.6376415306       18.1139304407
  H        -1.9630703820        3.7452114277       15.8281077596
  H        -2.0502006748        6.2106113199       15.5192487283
  H       -11.5378358166        7.4058139476       29.8769841200
  H       -11.4887975177        2.4109912840       29.9016267822
  H         0.0659559803        3.9425867233        0.3638450470
  H         0.0244305611        6.4436005791        0.3411739780
  H        -9.0150803743        1.5412514025       22.6909474292
  H        -8.9611113366        2.1734031135       24.3592092961
  H       -10.4908930324        1.6157238482       23.6886045022
  H        -7.2448117083        8.2399080653       24.0958054022
  H        -8.7691747493        7.6796450613       23.4138807426
  H        -8.7271403041        8.3073618060       25.0844952885
  H        -3.2930355605        9.8724878848        7.5909618366
  H         3.2057017473        0.4055011079        6.4515656785
  H        -3.1505841951        0.7316464005        8.1980869432
  H         1.3307446358        9.9297407891        8.6144264673
  H         1.2247550212        0.5444391491        9.6451091534
  H         1.2600330746        0.7364194628        7.8739107026
  C        -3.8567932746        7.9034331161       16.0919411435
  C        -6.2871649247       10.4069066902       18.2442864982
  C        -3.8955143174        2.1958059463       16.7870608221
  C        -3.2270329323       10.8961383629       13.8332155936
  C       -13.7314085566        7.7790244473       31.3090846766
  C       -11.3892516729       10.3160151762       29.5956223299
  C       -13.6469819222        1.9998627481       31.3252649360
  C         1.2328230102       10.6781278305        2.2106030991
  C       -10.7248303541       10.3725264508       28.2629194414
  C        -9.4587394570        0.2146179377       28.0367266761
  C        -8.9572830485        0.3414620046       26.7396042401
  C        -9.6528525506       -0.1876707517       25.6387869262
  C       -10.9086162270        9.9466740222       25.8761998621
  C       -11.4289702688        9.8402290568       27.1635703398
  C        -9.1520603645        0.0231950561       24.2448652016
  C        -8.5862882811        9.8292434881       23.5366669729
  C        -6.7848731624       -0.1109843228       21.9579180243
  C        -8.0628665765       10.0509068981       22.1524766557
  C        -8.7486683891        9.5642663881       21.0258722638
  C        -8.2193306418        9.7142513352       19.7426755296
  C        -6.9656151375       10.3194824522       19.5614355166
  C        -6.2332291787        0.0132555525       20.6860354500
  C         0.6678274128       -0.0663921563        3.5757219314
  C         1.1788562288       10.0052532898        4.6486870552
  C         0.5295760945        9.9940348134        5.8820978771
  C        -0.6126143012       -0.0506391607        6.1196565237
  C        -1.1397446364        0.6678053147        5.0217220385
  C        -0.5289928001        0.6409380112        3.7742573647
  C        -1.2915736859       -0.0174954966        7.4441929262
  C        -0.6139439572        0.0232544751        8.6309558808
  C        -0.8962691196        0.9483719356       10.9594988392
  C        -1.3169563653        0.0606261059        9.9441221176
  C        -2.4347462012        9.9995980492       10.2433586870
  C        -3.1017477192       10.0559869844       11.4644406237
  C        -2.6252237879        0.1471187019       12.4617093527
  C        -1.5230675025        0.9775015968       12.1985148885
  C        -3.8787037574        6.4686771484       16.6111370298
  C        -4.9222482009        5.8454420476       17.3726399343
  C        -2.8278052410        5.7171031580       16.1027111741
  C        -5.9431882223        6.5377329151       18.0904095208
  C        -6.9039645602        5.8362829556       18.7877810076
  C        -3.8465918015        3.6794438668       16.8528282585
  C        -2.7855754689        4.3222851106       16.2493995305
  C        -4.9223080587        4.4052359157       17.4322763075
  C        -5.9702612433        3.7239343493       18.1055942803
  C        -6.9402274129        4.4287790246       18.7642899391
  C       -13.7043264619        6.2907208501       31.2045701834
  C       -12.6101688746        5.6218457359       30.5692963620
  C       -14.7283745136        5.5796587814       31.8052014657
  C       -11.5773605095        6.3194555159       29.8785541699
  C       -10.6142064236        5.6155220541       29.1994253418
  C       -13.6545380364        3.4890422947       31.2327145576
  C       -14.7044851460        4.1734738551       31.8192115354
  C       -12.5891583436        4.1824840223       30.5822685388
  C       -11.5480286643        3.4964367830       29.8942419697
  C       -10.6045490284        4.2105661505       29.2019474212
  C        -9.4082122402        1.4082666831       23.7057936751
  C        -8.3280594207        8.4438065411       24.0725901289
  C        -2.7820548787        0.0623717688        7.4145057331
  C         0.8722843223        0.1252324195        8.6955718993
  O        -3.0514501742        8.7241213242       16.7014189385
  O        -5.3859499889        8.4457233302       15.9697578842
  O        -6.9629497110       10.5285248376       17.1097204048
  O        -5.0046443678       -0.4141170986       18.1677706008
  O        -4.8631937941        1.7182503404       16.1063020318
  O        -2.9648783483        1.5464194405       17.3633374630
  O        -2.3879470913        0.4465426719       14.7693668991
  O        -4.4294614085       10.4926853504       14.0219819233
  O       -14.7927213004        8.3792082090       30.9234204664
  O       -12.6940489983        8.3112569625       31.8107147008
  O       -10.7048758293       10.3317269593       30.7329478782
  O       -12.6347039660       10.2566641447       29.6599335381
  O       -12.6335565672        1.4651728647       31.8734491986
  O       -14.6719544773        1.3958628693       30.8614244647
  O         0.4066962931       -0.0108749092        1.2612630607
  O         2.4917428251       10.5412358668        2.0630960496
  F        -7.8734777693        6.4722288295       19.4909815548
  F        -7.9592740404        3.7762368164       19.3659537273
  F        -9.6120233682        6.2336710319       28.5358400308
  F        -9.6014533582        3.5989289071       28.5354814743
  O        -5.4074050203        7.9483788373       14.5615683944
  C        -4.0403048745        7.7427020841       14.5394143595
  O        -3.4074134538        7.4346187449       13.5693059134
     123
 i =      217, E =      -996.1996660539
 Zn        -2.5155103534       10.5799723425       16.6310635822
 Zn        -5.2855738404       10.5888162295       15.8508330124
 Zn       -15.1503564640       10.2849835059       31.2311661805
 Zn         3.1790169988       10.6003010464        0.1209055889
  H        -8.9041065392        0.6720848347       28.8536824150
  H        -8.0168619999        0.8718660231       26.5847341347
  H       -11.4637499559        9.5294998897       25.0329713723
  H       -12.3830139774        9.3425197563       27.3360703468
  H        -6.2386764755        0.2631168488       22.8246576926
  H        -9.7012243435        9.0431518174       21.1474775745
  H        -8.7671886006        9.2863442565       18.9002571539
  H        -5.2634539780        0.4877839855       20.5465136175
  H         2.0900176828        9.4231533363        4.4962692649
  H         0.9369852027        9.3679688590        6.6739220801
  H        -2.0394626877        1.2657717389        5.1423245980
  H        -0.9781562960        1.1758768112        2.9400890313
  H        -0.0689467864        1.6314473127       10.7750636610
  H        -2.7424465226        9.2510266098        9.5143815603
  H        -3.9234771159        9.3726713563       11.6782220409
  H        -1.1640395387        1.6478127515       12.9772819555
  H        -5.9644253785        7.6230932824       18.1228956403
  H        -6.0188515813        2.6377846274       18.1171044201
  H        -1.9622379785        3.7451502303       15.8297591813
  H        -2.0495902733        6.2104665190       15.5203535971
  H       -11.5376691455        7.4059315017       29.8768302227
  H       -11.4894403359        2.4110536591       29.9006230918
  H         0.0662833319        3.9424800702        0.3640996656
  H         0.0245535571        6.4434921449        0.3412624090
  H        -9.0089140961        1.5390862878       22.6930183788
  H        -8.9534296953        2.1693661696       24.3619297868
  H       -10.4845491855        1.6159725753       23.6906999990
  H        -7.2501510101        8.2313147514       24.0935791622
  H        -8.7756939061        7.6757279277       23.4103094012
  H        -8.7327181288        8.3012820925       25.0816526204
  H        -3.2910059777        9.8677980549        7.5943966319
  H         3.2067333361        0.3989688110        6.4528443296
  H        -3.1488538535        0.7278535700        8.1989371593
  H         1.3319398739        9.9231449498        8.6132858376
  H         1.2270179331        0.5355554089        9.6472532917
  H         1.2624987586        0.7313614073        7.8764173332
  C        -3.8567172894        7.9033088542       16.0921809709
  C        -6.2869724393       10.4060671434       18.2441765944
  C        -3.8954800916        2.1958773812       16.7875001792
  C        -3.2268378108       10.8960986026       13.8331714705
  C       -13.7313434657        7.7790285458       31.3088532663
  C       -11.3890079128       10.3150019789       29.5955406841
  C       -13.6467953778        1.9998607726       31.3248198479
  C         1.2327538062       10.6777030702        2.2106551950
  C       -10.7241038152       10.3711130218       28.2630213834
  C        -9.4580989128        0.2133858567       28.0368193222
  C        -8.9561882467        0.3391490831       26.7397871255
  C        -9.6511851787       -0.1910142484       25.6391091510
  C       -10.9067995257        9.9431384023       25.8765974960
  C       -11.4276167636        9.8374851227       27.1638848625
  C        -9.1499438055        0.0196198670       24.2453410056
  C        -8.5871402739        9.8248194138       23.5357360993
  C        -6.7856431140       -0.1140077071       21.9579124333
  C        -8.0631666950       10.0468725311       22.1518208048
  C        -8.7478904272        9.5592005999       21.0249827366
  C        -8.2184823446        9.7105055136       19.7419523816
  C        -6.9654202993       10.3171026614       19.5612775562
  C        -6.2338620349        0.0114314900       20.6861926709
  C         0.6675801477       -0.0673451502        3.5756833088
  C         1.1803486679       10.0048809776        4.6482720081
  C         0.5310419236        9.9915422821        5.8816410208
  C        -0.6109925568       -0.0536785201        6.1205118115
  C        -1.1403273879        0.6639531679        5.0227920255
  C        -0.5294596933        0.6390984001        3.7753290783
  C        -1.2900498833       -0.0228092981        7.4449428437
  C        -0.6120772372        0.0181380997        8.6315320730
  C        -0.8952909247        0.9457509149       10.9593059223
  C        -1.3146909335        0.0562611313        9.9449301854
  C        -2.4326545173        9.9957478521       10.2446916574
  C        -3.1004476683       10.0535672894       11.4652479710
  C        -2.6248072194        0.1460647463       12.4616634132
  C        -1.5224005714        0.9760670513       12.1981226931
  C        -3.8782649878        6.4688025402       16.6118917337
  C        -4.9214385076        5.8456637973       17.3739847719
  C        -2.8272775005        5.7170776502       16.1037694937
  C        -5.9427002673        6.5379214774       18.0913119754
  C        -6.9034920006        5.8363502609       18.7886271727
  C        -3.8459488314        3.6795456993       16.8541647995
  C        -2.7848135832        4.3222873313       16.2508238304
  C        -4.9214377396        4.4054824232       17.4338420438
  C        -5.9690554629        3.7240932949       18.1076071603
  C        -6.9396410341        4.4288300028       18.7654082480
  C       -13.7043450109        6.2907246453       31.2043647014
  C       -12.6101939769        5.6218552020       30.5690892929
  C       -14.7282287662        5.5796268020       31.8052771549
  C       -11.5775558904        6.3195823213       29.8782416689
  C       -10.6143267694        5.6155658448       29.1993524061
  C       -13.6544899561        3.4890792054       31.2325875103
  C       -14.7044893322        4.1734370339       31.8189872453
  C       -12.5895163238        4.1824779528       30.5814624603
  C       -11.5482371517        3.4965219913       29.8936817776
  C       -10.6047343801        4.2106163571       29.2013994893
  C        -9.4023431694        1.4059746195       23.7077104000
  C        -8.3328802666        8.4380184780       24.0700755133
  C        -2.7805680858        0.0574839252        7.4161563142
  C         0.8741509713        0.1188339180        8.6968055395
  O        -3.0514441057        8.7241569875       16.7014891913
  O        -5.3860556968        8.4454553213       15.9701060768
  O        -6.9627910808       10.5284592436       17.1096625786
  O        -5.0044798528       -0.4142024667       18.1677187634
  O        -4.8630146843        1.7182776024       16.1065087158
  O        -2.9646248950        1.5463410914       17.3631773281
  O        -2.3877957707        0.4464130077       14.7692624090
  O        -4.4293820927       10.4926575122       14.0216382359
  O       -14.7927371044        8.3792586193       30.9235396185
  O       -12.6941209873        8.3112853995       31.8107431275
  O       -10.7047557631       10.3319782474       30.7329110743
  O       -12.6345210448       10.2568535029       29.6598210159
  O       -12.6336303446        1.4651812743       31.8734993941
  O       -14.6719953500        1.3958620996       30.8614976566
  O         0.4066933072       -0.0104538088        1.2613836826
  O         2.4917608591       10.5415509496        2.0629358122
  F        -7.8735590413        6.4721760163       19.4910964897
  F        -7.9594441469        3.7761681640       19.3658239281
  F        -9.6120265860        6.2339909623       28.5363604104
  F        -9.6013458409        3.5990886672       28.5352834105
  O        -5.4075112351        7.9485009111       14.5615501559
  C        -4.0402765548        7.7424397075       14.5394592224
  O        -3.4076814962        7.4346563057       13.5690904919
     123
 i =      218, E =      -996.1996703200
 Zn        -2.5154077167       10.5798076462       16.6311532649
 Zn        -5.2854392993       10.5887359240       15.8503741545
 Zn       -15.1503790474       10.2849951063       31.2311700097
 Zn         3.1790727586       10.6002369607        0.1210231508
  H        -8.9046155753        0.6730549946       28.8539616430
  H        -8.0167542803        0.8722372002       26.5851551892
  H       -11.4611361476        9.5259375889       25.0333921470
  H       -12.3812689181        9.3396294824       27.3362991524
  H        -6.2407462717        0.2659486623       22.8240591762
  H        -9.6990065037        9.0384164638       21.1472676778
  H        -8.7648251316        9.2818312623       18.8999842856
  H        -5.2647652377        0.4896863765       20.5461564012
  H         2.0902382519        9.4233133832        4.4953500018
  H         0.9375035294        9.3666350612        6.6730345139
  H        -2.0396450063        1.2649322813        5.1433832495
  H        -0.9783838949        1.1765604329        2.9409906830
  H        -0.0677032644        1.6291478569       10.7745924811
  H        -2.7425840553        9.2495733829        9.5152486458
  H        -3.9243849952        9.3733487671       11.6784810376
  H        -1.1630194902        1.6472631751       12.9768462140
  H        -5.9636372938        7.6233417814       18.1238324959
  H        -6.0168825876        2.6379942503       18.1193318625
  H        -1.9614246997        3.7456262306       15.8304819784
  H        -2.0488576968        6.2109386666       15.5216314519
  H       -11.5371074598        7.4058213317       29.8767473860
  H       -11.4899322648        2.4109144693       29.9000165208
  H         0.0665057342        3.9423996675        0.3640424947
  H         0.0249134442        6.4433917206        0.3412309768
  H        -9.0064052692        1.5383664169       22.6941820984
  H        -8.9496241747        2.1676239628       24.3635304726
  H       -10.4817198421        1.6159289471       23.6926619580
  H        -7.2515401148        8.2279265802       24.0923003961
  H        -8.7778278310        7.6740782918       23.4087015789
  H        -8.7340989169        8.2987418624       25.0803698058
  H        -3.2902198569        9.8658955478        7.5956830722
  H         3.2070629414        0.3962403207        6.4530734612
  H        -3.1484859829        0.7263472671        8.1988077931
  H         1.3318015447        9.9190873770        8.6115019660
  H         1.2281294627        0.5293654945        9.6485101057
  H         1.2635293912        0.7288018092        7.8780200174
  C        -3.8567313055        7.9032764133       16.0923500452
  C        -6.2867712897       10.4056954486       18.2439264519
  C        -3.8950948044        2.1958809589       16.7875312759
  C        -3.2265622781       10.8959519683       13.8331121288
  C       -13.7314099810        7.7789772994       31.3090384566
  C       -11.3888531860       10.3147657251       29.5955410748
  C       -13.6467473833        1.9998377972       31.3247203633
  C         1.2327356945       10.6782243318        2.2106683264
  C       -10.7232959472       10.3701071017       28.2632682571
  C        -9.4577868679        0.2134609916       28.0370621312
  C        -8.9556382930        0.3387282945       26.7400861946
  C        -9.6497855642       -0.1931039799       25.6395435536
  C       -10.9050332021        9.9405650546       25.8771366152
  C       -11.4262055886        9.8353673985       27.1643421481
  C        -9.1482773018        0.0183438820       24.2460139862
  C        -8.5870560303        9.8231825962       23.5354368837
  C        -6.7866573512       -0.1133415845       21.9575316907
  C        -8.0630786409       10.0453835177       22.1514976882
  C        -8.7466805044        9.5561924451       21.0246930893
  C        -8.2171622283        9.7074301318       19.7416549616
  C        -6.9650849596       10.3159004872       19.5611473326
  C        -6.2345397099        0.0120995150       20.6859181679
  C         0.6677299717       -0.0667472287        3.5757356697
  C         1.1804186450       10.0047574992        4.6478287611
  C         0.5314474451        9.9908722539        5.8813714568
  C        -0.6109565062       -0.0550493728        6.1205267595
  C        -1.1400078110        0.6636086429        5.0234885340
  C        -0.5297875302        0.6389956228        3.7757375129
  C        -1.2895666839       -0.0252917364        7.4451666860
  C        -0.6114549625        0.0156958640        8.6316930804
  C        -0.8943471563        0.9439070659       10.9592380833
  C        -1.3140256842        0.0542451798        9.9451068503
  C        -2.4322342539        9.9944095346       10.2452193218
  C        -3.1007343554       10.0534554358       11.4653660548
  C        -2.6245810493        0.1458628155       12.4615573118
  C        -1.5218367679        0.9753479952       12.1979120772
  C        -3.8777874687        6.4692248447       16.6125916982
  C        -4.9209467132        5.8459758274       17.3746077330
  C        -2.8266586116        5.7173850322       16.1046863912
  C        -5.9422205411        6.5380865093       18.0922427273
  C        -6.9033039134        5.8365045093       18.7893121123
  C        -3.8454297589        3.6797455061       16.8545379287
  C        -2.7839572591        4.3225371349       16.2518915261
  C        -4.9204325047        4.4059082757       17.4353174945
  C        -5.9681177322        3.7242769124       18.1088093810
  C        -6.9389997768        4.4290540812       18.7662604904
  C       -13.7042083680        6.2907014275       31.2040683530
  C       -12.6101590465        5.6218192082       30.5686312069
  C       -14.7280276919        5.5795579461       31.8050622529
  C       -11.5772953106        6.3194792836       29.8781485986
  C       -10.6141068925        5.6156945944       29.1989901660
  C       -13.6545268575        3.4890443637       31.2320714274
  C       -14.7043635361        4.1734034929       31.8188599205
  C       -12.5895956089        4.1824320303       30.5810773024
  C       -11.5483909368        3.4964007315       29.8932204339
  C       -10.6048849708        4.2107116132       29.2013388137
  C        -9.3996604211        1.4050866242       23.7089595803
  C        -8.3341245327        8.4356496564       24.0688056612
  C        -2.7800958722        0.0555063474        7.4165242647
  C         0.8748302911        0.1149504725        8.6972601945
  O        -3.0511631984        8.7239399610       16.7016846691
  O        -5.3859498478        8.4454158232       15.9707658070
  O        -6.9625801111       10.5283330345       17.1093846665
  O        -5.0042967136       -0.4141307071       18.1676802882
  O        -4.8629288200        1.7182653651       16.1068559787
  O        -2.9643719022        1.5461686939       17.3632883524
  O        -2.3875758260        0.4465122643       14.7691525566
  O        -4.4291125351       10.4928936906       14.0215469667
  O       -14.7926766753        8.3793149182       30.9235077570
  O       -12.6940624317        8.3113310135       31.8105245468
  O       -10.7047189750       10.3319353323       30.7329627281
  O       -12.6343561289       10.2567241834       29.6597810858
  O       -12.6335773821        1.4651676107       31.8734297480
  O       -14.6719611913        1.3959052596       30.8614421771
  O         0.4066471789       -0.0103951143        1.2614150409
  O         2.4917009601       10.5415294733        2.0628464340
  F        -7.8738224797        6.4724494052       19.4909712907
  F        -7.9595489546        3.7761175030       19.3653920119
  F        -9.6119002921        6.2342451340       28.5361289591
  F        -9.6013208485        3.5989619879       28.5355308980
  O        -5.4078281345        7.9487023710       14.5619113173
  C        -4.0404890804        7.7424208229       14.5394405316
  O        -3.4081488115        7.4350115172       13.5689425808
     123
 i =      219, E =      -996.1996721828
 Zn        -2.5154240504       10.5796075710       16.6312130469
 Zn        -5.2852349729       10.5885428645       15.8504952006
 Zn       -15.1504476329       10.2849138631       31.2312540665
 Zn         3.1789805454       10.6002484921        0.1211227209
  H        -8.9048742098        0.6729896775       28.8540646176
  H        -8.0160543647        0.8710010743       26.5855058736
  H       -11.4597690403        9.5233330794       25.0336531482
  H       -12.3805130001        9.3381567902       27.3364642532
  H        -6.2418122499        0.2656474284       22.8240687077
  H        -9.6982008338        9.0352961348       21.1465222077
  H        -8.7637105331        9.2794144396       18.8994411086
  H        -5.2653024277        0.4894240704       20.5463762327
  H         2.0911744839        9.4229164739        4.4948833385
  H         0.9389384312        9.3654005069        6.6727130017
  H        -2.0396188778        1.2627623882        5.1443663809
  H        -0.9788551223        1.1753096167        2.9417259089
  H        -0.0668844183        1.6271531108       10.7741107376
  H        -2.7417145931        9.2467222994        9.5165303246
  H        -3.9236799152        9.3720053720       11.6796419159
  H        -1.1623131240        1.6465155090       12.9764011409
  H        -5.9632917225        7.6233082199       18.1243017514
  H        -6.0162821621        2.6379201799       18.1196460361
  H        -1.9609942054        3.7458853781       15.8305246829
  H        -2.0483277612        6.2111608039       15.5224102988
  H       -11.5367499351        7.4056746775       29.8766444859
  H       -11.4900777410        2.4106785063       29.9000735787
  H         0.0665451135        3.9424303799        0.3640790928
  H         0.0253082365        6.4434246698        0.3413777562
  H        -9.0030134227        1.5372676478       22.6954480693
  H        -8.9452038697        2.1653694817       24.3649623584
  H       -10.4781965890        1.6163752604       23.6938759326
  H        -7.2540700902        8.2228401569       24.0910883497
  H        -8.7812423333        7.6718362194       23.4067642529
  H        -8.7368207942        8.2951325487       25.0790465828
  H        -3.2890806062        9.8632165608        7.5974297214
  H         3.2076247905        0.3925503582        6.4535127201
  H        -3.1476823357        0.7242386615        8.1989795757
  H         1.3323399602        9.9155715870        8.6109309047
  H         1.2290742684        0.5244496328        9.6497947919
  H         1.2646923191        0.7262785307        7.8796310935
  C        -3.8564482635        7.9028624964       16.0922032646
  C        -6.2866341684       10.4052583188       18.2437658867
  C        -3.8949860076        2.1955828628       16.7877704885
  C        -3.2264135610       10.8957583309       13.8332824283
  C       -13.7312996941        7.7789411097       31.3089383625
  C       -11.3887987129       10.3144709233       29.5956647939
  C       -13.6467228256        1.9998031828       31.3245320119
  C         1.2327821072       10.6780993107        2.2106415641
  C       -10.7230658436       10.3695427673       28.2634640819
  C        -9.4573565256        0.2122501780       28.0371736499
  C        -8.9549349819        0.3374974504       26.7403315471
  C        -9.6489736584       -0.1946101752       25.6398915655
  C       -10.9039466796        9.9382307067       25.8773843853
  C       -11.4253708035        9.8337751136       27.1645871506
  C        -9.1468555408        0.0161242548       24.2464088870
  C        -8.5872734315        9.8205052717       23.5349775893
  C        -6.7870300533       -0.1144983517       21.9574537546
  C        -8.0631015495       10.0435359858       22.1512107576
  C        -8.7461829772        9.5536455554       21.0243344384
  C        -8.2164836661        9.7051097141       19.7413560832
  C        -6.9649514374       10.3147101460       19.5610096839
  C        -6.2347164359        0.0110016155       20.6859105867
  C         0.6679647402       -0.0674351253        3.5757964639
  C         1.1812131752       10.0041242376        4.6476917522
  C         0.5323140429        9.9895787557        5.8812747491
  C        -0.6102293649       -0.0568695033        6.1210111127
  C        -1.1396919277        0.6617625096        5.0241448993
  C        -0.5297027011        0.6378403678        3.7762838055
  C        -1.2886844710       -0.0278738123        7.4457260460
  C        -0.6106497185        0.0130179304        8.6322952267
  C        -0.8934639659        0.9419583671       10.9591098767
  C        -1.3132443601        0.0514932821        9.9456611532
  C        -2.4316838249        9.9921713992       10.2460360681
  C        -3.1000639498       10.0520364387       11.4662085001
  C        -2.6239959744        0.1450435472       12.4618711033
  C        -1.5211846050        0.9742666904       12.1976964459
  C        -3.8775415367        6.4691672463       16.6128386340
  C        -4.9207786828        5.8457011904       17.3746772813
  C        -2.8261546732        5.7174426424       16.1052456098
  C        -5.9418420847        6.5380140488       18.0924978424
  C        -6.9030326739        5.8363766829       18.7893832940
  C        -3.8450965301        3.6795712645       16.8544916969
  C        -2.7835898334        4.3225171049       16.2521629522
  C        -4.9201387831        4.4057478022       17.4355993668
  C        -5.9678652249        3.7241652280       18.1090803502
  C        -6.9388220654        4.4290616958       18.7664891395
  C       -13.7041384802        6.2906443125       31.2039157462
  C       -12.6100630406        5.6217521856       30.5685501606
  C       -14.7278663348        5.5794778135       31.8050554262
  C       -11.5772237863        6.3193326896       29.8780139441
  C       -10.6140045406        5.6156237032       29.1989064500
  C       -13.6543790585        3.4890214506       31.2321625803
  C       -14.7043597348        4.1733729430       31.8187440903
  C       -12.5896590331        4.1823520671       30.5808805520
  C       -11.5483995935        3.4961684220       29.8931238698
  C       -10.6049380692        4.2106313506       29.2015132956
  C        -9.3963914047        1.4036733369       23.7101724665
  C        -8.3363621602        8.4322112335       24.0676506160
  C        -2.7792584089        0.0527851569        7.4172149666
  C         0.8756871292        0.1114298983        8.6979875773
  O        -3.0505932009        8.7233347342       16.7015837591
  O        -5.3856485811        8.4453403756       15.9712488832
  O        -6.9624564750       10.5281376485       17.1092357663
  O        -5.0041598492       -0.4141189955       18.1674605760
  O        -4.8628850711        1.7182799047       16.1067704788
  O        -2.9643209629        1.5459245145       17.3635857624
  O        -2.3874273967        0.4466463690       14.7692001878
  O        -4.4289329677       10.4926828203       14.0217884051
  O       -14.7926917043        8.3792430453       30.9236077380
  O       -12.6940017469        8.3113471651       31.8104492853
  O       -10.7047666628       10.3317961742       30.7331441527
  O       -12.6343053937       10.2566816491       29.6597921054
  O       -12.6336276790        1.4652049744       31.8734493683
  O       -14.6719929773        1.3958786717       30.8614659011
  O         0.4065363278       -0.0104076027        1.2615290320
  O         2.4918131161       10.5415686497        2.0629219432
  F        -7.8733993915        6.4725177866       19.4908778763
  F        -7.9594876331        3.7761952682       19.3654858092
  F        -9.6120342781        6.2341106285       28.5357925036
  F        -9.6012810289        3.5989169514       28.5356096768
  O        -5.4080137798        7.9486359841       14.5625235418
  C        -4.0408327009        7.7421697320       14.5395149436
  O        -3.4085173867        7.4348756849       13.5690647451
     123
 i =      220, E =      -996.1996742746
 Zn        -2.5155297179       10.5795632914       16.6311780191
 Zn        -5.2852152571       10.5883403449       15.8507825612
 Zn       -15.1504472221       10.2848352141       31.2312163615
 Zn         3.1789483328       10.6002144957        0.1212087346
  H        -8.9057081034        0.6742895615       28.8543528586
  H        -8.0161782914        0.8718511290       26.5860168595
  H       -11.4580604763        9.5211850448       25.0340921449
  H       -12.3793640685        9.3365746724       27.3367506889
  H        -6.2430822791        0.2690569433       22.8233785707
  H        -9.6966466477        9.0330817702       21.1468326444
  H        -8.7622277546        9.2770163322       18.8996061808
  H        -5.2664597651        0.4919725288       20.5456444377
  H         2.0908033877        9.4224062726        4.4946884517
  H         0.9382959050        9.3648098967        6.6723554147
  H        -2.0390042419        1.2638796213        5.1445628764
  H        -0.9782560543        1.1763255577        2.9418672691
  H        -0.0661758803        1.6259589382       10.7739310191
  H        -2.7433828247        9.2473382202        9.5164088898
  H        -3.9244595724        9.3728877471       11.6799727926
  H        -1.1609976163        1.6455020298       12.9765739908
  H        -5.9630829034        7.6230392119       18.1245928236
  H        -6.0162023092        2.6377576394       18.1194560973
  H        -1.9607961953        3.7463157210       15.8299916991
  H        -2.0480079231        6.2114956527       15.5228673741
  H       -11.5365824132        7.4054896762       29.8767350064
  H       -11.4901048489        2.4104458635       29.9001484125
  H         0.0662657738        3.9425940272        0.3638248663
  H         0.0255324889        6.4436192206        0.3413420328
  H        -9.0030755754        1.5375296338       22.6958807878
  H        -8.9443995660        2.1652768291       24.3654113030
  H       -10.4777692057        1.6166968180       23.6949753039
  H        -7.2533742373        8.2224782132       24.0904690795
  H        -8.7807361630        7.6718233606       23.4064813197
  H        -8.7358315937        8.2947298894       25.0788002624
  H        -3.2890969093        9.8630569402        7.5972061095
  H         3.2074616780        0.3921895061        6.4530000643
  H        -3.1480760189        0.7241796205        8.1986207217
  H         1.3316690862        9.9142641443        8.6096143820
  H         1.2290429785        0.5219758515        9.6501790687
  H         1.2645672219        0.7259915438        7.8803550553
  C        -3.8563633719        7.9027923935       16.0923449797
  C        -6.2865197395       10.4051009768       18.2435789968
  C        -3.8948309945        2.1955375170       16.7876455402
  C        -3.2264093686       10.8958227363       13.8334055808
  C       -13.7312155614        7.7788547798       31.3089874731
  C       -11.3887562243       10.3144048879       29.5957976773
  C       -13.6467981948        1.9997773833       31.3246031431
  C         1.2328448008       10.6784266636        2.2106311335
  C       -10.7228703994       10.3692711967       28.2636977564
  C        -9.4575513143        0.2127767575       28.0374717417
  C        -8.9548079658        0.3378776098       26.7407424266
  C        -9.6482558122       -0.1949741304       25.6402717715
  C       -10.9027926400        9.9370042855       25.8777058444
  C       -11.4244558693        9.8326324753       27.1648184310
  C        -9.1461906489        0.0160622561       24.2467733440
  C        -8.5868140844        9.8205118721       23.5349720354
  C        -6.7876612801       -0.1125040989       21.9570058946
  C        -8.0627929463       10.0437083851       22.1511561418
  C        -8.7452572383        9.5524509443       21.0244767726
  C        -8.2156511283        9.7037962269       19.7414217171
  C        -6.9648635620       10.3147251026       19.5607787930
  C        -6.2353157776        0.0125819887       20.6854369299
  C         0.6682539579       -0.0669096947        3.5758735864
  C         1.1809642911       10.0039086679        4.6475196476
  C         0.5321949616        9.9895801422        5.8811572807
  C        -0.6102919656       -0.0567218870        6.1208703160
  C        -1.1391630828        0.6626891942        5.0242798929
  C        -0.5292907680        0.6386030113        3.7763506518
  C        -1.2888743072       -0.0278207968        7.4455607747
  C        -0.6110137273        0.0125325533        8.6322536439
  C        -0.8930313283        0.9411342777       10.9590650234
  C        -1.3136663521        0.0510738309        9.9455733654
  C        -2.4327056353        9.9925037220       10.2459353378
  C        -3.1006847304       10.0526762109       11.4663192950
  C        -2.6238451849        0.1451728486       12.4620535726
  C        -1.5205452722        0.9737157604       12.1977640708
  C        -3.8772793797        6.4692074266       16.6132113027
  C        -4.9206955363        5.8454490913       17.3747245255
  C        -2.8258652518        5.7176782982       16.1054929519
  C        -5.9417077089        6.5377778823       18.0925031184
  C        -6.9029451534        5.8361278116       18.7892911396
  C        -3.8448438232        3.6795225825       16.8542338519
  C        -2.7833560325        4.3226563235       16.2521409061
  C        -4.9200467666        4.4055538676       17.4354239771
  C        -5.9677098022        3.7240058936       18.1090892693
  C        -6.9388601650        4.4288917598       18.7663772934
  C       -13.7039930571        6.2905401603       31.2038868614
  C       -12.6100070567        5.6215932258       30.5684819116
  C       -14.7278615913        5.5794907305       31.8048843420
  C       -11.5771706812        6.3191526796       29.8779754406
  C       -10.6139937241        5.6153582454       29.1989916640
  C       -13.6544751354        3.4889529688       31.2321076474
  C       -14.7044105121        4.1734177714       31.8187238471
  C       -12.5896127868        4.1821942684       30.5810309021
  C       -11.5484592358        3.4959369243       29.8930606648
  C       -10.6049066233        4.2103627950       29.2015967416
  C        -9.3960118147        1.4037117689       23.7107434539
  C        -8.3356336506        8.4320867797       24.0673532984
  C        -2.7794690552        0.0527031483        7.4169015844
  C         0.8753940128        0.1101898900        8.6979878751
  O        -3.0504604468        8.7233787552       16.7015556299
  O        -5.3854161624        8.4454072068       15.9713145897
  O        -6.9624020389       10.5281182802       17.1090946195
  O        -5.0040681228       -0.4139839864       18.1673544798
  O        -4.8627970521        1.7182608107       16.1067345282
  O        -2.9643404750        1.5458350658       17.3635879525
  O        -2.3873663539        0.4467456238       14.7693254640
  O        -4.4288588523       10.4925451980       14.0219203007
  O       -14.7925887641        8.3791704505       30.9235150273
  O       -12.6938779486        8.3112573322       31.8103880756
  O       -10.7047859277       10.3318064607       30.7333085777
  O       -12.6342609718       10.2567234876       29.6598286221
  O       -12.6336819211        1.4651694549       31.8734511423
  O       -14.6719928090        1.3958106723       30.8614755550
  O         0.4065349210       -0.0105275383        1.2615252004
  O         2.4918496513       10.5415208015        2.0629601813
  F        -7.8731822482        6.4724379988       19.4907964895
  F        -7.9594461540        3.7762078472       19.3656157284
  F        -9.6121050794        6.2339087502       28.5358671718
  F        -9.6011934801        3.5988447323       28.5355321083
  O        -5.4080504223        7.9486379997       14.5628234596
  C        -4.0407571336        7.7420282179       14.5396019220
  O        -3.4085428436        7.4346552915       13.5690795925
     123
 i =      221, E =      -996.1996778057
 Zn        -2.5156433688       10.5795139813       16.6310910430
 Zn        -5.2853677253       10.5882044021       15.8508782225
 Zn       -15.1505006337       10.2847671774       31.2312189952
 Zn         3.1790768096       10.6001787039        0.1210187525
  H        -8.9062842526        0.6744052673       28.8545594960
  H        -8.0154275202        0.8700198021       26.5866478882
  H       -11.4555598603        9.5165643815       25.0348272398
  H       -12.3780919170        9.3338471666       27.3371756167
  H        -6.2444679343        0.2680684106       22.8232052975
  H        -9.6951267922        9.0280496466       21.1460067937
  H        -8.7608870577        9.2735762117       18.8988955099
  H        -5.2676852036        0.4920662050       20.5457070240
  H         2.0922914621        9.4212482919        4.4939750980
  H         0.9404156109        9.3624588205        6.6718384965
  H        -2.0384277322        1.2610440632        5.1457982944
  H        -0.9784059768        1.1742376369        2.9427503632
  H        -0.0651916489        1.6227206088       10.7729595578
  H        -2.7431328273        9.2436081304        9.5182567623
  H        -3.9232807608        9.3704965503       11.6821550900
  H        -1.1597614115        1.6442900365       12.9759351239
  H        -5.9629953998        7.6224983251       18.1246559596
  H        -6.0167103229        2.6374837451       18.1186997867
  H        -1.9606632812        3.7466554939       15.8293358442
  H        -2.0481094257        6.2116131742       15.5228176080
  H       -11.5368191766        7.4051599004       29.8763860650
  H       -11.4902900052        2.4100713517       29.9005999816
  H         0.0656565282        3.9427338109        0.3634684249
  H         0.0254795466        6.4437895822        0.3412338189
  H        -8.9983539772        1.5361997839       22.6974796056
  H        -8.9377010234        2.1620269391       24.3677468333
  H       -10.4725375266        1.6178837756       23.6971291684
  H        -7.2572993572        8.2145603541       24.0880598176
  H        -8.7858196041        7.6686081766       23.4033052307
  H        -8.7394738454        8.2889947937       25.0763057967
  H        -3.2873023043        9.8586423614        7.5987594272
  H         3.2081182062        0.3869962353        6.4534569753
  H        -3.1471246278        0.7202514827        8.1989804976
  H         1.3319653289        9.9089774642        8.6087542560
  H         1.2302291291        0.5150399974        9.6519176184
  H         1.2660183795        0.7220497000        7.8824542434
  C        -3.8564399765        7.9025734517       16.0924730885
  C        -6.2864370763       10.4047513961       18.2435064129
  C        -3.8945192967        2.1955547225       16.7872163182
  C        -3.2261088809       10.8952936086       13.8335754894
  C       -13.7312663948        7.7786819429       31.3090356519
  C       -11.3887290879       10.3142783178       29.5957988279
  C       -13.6471109794        1.9997381501       31.3250322065
  C         1.2330834600       10.6779312769        2.2106014057
  C       -10.7224065874       10.3678477571       28.2639235374
  C        -9.4573538143        0.2119810999       28.0377544928
  C        -8.9541169484        0.3361343026       26.7411293752
  C        -9.6467393120       -0.1980865519       25.6406310653
  C       -10.9010891638        9.9337913598       25.8782690928
  C       -11.4232834969        9.8301416587       27.1652261037
  C        -9.1447331432        0.0132477484       24.2471161590
  C        -8.5868102800        9.8172614252       23.5348424621
  C        -6.7886112700       -0.1140467985       21.9568290449
  C        -8.0628863955       10.0403244446       22.1509494684
  C        -8.7444376510        9.5486580974       21.0238974942
  C        -8.2148390678        9.7007141203       19.7408755845
  C        -6.9648557347       10.3132729311       19.5605860192
  C        -6.2359865374        0.0117033306       20.6854536191
  C         0.6691352733       -0.0678900806        3.5760955536
  C         1.1821204218       10.0023238201        4.6471697280
  C         0.5338576997        9.9874566258        5.8810689911
  C        -0.6089633829       -0.0594992327        6.1212885082
  C        -1.1382683829        0.6603472172        5.0252000364
  C        -0.5288851357        0.6366927161        3.7770050181
  C        -1.2877021815       -0.0311161224        7.4459728512
  C        -0.6099914062        0.0078578631        8.6328049997
  C        -0.8920033744        0.9380701273       10.9590389654
  C        -1.3130863861        0.0477352826        9.9459401028
  C        -2.4321425043        9.9894379280       10.2470069752
  C        -3.0999334579       10.0505049807       11.4674738036
  C        -2.6230785333        0.1438360592       12.4623945693
  C        -1.5195616588        0.9719545877       12.1976687034
  C        -3.8772080422        6.4691815184       16.6134023962
  C        -4.9210655367        5.8451265110       17.3743875700
  C        -2.8257885455        5.7178266494       16.1055898116
  C        -5.9420171642        6.5372775287       18.0923115164
  C        -6.9034932253        5.8358046690       18.7890554170
  C        -3.8446881430        3.6794637651       16.8539063023
  C        -2.7832783297        4.3226935146       16.2519246650
  C        -4.9202035577        4.4053196189       17.4350059391
  C        -5.9679735388        3.7237710589       18.1084871099
  C        -6.9391624951        4.4286288778       18.7659880465
  C       -13.7040682213        6.2903639846       31.2037569408
  C       -12.6101873906        5.6213480766       30.5683113520
  C       -14.7280013636        5.5794729755       31.8048854017
  C       -11.5772420028        6.3188437995       29.8778764459
  C       -10.6140131905        5.6150374941       29.1990576219
  C       -13.6547544233        3.4888421720       31.2321115083
  C       -14.7047628419        4.1734392137       31.8185909946
  C       -12.5896437401        4.1819710986       30.5814296128
  C       -11.5485853877        3.4955812825       29.8932430213
  C       -10.6050339841        4.2100001234       29.2018049973
  C        -9.3913320389        1.4022609161       23.7122794945
  C        -8.3390485458        8.4270494891       24.0650870329
  C        -2.7783864079        0.0484088059        7.4175320348
  C         0.8763850141        0.1051090464        8.6990471977
  O        -3.0507402874        8.7233001045       16.7015938048
  O        -5.3855168497        8.4458508056       15.9707971234
  O        -6.9623519981       10.5280202284       17.1090669916
  O        -5.0040199678       -0.4138881250       18.1672747399
  O        -4.8627419435        1.7182895167       16.1067471617
  O        -2.9642992312        1.5457991334       17.3633755334
  O        -2.3872552227        0.4469032814       14.7695869356
  O        -4.4285993143       10.4925588446       14.0219228164
  O       -14.7926433970        8.3790962009       30.9235694093
  O       -12.6938568014        8.3110784394       31.8102530689
  O       -10.7048052297       10.3317372039       30.7333321285
  O       -12.6342358779       10.2566725532       29.6597764437
  O       -12.6337040311        1.4651160966       31.8733300912
  O       -14.6719608815        1.3956946386       30.8613408697
  O         0.4066963156       -0.0105905489        1.2615637084
  O         2.4921271824       10.5415238078        2.0627882195
  F        -7.8734736869        6.4722868533       19.4909302013
  F        -7.9594655408        3.7759693641       19.3656240803
  F        -9.6120323930        6.2337440356       28.5360601149
  F        -9.6012444657        3.5988238752       28.5354760777
  O        -5.4078350381        7.9490937576       14.5623844366
  C        -4.0408114104        7.7417818093       14.5396968620
  O        -3.4083427792        7.4346240287       13.5691265554
     123
 i =      222, E =      -996.1996806306
 Zn        -2.5156272013       10.5796697547       16.6311015308
 Zn        -5.2855445913       10.5883332830       15.8508153564
 Zn       -15.1504793834       10.2848070312       31.2312762162
 Zn         3.1791212773       10.6001959524        0.1207810244
  H        -8.9064517571        0.6746456211       28.8546842909
  H        -8.0154699194        0.8699685132       26.5868271110
  H       -11.4554137837        9.5163702689       25.0350438707
  H       -12.3781440491        9.3337883333       27.3372721686
  H        -6.2441990653        0.2686259479       22.8231981233
  H        -9.6951866605        9.0285830250       21.1463441342
  H        -8.7612502823        9.2742249770       18.8991596691
  H        -5.2678683535        0.4928363376       20.5455400394
  H         2.0919922785        9.4203180902        4.4941239427
  H         0.9399423627        9.3621651808        6.6718659271
  H        -2.0375253680        1.2620364465        5.1454792682
  H        -0.9774441611        1.1743139162        2.9423947156
  H        -0.0651544157        1.6223029056       10.7729178632
  H        -2.7442197622        9.2442831524        9.5178970444
  H        -3.9233601658        9.3703420871       11.6824024996
  H        -1.1592411911        1.6436912931       12.9760519304
  H        -5.9635524687        7.6223360974       18.1240105921
  H        -6.0179472587        2.6373891952       18.1166629573
  H        -1.9612073204        3.7469151422       15.8279143071
  H        -2.0485697764        6.2118531953       15.5220081094
  H       -11.5371535848        7.4050694349       29.8762178010
  H       -11.4899531865        2.4101233878       29.9013400478
  H         0.0652578139        3.9427770856        0.3631577792
  H         0.0252147236        6.4438695589        0.3411022815
  H        -8.9990726609        1.5363812110       22.6974889565
  H        -8.9379900895        2.1623139920       24.3675706970
  H       -10.4727768764        1.6180907248       23.6973956656
  H        -7.2566803362        8.2150106675       24.0877583884
  H        -8.7851463391        7.6691243850       23.4034762652
  H        -8.7383995166        8.2890894543       25.0765521201
  H        -3.2873508620        9.8585600982        7.5975301420
  H         3.2079600526        0.3878232815        6.4530469662
  H        -3.1474787905        0.7197428824        8.1985337874
  H         1.3316095484        9.9095382097        8.6089339712
  H         1.2297113237        0.5158038320        9.6516827295
  H         1.2655932837        0.7223025516        7.8819749759
  C        -3.8567339887        7.9029564191       16.0924899030
  C        -6.2864905729       10.4050126147       18.2436183132
  C        -3.8945776189        2.1957363994       16.7868600420
  C        -3.2260738853       10.8955493948       13.8336441724
  C       -13.7312624222        7.7787486180       31.3088427137
  C       -11.3887363100       10.3142175715       29.5957680351
  C       -13.6470134859        1.9997187452       31.3248734010
  C         1.2333717207       10.6777121427        2.2105831727
  C       -10.7226339460       10.3681345280       28.2638611139
  C        -9.4575122606        0.2121304330       28.0379854310
  C        -8.9542014668        0.3361220762       26.7413750198
  C        -9.6467738632       -0.1976951797       25.6407130126
  C       -10.9009413113        9.9338022246       25.8783542431
  C       -11.4233440261        9.8300446781       27.1652238428
  C        -9.1447781684        0.0133637260       24.2471192699
  C        -8.5866526814        9.8174087845       23.5348025547
  C        -6.7883742582       -0.1136115435       21.9568894053
  C        -8.0627086369       10.0409630283       22.1509827569
  C        -8.7444027420        9.5490374484       21.0240935823
  C        -8.2150532569        9.7014592311       19.7410029890
  C        -6.9650048504       10.3138105071       19.5606423099
  C        -6.2360951006        0.0123524370       20.6854243170
  C         0.6692406010       -0.0684785624        3.5759954410
  C         1.1822430757       10.0019611863        4.6472904737
  C         0.5338186488        9.9874120798        5.8811135215
  C        -0.6090665602       -0.0593326351        6.1210031926
  C        -1.1377534893        0.6608948028        5.0249466633
  C        -0.5281814088        0.6369265306        3.7768545322
  C        -1.2878017126       -0.0307549554        7.4457482258
  C        -0.6103499419        0.0082952364        8.6326946409
  C        -0.8923635579        0.9380988941       10.9589821166
  C        -1.3135279101        0.0479139975        9.9457768881
  C        -2.4326892084        9.9896910723       10.2467930884
  C        -3.1000386665       10.0503148261       11.4675378643
  C        -2.6231708466        0.1437147627       12.4623781434
  C        -1.5192974048        0.9714943455       12.1978366988
  C        -3.8775692929        6.4693528340       16.6128072783
  C        -4.9215508503        5.8451833377       17.3737223027
  C        -2.8262771902        5.7180649395       16.1048233591
  C        -5.9426170735        6.5371876581       18.0914820908
  C        -6.9039544927        5.8357374379       18.7884539165
  C        -3.8449850043        3.6796219861       16.8530583801
  C        -2.7837842890        4.3228873251       16.2507396220
  C        -4.9208348229        4.4053474671       17.4337529429
  C        -5.9686914128        3.7236865830       18.1070137492
  C        -6.9395419277        4.4285244799       18.7650443773
  C       -13.7040978050        6.2904214263       31.2039269032
  C       -12.6102303003        5.6212925070       30.5686071572
  C       -14.7282345675        5.5795455333       31.8047189530
  C       -11.5772762228        6.3187624766       29.8780295211
  C       -10.6140313067        5.6150483677       29.1990828172
  C       -13.6548539335        3.4888517826       31.2323816279
  C       -14.7049475816        4.1735033924       31.8186997400
  C       -12.5896668929        4.1819196698       30.5816710178
  C       -11.5482546695        3.4956558206       29.8938952400
  C       -10.6048728960        4.2099755292       29.2019873000
  C        -9.3916398328        1.4024329770       23.7124076849
  C        -8.3383508595        8.4274597482       24.0652567335
  C        -2.7784395859        0.0485379965        7.4166997085
  C         0.8760481529        0.1056312462        8.6987702254
  O        -3.0509686911        8.7236710544       16.7014952861
  O        -5.3853269403        8.4461091133       15.9704810443
  O        -6.9623372617       10.5281257835       17.1090742865
  O        -5.0041159616       -0.4139966548       18.1674171168
  O        -4.8626983772        1.7182309754       16.1063774700
  O        -2.9643173064        1.5461697732       17.3631141768
  O        -2.3872325467        0.4466119902       14.7696763187
  O        -4.4286042407       10.4926834313       14.0218815024
  O       -14.7927531051        8.3791350187       30.9236406306
  O       -12.6939423573        8.3110143756       31.8103647557
  O       -10.7047906474       10.3318307537       30.7332997669
  O       -12.6342499339       10.2566939730       29.6597154250
  O       -12.6337543335        1.4651355759       31.8735255847
  O       -14.6720832788        1.3957722699       30.8615275771
  O         0.4068997111       -0.0106059858        1.2616243293
  O         2.4923586536       10.5413825995        2.0625806295
  F        -7.8736520507        6.4722166726       19.4909015824
  F        -7.9594701850        3.7759599762       19.3653828007
  F        -9.6119915362        6.2338298665       28.5360276911
  F        -9.6011817214        3.5987282792       28.5356286639
  O        -5.4076094812        7.9492886705       14.5620383645
  C        -4.0405284556        7.7419732860       14.5398095517
  O        -3.4081251367        7.4347534031       13.5692290295
     123
 i =      223, E =      -996.1996839829
 Zn        -2.5154942450       10.5798776964       16.6313721298
 Zn        -5.2855161210       10.5884407337       15.8506744449
 Zn       -15.1504293597       10.2848330332       31.2313975690
 Zn         3.1791601090       10.6002809649        0.1204011168
  H        -8.9074354667        0.6758793166       28.8550587776
  H        -8.0148697531        0.8691437751       26.5876995962
  H       -11.4516736239        9.5101808108       25.0360499708
  H       -12.3758512138        9.3295255731       27.3378386638
  H        -6.2462630661        0.2710059052       22.8227912089
  H        -9.6926602445        9.0222188951       21.1463037096
  H        -8.7591736760        9.2696247128       18.8990124364
  H        -5.2701634358        0.4960527057       20.5451067894
  H         2.0925193739        9.4180319629        4.4932293904
  H         0.9408754863        9.3590314758        6.6709281510
  H        -2.0355550708        1.2611574893        5.1466767166
  H        -0.9760331266        1.1735825238        2.9431523773
  H        -0.0632043068        1.6174491786       10.7722280610
  H        -2.7459288571        9.2418563435        9.5190089336
  H        -3.9234813581        9.3691208207       11.6842640848
  H        -1.1567459305        1.6410075250       12.9754930173
  H        -5.9642551310        7.6222019902       18.1235101813
  H        -6.0189435936        2.6371986885       18.1140813044
  H        -1.9618287548        3.7476428627       15.8256587423
  H        -2.0487768836        6.2127721596       15.5216936123
  H       -11.5376476829        7.4049831075       29.8759749371
  H       -11.4895066023        2.4101650950       29.9021060355
  H         0.0645843924        3.9429462555        0.3625709256
  H         0.0249554439        6.4440771400        0.3408812474
  H        -8.9950622884        1.5348613672       22.6997209220
  H        -8.9308997903        2.1591174348       24.3700708832
  H       -10.4672110944        1.6188014524       23.7009322483
  H        -7.2595340864        8.2083318487       24.0844684852
  H        -8.7891392465        7.6667097824       23.4002998284
  H        -8.7401474605        8.2837027688       25.0743149455
  H        -3.2857983819        9.8542049080        7.5975372189
  H         3.2085343308        0.3833305050        6.4526958091
  H        -3.1471690428        0.7154191574        8.1979244020
  H         1.3313433894        9.9039884751        8.6071475516
  H         1.2304443074        0.5074335293        9.6534450256
  H         1.2667108804        0.7183745082        7.8839706117
  C        -3.8571565581        7.9035092929       16.0925203020
  C        -6.2865140860       10.4048314001       18.2435752030
  C        -3.8945381668        2.1960432931       16.7861344639
  C        -3.2256262560       10.8953971288       13.8338202951
  C       -13.7312631022        7.7788186313       31.3086652970
  C       -11.3886285403       10.3139851871       29.5958086462
  C       -13.6470707453        1.9997043851       31.3248420087
  C         1.2338963612       10.6770431697        2.2105024849
  C       -10.7221618522       10.3668344404       28.2641427462
  C        -9.4575483663        0.2119605136       28.0386242488
  C        -8.9533743253        0.3348597451       26.7422784111
  C        -9.6446475712       -0.2008202282       25.6415841841
  C       -10.8981857178        9.9295061913       25.8790697720
  C       -11.4214751470        9.8266133968       27.1657139317
  C        -9.1423027274        0.0104939566       24.2481288837
  C        -8.5865978970        9.8139772654       23.5341298734
  C        -6.7893318796       -0.1130645737       21.9566308502
  C        -8.0621857657       10.0384504676       22.1505961935
  C        -8.7428899361        9.5447201229       21.0239296127
  C        -8.2140199046        9.6984289036       19.7407781260
  C        -6.9651394474       10.3130822151       19.5604227666
  C        -6.2374164648        0.0135037150       20.6850903659
  C         0.6698530574       -0.0700185198        3.5759029361
  C         1.1833863886       10.0002785435        4.6469179395
  C         0.5348332195        9.9848703061        5.8806492555
  C        -0.6077410374       -0.0615421389        6.1212433812
  C        -1.1365746423        0.6593172261        5.0255584308
  C        -0.5268226755        0.6361184533        3.7775320777
  C        -1.2869489582       -0.0343614742        7.4458217059
  C        -0.6099671909        0.0041637921        8.6330089648
  C        -0.8913367894        0.9344870214       10.9587081066
  C        -1.3133806324        0.0441750439        9.9459502397
  C        -2.4329682167        9.9867487171       10.2476432720
  C        -3.0998957034       10.0484646505       11.4686020789
  C        -2.6224707026        0.1423359976       12.4626913727
  C        -1.5177398356        0.9689691811       12.1977115156
  C        -3.8778891376        6.4697573944       16.6123343233
  C        -4.9220119925        5.8452704699       17.3729222760
  C        -2.8267280084        5.7186900902       16.1040934547
  C        -5.9430539193        6.5371822049       18.0905592963
  C        -6.9041448152        5.8355223822       18.7875698318
  C        -3.8451745535        3.6799371649       16.8518006955
  C        -2.7843069097        4.3233939758       16.2490402776
  C        -4.9214804658        4.4053932414       17.4321850996
  C        -5.9693199977        3.7235042425       18.1052577997
  C        -6.9397946920        4.4282888765       18.7639967562
  C       -13.7042586177        6.2905102656       31.2038887240
  C       -12.6102614546        5.6212091692       30.5691220158
  C       -14.7285527980        5.5796294676       31.8044119700
  C       -11.5774888782        6.3186964591       29.8781195203
  C       -10.6141249615        5.6150365670       29.1993167907
  C       -13.6550501507        3.4888557474       31.2325390195
  C       -14.7052489501        4.1735883169       31.8186850204
  C       -12.5897937531        4.1818396442       30.5817204249
  C       -11.5477123621        3.4957362334       29.8947730820
  C       -10.6046684234        4.2099266456       29.2020406273
  C        -9.3866760314        1.4007064024       23.7149366189
  C        -8.3406040526        8.4230597588       24.0630046443
  C        -2.7775156763        0.0444275979        7.4161703241
  C         0.8765427200        0.1001267133        8.6992479834
  O        -3.0511665989        8.7241786733       16.7013194606
  O        -5.3850186755        8.4462667804       15.9700366437
  O        -6.9621736898       10.5281581962       17.1088611444
  O        -5.0041547293       -0.4142645034       18.1676627373
  O        -4.8626330369        1.7181179059       16.1058980726
  O        -2.9645336940        1.5466346485       17.3630972885
  O        -2.3870785372        0.4462882003       14.7699501744
  O        -4.4284232345       10.4927132032       14.0218070427
  O       -14.7927931128        8.3792193112       30.9235983613
  O       -12.6939965909        8.3109126754       31.8104097832
  O       -10.7047751343       10.3318480438       30.7334203879
  O       -12.6341423702       10.2564779797       29.6595794851
  O       -12.6337982770        1.4652324659       31.8736309032
  O       -14.6722742435        1.3958120153       30.8616629888
  O         0.4071973131       -0.0104929649        1.2617959448
  O         2.4928428784       10.5412404659        2.0621940749
  F        -7.8734184761        6.4720316041       19.4907212656
  F        -7.9593794778        3.7761395933       19.3652990463
  F        -9.6120970112        6.2339446231       28.5361422295
  F        -9.6010880164        3.5987148568       28.5355963090
  O        -5.4075130049        7.9492913791       14.5616694637
  C        -4.0401362387        7.7421264995       14.5398428583
  O        -3.4078685689        7.4348513221       13.5693430218
     123
 i =      224, E =      -996.1996873093
 Zn        -2.5154345606       10.5797222594       16.6315428584
 Zn        -5.2853456086       10.5883634323       15.8505389992
 Zn       -15.1504769892       10.2848553296       31.2313599515
 Zn         3.1792284337       10.6002844239        0.1203933661
  H        -8.9072873062        0.6754091249       28.8550389632
  H        -8.0146490143        0.8687542009       26.5876724842
  H       -11.4521822520        9.5108598147       25.0358161946
  H       -12.3761894580        9.3300771989       27.3376537855
  H        -6.2456391519        0.2703027079       22.8230339105
  H        -9.6931790732        9.0238157052       21.1465261286
  H        -8.7600303013        9.2714643671       18.8991506347
  H        -5.2698557296        0.4960147385       20.5453130878
  H         2.0924704394        9.4170230256        4.4935303657
  H         0.9406189948        9.3587595604        6.6712489589
  H        -2.0348017568        1.2616528281        5.1463488225
  H        -0.9750969763        1.1733885446        2.9428881744
  H        -0.0632232231        1.6172408799       10.7724377730
  H        -2.7461747798        9.2419145482        9.5186409881
  H        -3.9232924469        9.3686376510       11.6841318774
  H        -1.1566097428        1.6403389679       12.9756152099
  H        -5.9651030657        7.6223657807       18.1221996320
  H        -6.0201226153        2.6373091149       18.1117610363
  H        -1.9627946219        3.7475342556       15.8242457903
  H        -2.0494655903        6.2131474679       15.5207814435
  H       -11.5379202167        7.4052730397       29.8758661201
  H       -11.4889495757        2.4103618304       29.9028148930
  H         0.0646027761        3.9429272485        0.3626019164
  H         0.0245942853        6.4439984737        0.3407776115
  H        -8.9952382331        1.5344471502       22.6995864499
  H        -8.9309388304        2.1590599320       24.3698369450
  H       -10.4674115315        1.6183595111       23.7010760989
  H        -7.2590279331        8.2090718219       24.0842353816
  H        -8.7888348046        7.6668261253       23.4005236968
  H        -8.7394656060        8.2841197823       25.0745185867
  H        -3.2859023132        9.8542713226        7.5960000440
  H         3.2088806303        0.3837698684        6.4520781702
  H        -3.1475424878        0.7151708892        8.1977705668
  H         1.3314701640        9.9048835962        8.6077558394
  H         1.2299521337        0.5091239067        9.6529829029
  H         1.2663423473        0.7188052996        7.8837027016
  C        -3.8573103419        7.9037067579       16.0921756820
  C        -6.2865752400       10.4052072861       18.2437328071
  C        -3.8947428734        2.1959897080       16.7858261509
  C        -3.2254675115       10.8947518204       13.8337554914
  C       -13.7313422646        7.7787982037       31.3086669155
  C       -11.3887955772       10.3140005169       29.5957524143
  C       -13.6471250375        1.9997943508       31.3249141516
  C         1.2339862563       10.6766224522        2.2104036748
  C       -10.7222080944       10.3669613175       28.2641710012
  C        -9.4574867775        0.2118396649       28.0384148304
  C        -8.9532507917        0.3345433582       26.7421031162
  C        -9.6448666183       -0.2009140563       25.6415566408
  C       -10.8986422894        9.9298589242       25.8789852947
  C       -11.4217930330        9.8272125566       27.1657142275
  C        -9.1422534605        0.0106022444       24.2483005571
  C        -8.5862674493        9.8142823013       23.5344946781
  C        -6.7889242133       -0.1134430663       21.9568448966
  C        -8.0620838352       10.0388026194       22.1509174298
  C        -8.7431448205        9.5459015406       21.0241464672
  C        -8.2144777989        9.6996263584       19.7409675923
  C        -6.9652669726       10.3137202489       19.5605365124
  C        -6.2372087647        0.0135208418       20.6852307386
  C         0.6702310844       -0.0707192108        3.5759038649
  C         1.1833664668        9.9994097381        4.6469389737
  C         0.5347291385        9.9843455993        5.8806376068
  C        -0.6074554693       -0.0615137411        6.1211558913
  C        -1.1361222185        0.6592971742        5.0253414048
  C        -0.5264138248        0.6356298584        3.7773373616
  C        -1.2871513513       -0.0341223358        7.4454219490
  C        -0.6102770108        0.0043970669        8.6326697180
  C        -0.8912819926        0.9341991575       10.9586636274
  C        -1.3135502973        0.0442006569        9.9457368188
  C        -2.4330555022        9.9866276230       10.2474109036
  C        -3.0997905666       10.0481127180       11.4685042645
  C        -2.6222293731        0.1417071201       12.4627963250
  C        -1.5178891710        0.9687461653       12.1976027312
  C        -3.8784863228        6.4697138039       16.6114892228
  C        -4.9226756935        5.8453648553       17.3717127029
  C        -2.8274428887        5.7186608184       16.1028975850
  C        -5.9435802870        6.5373092687       18.0896493300
  C        -6.9043314376        5.8356518971       18.7870710562
  C        -3.8458981855        3.6799834966       16.8506729861
  C        -2.7850963379        4.3234280180       16.2476878500
  C        -4.9222597463        4.4053966286       17.4310002772
  C        -5.9703670707        3.7235961646       18.1037433501
  C        -6.9402318527        4.4283656678       18.7633968879
  C       -13.7044398211        6.2905148172       31.2039665202
  C       -12.6102773073        5.6214283882       30.5691854305
  C       -14.7286707139        5.5796465337       31.8046310000
  C       -11.5776085335        6.3189743350       29.8781052475
  C       -10.6141305854        5.6152288361       29.1995464789
  C       -13.6548923288        3.4889815074       31.2327381182
  C       -14.7053536007        4.1735793895       31.8184624987
  C       -12.5895391661        4.1820792474       30.5821323833
  C       -11.5476001547        3.4958771046       29.8950844176
  C       -10.6046639385        4.2101761170       29.2023270543
  C        -9.3868628185        1.4005484201       23.7148834802
  C        -8.3401853751        8.4232652649       24.0630294450
  C        -2.7777225780        0.0445256369        7.4158170678
  C         0.8761932722        0.1009265635        8.6992718851
  O        -3.0510706830        8.7239072277       16.7015411758
  O        -5.3850949470        8.4460120692       15.9699265950
  O        -6.9622927774       10.5280868661       17.1089806782
  O        -5.0042134179       -0.4141817329       18.1676128295
  O        -4.8628954604        1.7177776981       16.1059207188
  O        -2.9647684972        1.5466388979       17.3630461285
  O        -2.3870117877        0.4464740592       14.7698781274
  O        -4.4284456389       10.4925722392       14.0217323730
  O       -14.7928130646        8.3792498461       30.9236249845
  O       -12.6940994976        8.3110002123       31.8103616110
  O       -10.7048842425       10.3318319412       30.7333324825
  O       -12.6343222104       10.2564824024       29.6596652791
  O       -12.6338100718        1.4652357596       31.8735277321
  O       -14.6722372487        1.3958293505       30.8616090229
  O         0.4071649339       -0.0106066069        1.2617900620
  O         2.4929704850       10.5412029157        2.0622501533
  F        -7.8732152573        6.4721051575       19.4907920820
  F        -7.9594320197        3.7760799482       19.3653272463
  F        -9.6121463645        6.2339252627       28.5361434917
  F        -9.6013608258        3.5988934821       28.5356040145
  O        -5.4076867396        7.9489756553       14.5615510652
  C        -4.0401198213        7.7424237760       14.5395388815
  O        -3.4077554190        7.4351676980       13.5690850646
     123
 i =      225, E =      -996.1996895053
 Zn        -2.5155527730       10.5795117083       16.6323193120
 Zn        -5.2849082166       10.5884234913       15.8499169727
 Zn       -15.1504919625       10.2849025646       31.2312948001
 Zn         3.1794482646       10.6002245721        0.1202397790
  H        -8.9080504166        0.6762008671       28.8552850158
  H        -8.0140471384        0.8679639685       26.5882211239
  H       -11.4487003125        9.5054548526       25.0362692240
  H       -12.3738679220        9.3259930787       27.3377814742
  H        -6.2473448873        0.2716920206       22.8228940183
  H        -9.6908298205        9.0187108380       21.1467076424
  H        -8.7584345991        9.2683379422       18.8990194449
  H        -5.2717332199        0.4991215812       20.5451874262
  H         2.0932284529        9.4141074756        4.4927158847
  H         0.9413798632        9.3550690170        6.6704797395
  H        -2.0326944018        1.2606663176        5.1474755795
  H        -0.9730961291        1.1730933346        2.9437121572
  H        -0.0611518348        1.6121876563       10.7721382010
  H        -2.7473992227        9.2389426734        9.5193290489
  H        -3.9237430697        9.3673170755       11.6849860375
  H        -1.1545499906        1.6372974483       12.9750810995
  H        -5.9661436682        7.6225535440       18.1199365618
  H        -6.0219094702        2.6374104987       18.1081751573
  H        -1.9645111722        3.7472607574       15.8217912606
  H        -2.0506212868        6.2139854324       15.5195509104
  H       -11.5385960112        7.4057269536       29.8755029703
  H       -11.4880202681        2.4107189963       29.9038288076
  H         0.0644336664        3.9428581340        0.3623056855
  H         0.0238367503        6.4438159436        0.3403198028
  H        -8.9907148860        1.5318712856       22.7018538554
  H        -8.9232021181        2.1553826007       24.3724809464
  H       -10.4618890858        1.6179529604       23.7052456637
  H        -7.2613230810        8.2032777044       24.0803816652
  H        -8.7930788487        7.6641257519       23.3972462982
  H        -8.7411411482        8.2794973719       25.0721527173
  H        -3.2847294457        9.8498718190        7.5944869032
  H         3.2102146276        0.3793412292        6.4508466872
  H        -3.1476129186        0.7106362145        8.1970778870
  H         1.3313943665        9.8994487834        8.6063146898
  H         1.2304680617        0.5019578549        9.6541586286
  H         1.2673357168        0.7149878282        7.8857248228
  C        -3.8574942518        7.9038284981       16.0914906541
  C        -6.2866122557       10.4055458703       18.2437094773
  C        -3.8951008113        2.1957532031       16.7853675880
  C        -3.2247494686       10.8937324425       13.8337267782
  C       -13.7315004227        7.7787647012       31.3084898439
  C       -11.3888082293       10.3132110048       29.5956774986
  C       -13.6470705949        1.9999427404       31.3246652405
  C         1.2342966392       10.6759189665        2.2102093313
  C       -10.7215156067       10.3658691037       28.2644869173
  C        -9.4570641931        0.2111284953       28.0384955482
  C        -8.9521432850        0.3327054927       26.7424312160
  C        -9.6430239706       -0.2039026382       25.6421796608
  C       -10.8961068305        9.9253303432       25.8796161791
  C       -11.4199418795        9.8241167237       27.1662302600
  C        -9.1393915841        0.0075715926       24.2494581221
  C        -8.5856881180        9.8111149937       23.5342819762
  C        -6.7897248405       -0.1135728970       21.9567362837
  C        -8.0618696553       10.0369584960       22.1509383341
  C        -8.7417530281        9.5424608675       21.0240952876
  C        -8.2136260001        9.6972850557       19.7408983216
  C        -6.9653777898       10.3136433922       19.5604199929
  C        -6.2381940113        0.0147166039       20.6850943926
  C         0.6712140569       -0.0727520715        3.5759538710
  C         1.1840543588        9.9964449096        4.6463852645
  C         0.5354449278        9.9810179456        5.8801025617
  C        -0.6063047152       -0.0644214070        6.1211437905
  C        -1.1342739646        0.6577374816        5.0259602380
  C        -0.5250069067        0.6342244267        3.7778067791
  C        -1.2865320850       -0.0379163363        7.4451193862
  C        -0.6098792077       -0.0001739701        8.6325353283
  C        -0.8898651651        0.9300570397       10.9584660287
  C        -1.3129456650        0.0401425378        9.9457977583
  C        -2.4334543555        9.9838593677       10.2476194694
  C        -3.0996305146       10.0459549470       11.4689647282
  C        -2.6213144764        0.1393987417       12.4630794476
  C        -1.5166016761        0.9657044179       12.1973235254
  C        -3.8795310607        6.4694286065       16.6100949744
  C        -4.9237632425        5.8454718720       17.3697436651
  C        -2.8286559819        5.7184362029       16.1007762918
  C        -5.9446057685        6.5373315032       18.0881936470
  C        -6.9047679606        5.8358454794       18.7865774211
  C        -3.8471838108        3.6799074536       16.8487601188
  C        -2.7864264708        4.3233489768       16.2454932128
  C        -4.9234721633        4.4053290426       17.4290889371
  C        -5.9719675527        3.7236849077       18.1014705896
  C        -6.9409461279        4.4284038427       18.7624786343
  C       -13.7047183435        6.2905096193       31.2040077609
  C       -12.6104086636        5.6217192144       30.5689610159
  C       -14.7290340392        5.5797224172       31.8045895631
  C       -11.5778249544        6.3193790955       29.8779564766
  C       -10.6141404194        5.6155598342       29.1996618632
  C       -13.6547965189        3.4891934729       31.2329247687
  C       -14.7057229969        4.1735852674       31.8178397020
  C       -12.5892225172        4.1824153206       30.5826730462
  C       -11.5475250637        3.4961201473       29.8954109033
  C       -10.6045937522        4.2106124132       29.2028804561
  C        -9.3816930603        1.3982663573       23.7175235244
  C        -8.3422634123        8.4188232743       24.0604066440
  C        -2.7770921138        0.0403794255        7.4151667489
  C         0.8765958786        0.0956805874        8.7000284449
  O        -3.0509460358        8.7233136487       16.7017731862
  O        -5.3856067573        8.4455716952       15.9698448877
  O        -6.9626178983       10.5278817458       17.1089941785
  O        -5.0042577925       -0.4137519448       18.1672958613
  O        -4.8633620446        1.7173063474       16.1057499376
  O        -2.9649243995        1.5468140166       17.3628078437
  O        -2.3866170814        0.4468610081       14.7698906177
  O        -4.4281067988       10.4924783913       14.0215112857
  O       -14.7928867583        8.3793090457       30.9235831101
  O       -12.6942949007        8.3110238060       31.8102493357
  O       -10.7050357659       10.3319235698       30.7333349483
  O       -12.6344075230       10.2566364889       29.6595375695
  O       -12.6339432803        1.4652253755       31.8734085745
  O       -14.6722025602        1.3958307737       30.8616019531
  O         0.4071620460       -0.0108565008        1.2618454073
  O         2.4933223775       10.5411761644        2.0621684980
  F        -7.8733199522        6.4722575708       19.4909817694
  F        -7.9596331048        3.7757896476       19.3652188558
  F        -9.6121311970        6.2339057634       28.5359980054
  F        -9.6017202473        3.5991327934       28.5357821939
  O        -5.4078237716        7.9485498786       14.5613715245
  C        -4.0405944887        7.7428833694       14.5392193504
  O        -3.4077230668        7.4359533151       13.5688238193
     123
 i =      226, E =      -996.1996915833
 Zn        -2.5155657954       10.5796174686       16.6322878844
 Zn        -5.2851059876       10.5885514569       15.8498431016
 Zn       -15.1503997651       10.2849664470       31.2313415565
 Zn         3.1793651732       10.6002376108        0.1201541386
  H        -8.9075602552        0.6756843406       28.8551565595
  H        -8.0140371923        0.8677396026       26.5879475885
  H       -11.4495096125        9.5066725443       25.0360367442
  H       -12.3743779165        9.3268199404       27.3376997332
  H        -6.2466106847        0.2703809140       22.8232333691
  H        -9.6914262593        9.0198772389       21.1466379633
  H        -8.7589775091        9.2694862342       18.8990389356
  H        -5.2711471370        0.4981363732       20.5454323612
  H         2.0931396053        9.4144947225        4.4927251395
  H         0.9413518332        9.3553590618        6.6705511299
  H        -2.0331409229        1.2605572447        5.1474689080
  H        -0.9734774547        1.1732006095        2.9437348877
  H        -0.0615351478        1.6128815579       10.7722117821
  H        -2.7466318270        9.2390108765        9.5190800133
  H        -3.9236710282        9.3672083368       11.6844526710
  H        -1.1552194226        1.6378085061       12.9750478617
  H        -5.9661922565        7.6226552125       18.1199079680
  H        -6.0220594638        2.6374691166       18.1088818717
  H        -1.9644523729        3.7469395273       15.8223729529
  H        -2.0506895638        6.2133578985       15.5193883330
  H       -11.5385369661        7.4057102522       29.8755400670
  H       -11.4881968082        2.4108502017       29.9036703631
  H         0.0646001718        3.9427707660        0.3624046531
  H         0.0239245242        6.4437204748        0.3402808336
  H        -8.9911254018        1.5319525317       22.7015420738
  H        -8.9240779241        2.1556364004       24.3722368402
  H       -10.4625244495        1.6178238033       23.7047522539
  H        -7.2610582677        8.2038499708       24.0808753714
  H        -8.7926378538        7.6645162238       23.3977473007
  H        -8.7410810198        8.2802102184       25.0724154561
  H        -3.2850105142        9.8502053171        7.5946801535
  H         3.2101781977        0.3801167499        6.4510402599
  H        -3.1475147518        0.7109753641        8.1969730348
  H         1.3316584308        9.9003084703        8.6069725913
  H         1.2303748384        0.5032034973        9.6539333222
  H         1.2673288979        0.7153794582        7.8850184044
  C        -3.8574634401        7.9038271310       16.0915075958
  C        -6.2867200548       10.4053690018       18.2436722874
  C        -3.8950692549        2.1957026370       16.7854069206
  C        -3.2248925361       10.8939419699       13.8336336810
  C       -13.7317108604        7.7788623108       31.3089332220
  C       -11.3887284293       10.3137269302       29.5957034638
  C       -13.6472255941        1.9999289637       31.3251946483
  C         1.2342296325       10.6757673749        2.2103051393
  C       -10.7216045297       10.3657072015       28.2643451839
  C        -9.4569937802        0.2107686001       28.0385513763
  C        -8.9523027887        0.3330446099       26.7424475224
  C        -9.6431048007       -0.2038799694       25.6421560106
  C       -10.8966632252        9.9263623310       25.8793792044
  C       -11.4203263901        9.8246017940       27.1659750613
  C        -9.1399465634        0.0077601002       24.2493064858
  C        -8.5858841653        9.8115223806       23.5341857249
  C        -6.7894974847       -0.1136755762       21.9569376234
  C        -8.0617141978       10.0366962179       22.1508769505
  C        -8.7423243005        9.5436209389       21.0240060245
  C        -8.2137814070        9.6978983251       19.7409100945
  C        -6.9653066242       10.3138774395       19.5605561784
  C        -6.2377613553        0.0141895132       20.6853363246
  C         0.6708857103       -0.0726067346        3.5759297648
  C         1.1838254899        9.9966501728        4.6463803376
  C         0.5352095108        9.9811194629        5.8801163476
  C        -0.6064036994       -0.0642198054        6.1211864544
  C        -1.1347587391        0.6576078859        5.0259071551
  C        -0.5252830911        0.6343891589        3.7778646906
  C        -1.2864045525       -0.0380834996        7.4452875872
  C        -0.6096589399        0.0006059139        8.6326195608
  C        -0.8899949138        0.9303962379       10.9584856395
  C        -1.3129102801        0.0405698311        9.9457056475
  C        -2.4331946639        9.9840099376       10.2475350561
  C        -3.0997272967       10.0461009048       11.4686801544
  C        -2.6214177574        0.1394535673       12.4629080634
  C        -1.5167382154        0.9658164186       12.1973459878
  C        -3.8793794165        6.4693725718       16.6102256013
  C        -4.9236533223        5.8455102838       17.3699224716
  C        -2.8287188165        5.7181220349       16.1007419010
  C        -5.9445016274        6.5374175887       18.0883670779
  C        -6.9046652237        5.8358188518       18.7865746003
  C        -3.8471483630        3.6797938350       16.8493682606
  C        -2.7863717872        4.3230782930       16.2459927177
  C        -4.9233735359        4.4054040628       17.4294188744
  C        -5.9717665701        3.7237090650       18.1019258633
  C        -6.9407611298        4.4284474279       18.7627191492
  C       -13.7047770941        6.2906470274       31.2038314191
  C       -12.6103286400        5.6217072426       30.5691408058
  C       -14.7288971408        5.5796921464       31.8045711129
  C       -11.5778456328        6.3193344736       29.8779720134
  C       -10.6142214647        5.6155305420       29.1994565608
  C       -13.6548378686        3.4891234465       31.2327633882
  C       -14.7055282350        4.1735493898       31.8181070109
  C       -12.5893427924        4.1823934088       30.5824404087
  C       -11.5474506033        3.4962664038       29.8953661171
  C       -10.6044886640        4.2105506485       29.2026693970
  C        -9.3821870229        1.3983530445       23.7171447061
  C        -8.3421062539        8.4195835013       24.0607300091
  C        -2.7769653658        0.0408095425        7.4150312124
  C         0.8768415204        0.0964636639        8.6996918244
  O        -3.0509011758        8.7233678345       16.7016562108
  O        -5.3855035865        8.4456357058       15.9701566223
  O        -6.9626008339       10.5280565222       17.1089389029
  O        -5.0043278739       -0.4137182551       18.1674846594
  O        -4.8633495993        1.7173943601       16.1057937615
  O        -2.9648720719        1.5467916742       17.3629077248
  O        -2.3867978565        0.4465520321       14.7698269160
  O        -4.4281980963       10.4926253047       14.0214480169
  O       -14.7929314119        8.3793545789       30.9234736814
  O       -12.6941851063        8.3110550637       31.8101492845
  O       -10.7049341544       10.3317561412       30.7333688291
  O       -12.6342881237       10.2564720341       29.6594454591
  O       -12.6337252365        1.4652438225       31.8732516002
  O       -14.6720874599        1.3958709626       30.8613881364
  O         0.4072320013       -0.0107149145        1.2618694469
  O         2.4932723658       10.5412753460        2.0620759444
  F        -7.8733777640        6.4721390079       19.4906891189
  F        -7.9595294116        3.7760557427       19.3654049850
  F        -9.6120981242        6.2338944451       28.5360470321
  F        -9.6013577030        3.5990654223       28.5357163013
  O        -5.4078581649        7.9487193893       14.5614889427
  C        -4.0405618010        7.7429626432       14.5391115771
  O        -3.4077441176        7.4357191670       13.5689255405
     123
 i =      227, E =      -996.1996911532
 Zn        -2.5155657954       10.5796174686       16.6322878844
 Zn        -5.2851059876       10.5885514569       15.8498431016
 Zn       -15.1503997651       10.2849664470       31.2313415565
 Zn         3.1793651732       10.6002376108        0.1201541386
  H        -8.9075602552        0.6756843406       28.8551565595
  H        -8.0140371923        0.8677396026       26.5879475885
  H       -11.4495096125        9.5066725443       25.0360367442
  H       -12.3743779165        9.3268199404       27.3376997332
  H        -6.2466106847        0.2703809140       22.8232333691
  H        -9.6914262593        9.0198772389       21.1466379633
  H        -8.7589775091        9.2694862342       18.8990389356
  H        -5.2711471370        0.4981363732       20.5454323612
  H         2.0931396053        9.4144947225        4.4927251395
  H         0.9413518332        9.3553590618        6.6705511299
  H        -2.0331409229        1.2605572447        5.1474689080
  H        -0.9734774547        1.1732006095        2.9437348877
  H        -0.0615351478        1.6128815579       10.7722117821
  H        -2.7466318270        9.2390108765        9.5190800133
  H        -3.9236710282        9.3672083368       11.6844526710
  H        -1.1552194226        1.6378085061       12.9750478617
  H        -5.9661922565        7.6226552125       18.1199079680
  H        -6.0220594638        2.6374691166       18.1088818717
  H        -1.9644523729        3.7469395273       15.8223729529
  H        -2.0506895638        6.2133578985       15.5193883330
  H       -11.5385369661        7.4057102522       29.8755400670
  H       -11.4881968082        2.4108502017       29.9036703631
  H         0.0646001718        3.9427707660        0.3624046531
  H         0.0239245242        6.4437204748        0.3402808336
  H        -8.9911254018        1.5319525317       22.7015420738
  H        -8.9240779241        2.1556364004       24.3722368402
  H       -10.4625244495        1.6178238033       23.7047522539
  H        -7.2610582677        8.2038499708       24.0808753714
  H        -8.7926378538        7.6645162238       23.3977473007
  H        -8.7410810198        8.2802102184       25.0724154561
  H        -3.2850105142        9.8502053171        7.5946801535
  H         3.2101781977        0.3801167499        6.4510402599
  H        -3.1475147518        0.7109753641        8.1969730348
  H         1.3316584308        9.9003084703        8.6069725913
  H         1.2303748384        0.5032034973        9.6539333222
  H         1.2673288979        0.7153794582        7.8850184044
  C        -3.8574634401        7.9038271310       16.0915075958
  C        -6.2867200548       10.4053690018       18.2436722874
  C        -3.8950692549        2.1957026370       16.7854069206
  C        -3.2248925361       10.8939419699       13.8336336810
  C       -13.7317108604        7.7788623108       31.3089332220
  C       -11.3887284293       10.3137269302       29.5957034638
  C       -13.6472255941        1.9999289637       31.3251946483
  C         1.2342296325       10.6757673749        2.2103051393
  C       -10.7216045297       10.3657072015       28.2643451839
  C        -9.4569937802        0.2107686001       28.0385513763
  C        -8.9523027887        0.3330446099       26.7424475224
  C        -9.6431048007       -0.2038799694       25.6421560106
  C       -10.8966632252        9.9263623310       25.8793792044
  C       -11.4203263901        9.8246017940       27.1659750613
  C        -9.1399465634        0.0077601002       24.2493064858
  C        -8.5858841653        9.8115223806       23.5341857249
  C        -6.7894974847       -0.1136755762       21.9569376234
  C        -8.0617141978       10.0366962179       22.1508769505
  C        -8.7423243005        9.5436209389       21.0240060245
  C        -8.2137814070        9.6978983251       19.7409100945
  C        -6.9653066242       10.3138774395       19.5605561784
  C        -6.2377613553        0.0141895132       20.6853363246
  C         0.6708857103       -0.0726067346        3.5759297648
  C         1.1838254899        9.9966501728        4.6463803376
  C         0.5352095108        9.9811194629        5.8801163476
  C        -0.6064036994       -0.0642198054        6.1211864544
  C        -1.1347587391        0.6576078859        5.0259071551
  C        -0.5252830911        0.6343891589        3.7778646906
  C        -1.2864045525       -0.0380834996        7.4452875872
  C        -0.6096589399        0.0006059139        8.6326195608
  C        -0.8899949138        0.9303962379       10.9584856395
  C        -1.3129102801        0.0405698311        9.9457056475
  C        -2.4331946639        9.9840099376       10.2475350561
  C        -3.0997272967       10.0461009048       11.4686801544
  C        -2.6214177574        0.1394535673       12.4629080634
  C        -1.5167382154        0.9658164186       12.1973459878
  C        -3.8793794165        6.4693725718       16.6102256013
  C        -4.9236533223        5.8455102838       17.3699224716
  C        -2.8287188165        5.7181220349       16.1007419010
  C        -5.9445016274        6.5374175887       18.0883670779
  C        -6.9046652237        5.8358188518       18.7865746003
  C        -3.8471483630        3.6797938350       16.8493682606
  C        -2.7863717872        4.3230782930       16.2459927177
  C        -4.9233735359        4.4054040628       17.4294188744
  C        -5.9717665701        3.7237090650       18.1019258633
  C        -6.9407611298        4.4284474279       18.7627191492
  C       -13.7047770941        6.2906470274       31.2038314191
  C       -12.6103286400        5.6217072426       30.5691408058
  C       -14.7288971408        5.5796921464       31.8045711129
  C       -11.5778456328        6.3193344736       29.8779720134
  C       -10.6142214647        5.6155305420       29.1994565608
  C       -13.6548378686        3.4891234465       31.2327633882
  C       -14.7055282350        4.1735493898       31.8181070109
  C       -12.5893427924        4.1823934088       30.5824404087
  C       -11.5474506033        3.4962664038       29.8953661171
  C       -10.6044886640        4.2105506485       29.2026693970
  C        -9.3821870229        1.3983530445       23.7171447061
  C        -8.3421062539        8.4195835013       24.0607300091
  C        -2.7769653658        0.0408095425        7.4150312124
  C         0.8768415204        0.0964636639        8.6996918244
  O        -3.0509011758        8.7233678345       16.7016562108
  O        -5.3855035865        8.4456357058       15.9701566223
  O        -6.9626008339       10.5280565222       17.1089389029
  O        -5.0043278739       -0.4137182551       18.1674846594
  O        -4.8633495993        1.7173943601       16.1057937615
  O        -2.9648720719        1.5467916742       17.3629077248
  O        -2.3867978565        0.4465520321       14.7698269160
  O        -4.4281980963       10.4926253047       14.0214480169
  O       -14.7929314119        8.3793545789       30.9234736814
  O       -12.6941851063        8.3110550637       31.8101492845
  O       -10.7049341544       10.3317561412       30.7333688291
  O       -12.6342881237       10.2564720341       29.6594454591
  O       -12.6337252365        1.4652438225       31.8732516002
  O       -14.6720874599        1.3958709626       30.8613881364
  O         0.4072320013       -0.0107149145        1.2618694469
  O         2.4932723658       10.5412753460        2.0620759444
  F        -7.8733777640        6.4721390079       19.4906891189
  F        -7.9595294116        3.7760557427       19.3654049850
  F        -9.6120981242        6.2338944451       28.5360470321
  F        -9.6013577030        3.5990654223       28.5357163013
  O        -5.4078581649        7.9487193893       14.5614889427
  C        -4.0405618010        7.7429626432       14.5391115771
  O        -3.4077441176        7.4357191670       13.5689255405
