     233
 i =      232, E =     -2905.9297518418
 Br        12.7841507911       11.4476503130       13.2853695179
 Br        24.2651055014       11.9872707952       21.7665849015
 Br         7.1817988562        7.8792290966       21.7810651000
 Br        23.9907461911       15.4380338626       13.1483553175
 Br        18.5991256350        8.3736015525        2.5993188268
 Br         4.3482461866        2.5679108772        7.5927848511
 Br        18.8454983658       12.0062283008       27.9657904171
 Br        30.0327795849       15.4929571955       27.3618881845
  C        15.1610672161        3.2394324158        4.8970005719
  C        13.2373030815        2.0957196318        3.1722922447
  C        15.2778306591        3.3740745376        3.4925749777
  C        13.1109093037        1.9577545064        4.5598888978
  C        14.3236434101        2.8069606903        2.6489322650
  C        14.0606709827        2.5262351966        5.4032764960
  C        18.4839098302        9.7567615830        3.8777651939
  C        18.3710845843       13.3579036830        4.1790780584
  C        18.3932012206        9.6231608582        5.2605980761
  C        18.4509756755       13.4614524361        2.8011765615
  C        18.3856244906       12.0056955955        4.5765619183
  C        18.4776202258       11.1125081563        3.4891415911
  C         3.8154419004        2.9251488444        5.8107769544
  C         4.8802736652        2.5097510273        2.3826686618
  C         2.6518990747        3.5627264292        5.3913004951
  C         6.0308481191        1.8831708495        2.8273562481
  C         4.0694969449        2.8913358801        3.4715746371
  C         4.6242346395        2.5433487711        4.7210955669
  C        19.1292679410       18.5706582236       27.5306254887
  C        21.0757788348       19.5870768715       29.2799886663
  C        19.0699301752       19.9166954498       27.9571402604
  C        21.1304246531       18.2486553522       28.8783805706
  C        20.0404296557       20.4143501336       28.8216376028
  C        20.1651098797       17.7525235317       28.0102209550
  C        17.0424992929       11.4525867538       27.8996135099
  C        14.8253584688        8.8426712513       29.0622526694
  C        15.9961190742       12.0815611002       27.2307354519
  C        15.8971651462        8.2274472405       29.6889439953
  C        15.2426995380       10.0127508129       28.3923293531
  C        16.6196461685       10.2723459865       28.5466523519
  C        30.5249418208       17.3019391742       27.6320343666
  C        29.4330638734       20.3611170453       29.2201437912
  C        31.6647766209       17.9363635884       27.1513466724
  C        28.2987142990       19.7116952737       29.6734750787
  C        30.2456873758       19.4823197586       28.4737778258
  C        29.7126032276       18.1794741515       28.3812095501
  C         7.3379259606        7.8029191623       18.2834473626
  C         9.6852832180       12.4200102102       18.4353795140
  C        10.0326422994        9.5239302985       14.2584509457
  C        26.9356354474       13.9183316957       14.2634939800
  C        24.6974054132        9.3875869157       13.9324986682
  C        24.3089211360       12.0982750632       18.2628313916
  C        15.6523564173        6.7332402221       10.1594524929
  C        16.1284636715        3.8025041354        5.9002562949
  C        18.3607653154        8.4212646157        6.0920642600
  C        21.1654805637        4.1214743241        6.1724720951
  C        20.7490852910        6.9883709764       10.3876156240
  C        18.3891146842        2.4081466365       10.0480000671
  C        18.5801291323       14.8124814760       22.2874934836
  C        18.1549266070       17.9258976401       26.5953304278
  C        16.0175648277       19.2433072368       22.3969801728
  C        13.1495449039       17.4308246355       26.3278737130
  C        13.5122833153       14.7963424438       22.0774859129
  C        15.9858318934       13.2984886851       26.4092020423
  C        15.8711773770        6.9855054632       30.4717608372
  C        22.1114595755       20.1501608346       30.2024321969
  C        27.2065865351       20.2829431854       30.4696445597
  C        18.4456647553       14.6902982359        2.0052045854
  C        12.2186055110        1.4978022430        2.2429874337
  C         7.1200303043        1.3489132118        2.0037168252
  C        23.6264036512        8.8290937864       13.0390017601
  C        21.7517893249        7.6209885931       11.3088214218
  C        22.4644134256        9.5289297201       12.6288151816
  C        22.8919348844        6.9168613080       11.7139644063
  C        21.5448393729        8.9246065354       11.7737920026
  C        23.8099512546        7.5177861305       12.5691575392
  C        10.7269149565       13.0399083239       19.3115349720
  C        12.5330270073       14.1869641892       21.1286628921
  C        11.8850527829       13.7062535000       18.8480193422
  C        11.3955962298       13.5256636021       21.6019107547
  C        12.7751460768       14.2694823860       19.7552331936
  C        10.5085503589       12.9566803828       20.6967930769
  C        12.2845928912        9.6514735789       12.9946724334
  C        13.4175527924        6.6166808188       11.3871515263
  C        11.1333289821        9.0077315251       13.4437804226
  C        14.5533778814        7.2840506694       10.9584026460
  C        12.5827163110        7.4793266506       12.1270860402
  C        13.1065240153        8.7829256108       12.2459156606
  C        23.0351213782       12.6056857092       20.4637692393
  C        19.7938284433       14.1753288537       20.1216520105
  C        23.1868783932       12.5697512568       19.0805238671
  C        19.6715694379       14.2177411782       21.4983584274
  C        21.0142772174       13.5726897358       19.7407577475
  C        21.8002997945       13.1722776065       20.8406846489
  C         7.2987815927        6.4829103223       20.5079628295
  C         7.4709352476        2.8861023284       20.2358927102
  C         7.3540367643        6.6070947986       19.1224883770
  C         7.4158099822        2.7908852417       21.6155984000
  C         7.4352128863        4.2342882667       19.8314804359
  C         7.3485231323        5.1334692894       20.9154150901
  C        25.8244522441       15.8418966906       12.9394312104
  C        28.0660362007       18.2072309673       11.3779796049
  C        26.9072897241       15.1319155978       13.4512970078
  C        26.9738068677       18.8862283431       10.8670206255
  C        27.6494207105       17.0902151055       12.1290982103
  C        26.2465584998       16.9524733726       12.1803646416
  H        23.0474761404        5.9016022724       11.3528237449
  H        20.6533543116        9.4698293550       11.4714098514
  H         5.0820798954        6.9778804143       12.8918732087
  H        11.2226050142       13.4626841854       22.6749573522
  H        13.6702964111       14.7710536489       19.3955586973
  H         9.6206122839       12.4326593782       21.0458287585
  H        13.2338669714        5.5694371493       11.1613776678
  H        19.0323301658       14.5722283152       19.4548176836
  H        16.1406453755       19.7055216955       19.5905360462
  H        29.0895353715       18.5256643555       11.1983754184
  H        12.2637961807        1.4073240355        4.9660672814
  H        14.4193644451        2.9290576658        1.5723338706
  H        13.9658346553        2.4289051786        6.4834936099
  H        18.3030179874       14.2262840359        4.8292327627
  H         4.6683884510        2.6666249182        1.3281021602
  H        21.9300697139       17.6104343330       29.2513355362
  H        11.3828953840        3.7619673530       29.1387594553
  H        20.1876646651       16.7108764688       27.6954873154
  H        13.8160658171        8.4403418515       29.0991251805
  H        21.0172097928        3.7167193060       29.4307787300
  H        23.9845011783       11.7808941244       12.9819855628
  H        10.3933245025       14.2623821758       16.6325478561
  H        17.9611128716        3.5941375298        3.9974362675
  H        16.3865092950       19.5796631691       27.5848560294
  O         7.3647567823       10.8152607105       16.2428571089
  O         7.5021872229        7.6072867097       17.0238046365
  O         9.0124658003       11.4725859759       18.9454567626
  O        10.1685177252       10.7019399325       14.7307769991
  O         7.1588609377        8.9240094145       18.8638781539
  O         9.0312012515        8.7348169683       14.4280478209
  O         9.4934837218       12.8889804540       17.2560090513
  O         8.4881510068       13.4396236154       14.5051701304
  O        24.8572588354       10.6658951043       13.9773309052
  O        25.8236148591       13.4395680359       14.6606546280
  O        25.4107542227        8.5528373192       14.5708183052
  O        25.3848246669       11.7635355702       18.8618117053
  O        24.0925196565       12.0838774325       16.9957010625
  O        18.3622019637        5.4780760877        8.1300000205
  O        16.5874098619        7.5516604495        9.8472374866
  O        15.6700976149        4.0339205397        7.0621780876
  O        18.3628686016        7.2932209149        5.4938823985
  O        15.5788576669        5.4938863984        9.8492207435
  O        18.3301737324        8.6285542921        7.3600693012
  O        17.3554886993        3.9894468565        5.5599707375
  O        20.2279077181        4.6756380241        5.4887158607
  O        20.9681796643        5.7743197702       10.0658465212
  O        21.2221943222        4.0174927243        7.4407512227
  O        19.7718912176        7.7132709241       10.0083003370
  O        17.2548352983        2.8276431516        9.6199641102
  O        19.5371717679        2.9300717485        9.8425808588
  O        15.9921126762       16.1973306793       24.3472082613
  O        17.6181988467       15.3430313351       21.6409786137
  O        18.6081162490       17.0130073801       25.8468701032
  O        15.9340790963       19.3795288002       23.6681971977
  O        18.7157015568       14.7482391268       23.5584783755
  O        16.0835912353       18.1527721098       21.7315926604
  O        16.9248297734       18.2944951717       26.6158294345
  O        14.0262894470       18.3088881842       26.0012878868
  O        13.2691674413       14.6443471148       23.3166935360
  O        13.1588014601       16.2008772644       26.0051278117
  O        14.5008269061       15.4101318744       21.5649041905
  O        17.0041445723       14.0651220404       26.4517177288
  O        14.9243124978       13.4857694032       25.7104355369
  O        15.9053762487        3.9416377841       32.4693031997
  O        17.0112334837        6.5105060146       30.8170826145
  O        21.9153804535       21.3454620093       30.5920905910
  O        26.2401861036       19.4883026933       30.7400569639
  O        14.7195922446        6.4948459448       30.7373153877
  O        18.6995431833        3.8151610148       30.8152341636
  O        23.0929805194       19.3950916935       30.5149865751
  O        18.5094925656       14.5342716298        0.7365745530
  O        11.2330793814        0.8978709407        2.7862093969
  O        18.3769833314       15.7966924678        2.6388966513
  O        12.4253886461        1.6426389999        0.9930164168
  O         7.0114651107        1.4750992170        0.7409153427
  O         8.0874371775        0.8021798301        2.6397353280
  O        23.1374694389       12.0967505868       12.5510905811
  O        20.7716295273       11.5502753467       12.5520518658
  O        22.1167876471       11.1806179987       14.6551272829
  O        11.2367849603       14.7924550066       16.5294353828
  O        13.6015328109       14.5890809880       17.0578686505
  O        12.2812343600       12.5082644576       16.5336935794
  O        17.8900900356        3.5419355615        2.9982762283
  O        16.3343259629        4.2313181293        1.2432481164
  O        16.5858803337        5.6557985644        3.3079586945
  O        16.4877994859       20.4741089831       28.0321468029
  O         9.4124208461        4.6598445354       28.0389548113
  O        17.7695578000       20.9830328762       25.9330719673
  S        11.0601606070        7.3308809873       12.9343889504
  S        14.6228754040        8.9593744760       11.4454641278
  S        21.7942522277       13.2200214877       18.2392944852
  S        21.0267201886       13.5058337031       22.3471162338
  S         7.4702358547        5.0579845111       18.3141258263
  S         7.3233777372        4.3267491316       22.4399318439
  S        28.4490480091       15.8343111706       13.0045080862
  S        25.4322677540       18.1849478904       11.2913758740
  S        18.3103018550       11.1677740929        6.0853493053
  S        18.5464173950       11.9275358893        1.9723792205
  S         2.5485246199        3.6918297171        3.6473670864
  S         6.1445401014        1.7451040642        4.5649238795
  S        14.4802887969       11.2138714904       27.4072979971
  S        17.4170553191        9.0633176703       29.4825377072
  S        31.7447331350       19.6211472507       27.6262650440
  S        28.2057854542       18.0296494536       29.2071710481
  S        22.0000484426       11.1725268689       13.2090002895
  S        12.3773579445       13.8281440877       17.1227961789
  S        16.5438593166        4.3564587896        2.6660969712
  S        17.8199258269       21.0852509731       27.3791611186
 Zn         7.4711730383        8.9602412472       15.5942924607
 Zn        26.9343264554       10.7521633259       18.2196595449
 Zn        15.7091662137       18.0064999326       25.0479319438
 Zn        14.3828961667       15.1589274961       24.8484444283
 Zn        17.5074077709        4.9425996231       31.9005649019
 Zn        14.3169679307        4.8666060134       31.7577163597
 Zn        24.5814385043       19.7955035234       31.7514523820
 Zn        18.3251222676       17.6341336332        1.9770325657
 Zn         8.8977498224       11.8749102477       15.6024462284
 Zn        25.3913591348       11.7517164340       15.5879531349
 Zn        18.2430423946        7.3298060349        8.8247439295
 Zn        16.7564047913        4.4767841649        8.6747019086
 Zn        18.5868286485        5.4852338620        6.1812056460
 Zn        19.9651821651        4.5726007976        8.8492476533
 Zn        16.0668794636       16.2975525435       22.3770899577
 Zn        17.6630221959       15.3811173886       25.1334810651
  O        19.8578262872       14.5124638751       26.1608443149
  C        20.9293596857       14.8129391896       25.6843249448
  O        22.0830210869       14.4616994325       26.3020459088
  H        21.0497532717       15.3802342558       24.7436763621
  H        22.8412940156       14.7888153091       25.7776445382
