94
52ef7e9 s4_to_s5 B (s5 augmented)
  Al       -1.7871117415        7.0338745919       12.1139622950
  Al       -0.6145110251       -6.9713452942       20.1585825206
  H         0.3192686226       -3.7046770353       17.6174044125
  H         1.1389949648       -1.5618116368       16.5678024545
  H         4.2140517589       -1.3190989817       19.4794840391
  H         3.4224688515       -3.5086772388       20.4728771113
  H         4.3862442267        1.1412552086       13.9857255793
  H         1.2365404175        1.3233301330       16.8224160320
  H         0.4861246040        3.5319885807       15.8575693498
  H         3.5917255894        3.3032771283       12.9750791669
  H         0.2442222028      -10.7764744003       18.5278503935
  H         1.0313906565       15.1389172938       17.1615880535
  H         4.1482165049       17.5161753747       15.5292896440
  H         3.3981101607       -8.4287577527       16.9699863051
  H         4.2228140882       11.5353654933       16.1205139651
  H         1.0783098703       13.8873645935       14.5230694878
  H         0.3207175552       11.9258959590       13.1202704877
  H         3.4641727480        9.5879902571       14.7079982528
  H         0.2443478358       -6.5515725794       24.3111587019
  H         1.0392548219        7.1181623942        2.5414691753
  H         4.1473008615        4.5443439750        1.2176466571
  H         3.3914657896       -9.0388545836       22.9764503386
  H         4.2608034350        7.9407862025        6.1566169896
  H         1.1040816585        5.3825614089        4.9268102249
  H         0.3577770785        5.1364485898        7.3235574445
  H         3.4856867896        7.7351770689        8.5364321717
  C         1.4702259257        6.3965935571        9.4607613501
  C         1.5477543472        4.7648553309       13.7346549902
  C         1.4172531439        9.4699433319       13.0922620919
  C         1.4314152043       -4.9509212666       19.7881265285
  C         1.4210665048       -8.2986370887       18.5897623577
  C         1.4174397545       -7.6797338545       22.0944721586
  C         1.7648726900       -3.6341607535       19.2128391735
  C         1.0326949562       -3.0648085712       18.1329808682
  C         1.6673950363       -2.0358709812       17.3956342249
  C         2.7909514843       -1.4364713859       17.8570678358
  C         3.5133968263       -1.9685388307       18.9571953649
  C         2.8985802064       -3.0284734332       19.6542536945
  C         3.6602616377        1.7692993528       14.4986363036
  C         2.9251073085        1.2232573110       15.5832160056
  C         1.8055812373        1.8342855094       16.0455979448
  C         1.2287174430        2.9142561196       15.3589927241
  C         1.9688794313        3.4860502331       14.2928275849
  C         3.0784884751        2.8557862006       13.8193941673
  C         1.7236096091       -9.4383730508       17.7065006846
  C         0.9813527408       17.2271601341       17.7388402311
  C         1.5817338613       16.0800666219       17.1777043504
  C         2.6974415875       16.1736299119       16.4125570809
  C         3.4235617699       17.3874775815       16.3311604738
  C         2.8474812215       18.5138059387       16.9422487586
  C         3.5053652465       11.6617158645       15.3117821318
  C         2.7671644920       12.8714507032       15.2365152825
  C         1.6444812095       12.9565153257       14.4808773935
  C         1.0535021666       11.8098911219       13.9155868215
  C         1.7968657630       10.5998938186       13.9561547516
  C         2.9198722748       10.5248719524       14.7182317558
  C         1.7205136115       -7.9115385836       23.5209508113
  C         0.9793561589        6.6287919441        0.4306823752
  C         1.5847092489        6.6806928103        1.7047733130
  C         2.7006688144        5.9621061282        1.9817548088
  C         3.4255196694        5.3143060071        0.9519565945
  C         2.8438293468        5.3175521451       -0.3278592021
  C         3.5292768950        7.1896771608        6.4484122752
  C         2.7906886994        6.5199158179        5.4412175901
  C         1.6771394842        5.8081305191        5.7509577958
  C         1.1048840920        5.8710732506        7.0339224769
  C         1.8462584995        6.5195084728        8.0534630182
  C         2.9586065802        7.2370806445        7.7301071584
  N         3.1028493802       -0.1633891411       17.3421525637
  N         3.1747699238       -0.0724235893       16.0850371617
  N         2.9849146783       15.0925959613       15.5536192488
  N         3.0265311138       13.9561956631       16.1020650618
  N         2.9946653673        5.7240510937        3.3408778183
  N         3.0372396368        6.7517502345        4.0721447837
  O         2.2773743456        8.4442924729       13.1415182417
  O         2.2728886575        6.9707372826       10.3196918253
  O         2.2985689368        5.3113261073       12.8111556867
  O         0.4465221280        9.5200666798       12.3355259593
  O         0.4987939650        5.3099356947       14.1586915163
  O         0.4536231864        5.7303195219        9.7938870345
  O         2.2893608282       -8.1058810369       21.2544216067
  O         2.2901097324       -5.4529486396       20.6011082360
  O         2.2884957492       -7.3497786145       18.6289612744
  O         0.3769558216       -7.0009659131       21.7939818215
  O         0.3776848337       -8.3643481893       19.3258317898
  O         0.3811193865       -5.5459453396       19.3701224586
  O         0.2115687368        6.6548255478       12.0704370648
  C         1.9924876124       23.6319816057        2.4520398219
  H         0.1873364647        6.0348357350       12.9328000464
  H         0.2303337263        6.0858031486       11.1517107073
  H         1.3392264001       23.8678204669        1.6084915421
  H         1.3582407462       23.4013660424        3.3127695183
  H         2.6290370107       22.7758633716        2.2115457011
  H         2.6440170317       24.4801258522        2.6764696954
