94
52ef7e9 s4_to_s5 A (s4 augmented)
  Al       -0.4499514685        7.2266398489       11.9558099018
  Al       -0.2549594400       -6.8770594432       20.2914416190
  H         0.7753789845       -4.0877491866       16.9691078467
  H         1.5556373529       -2.0350037936       15.7094208052
  H         4.6463538028       -1.5090903343       18.5409916017
  H         3.8403901948       -3.5308587428       19.8026317827
  H         4.9214520952        0.9688351665       13.0577432094
  H         1.7191304023        0.8779345394       15.8349059007
  H         1.0242533145        3.1677182823       15.1295298616
  H         4.2152635022        3.2682777588       12.3359635907
  H         0.2774681188      -10.8515282015       18.8189052178
  H         0.7454098278       15.1347095163       17.2515847131
  H         4.1274953017       17.1793566649       15.7226823887
  H         3.6411493384       -8.7939124954       17.2436545963
  H         3.6136723424       12.7566665398       15.2848159495
  H         0.1943681303       13.7252873473       12.9783015827
  H         0.6045358680       11.7181301206       11.5678884529
  H         4.0136925969       10.7424047876       13.8850220127
  H        -0.1321466179       -6.2268878633       24.0141134180
  H        -0.3559609918        7.4275199197        2.3168783075
  H         3.1208895695        5.0024331214        2.3326746353
  H         3.3296650232       -8.6880125127       24.0167425053
  H         2.2463071461        7.4796329427        5.5147864796
  H        -1.0420360549        5.0181715728        6.5791862038
  H        -0.4184195388        5.2699528584        8.9861945613
  H         2.8429776325        7.7673047167        7.9261072166
  C         1.5833194423        6.6348899271       10.0268085617
  C         2.1629535730        4.7144894942       13.2905199133
  C         2.3826522815        9.8417866255       11.8004251033
  C         1.8242549445       -4.9970101706       19.4026042581
  C         1.7417045753       -8.4919476692       18.9771491235
  C         1.6977482101       -7.2073742568       22.3654323486
  C         2.1796033005       -3.8105679336       18.5814286773
  C         1.4517876150       -3.3684782269       17.4290303664
  C         2.1058058760       -2.4361948664       16.5621183928
  C         3.2421928005       -1.8012647654       16.9326939867
  C         3.9816856837       -2.2372500585       18.0760624393
  C         3.3299277167       -3.1716896524       18.9178167028
  C         4.1818148091        1.5304353275       13.6237091327
  C         3.4458132069        0.8828062705       14.6524998636
  C         2.3203127806        1.4616309307       15.1383180152
  C         1.7811959885        2.6223429526       14.5757620705
  C         2.5460178350        3.3242888007       13.6045301389
  C         3.6459803749        2.7189792291       13.0795891080
  C         1.8979145806       -9.6398672820       18.0626753774
  C         1.0824109879       17.0918367145       18.0936482419
  C         1.4269317333       15.9800639649       17.3229973851
  C         2.4764840515       16.0051137873       16.4479854608
  C         3.3110305520       17.1280788626       16.4366881040
  C         2.9622986478       18.2381972684       17.1992369103
  C         2.9072414380       12.4673675246       14.5099887517
  C         1.8534873131       13.3130482227       14.2875919730
  C         1.0107918711       13.0454729314       13.2035860502
  C         1.3124466762       11.9893421829       12.3449371413
  C         2.3447492214       11.1177337397       12.5773200973
  C         3.1886911711       11.4061239386       13.6562365867
  C         1.6212836942       -7.4025595920       23.8316614581
  C         0.6167381262        7.1435519172        0.4149908212
  C         0.4544999644        6.9407586590        1.7789437352
  C         1.3561266534        6.1477393375        2.4861080588
  C         2.3608111385        5.5361690030        1.7700935043
  C         2.5049930866        5.7253165416        0.3975789155
  C         1.6210891781        7.0555959664        6.2974471926
  C         0.5493016565        6.3130677753        5.8990133729
  C        -0.2521437138        5.7000279481        6.8823793219
  C         0.2032687510        5.7042841046        8.2102248360
  C         1.3002636094        6.4153844632        8.6049663247
  C         2.0768387355        7.0633546280        7.6158133351
  N         3.5455627927       -0.5484254800       16.3622576798
  N         3.6796627861       -0.4454835137       15.1107653616
  N         2.7173668903       14.9516622642       15.5339812563
  N         1.6286383007       14.4417790161       15.1061406241
  N         1.4094894861        6.0707147359        3.8884060658
  N         0.2914267100        6.1724789223        4.5004709923
  O         3.3724530725        9.0314045124       12.1367335781
  O         2.6372488063        7.2699950787       10.3243954200
  O         2.8849536648        5.4646446223       12.5433113685
  O         1.4768685604        9.5888633717       10.9968536251
  O         1.0941024961        5.0645323531       13.8861973246
  O         0.7432800967        6.2365438722       10.9268386324
  O         2.6707936504       -7.7327001511       21.7242704107
  O         2.6701005753       -5.3049239085       20.3230880561
  O         2.6593738896       -7.5943802947       18.9127915517
  O         0.7469111062       -6.5143295458       21.8439539206
  O         0.7412955978       -8.4578219967       19.7783853508
  O         0.7861231906       -5.6856527838       19.1212346886
  O         0.2936324188        7.2801886476       13.6853643462
  C         1.3644930827        8.0179971446       14.2241477325
  H         0.6473695138        6.1954805408       13.8068148231
  H         1.3031140445        8.0063877906       15.3256292923
  H         1.3422223217        9.0526047758       13.8745326813
  H         1.8063274851        6.9421575967       18.5869738381
  H         1.8063274851        7.6727840609       18.7043832495
  H         2.3615435252        7.5490388502       13.9414517338
