      68
 i =      112, E =      -433.6043334377
 Al         5.9524078345        5.9573926942        8.2478269913
 Al         9.3036840286        6.0181805781        8.2864593321
  H         4.2960535474        7.5338860967        7.4273116711
  H         7.7142930957        4.3195598045        8.9154110095
  H         8.9349036213        7.0487489256       12.2496622171
  H         8.8379687390        7.2509457457       14.7595959212
  H         6.3008648305        5.9441200207       14.9797680203
  H         5.6653871093        4.9070537504        1.7174306945
  H         3.1465066540        6.1562150943        1.7895464332
  H         3.0113714949        6.3546286275        4.2974365283
  H         9.3958876099        8.9055940260       10.2561731067
  H        10.8874193506       10.2350025183       11.6898887779
  H         6.0323312700        3.2375826998       10.2058846846
  H         7.6367252781        2.1062016433       11.6703882370
  H         6.7751288826        5.6124041233       11.4007744933
  H         7.4858457992        5.4952200885       12.9664524462
  H         5.1441147802        5.2451898457        5.3019990775
  H         4.4629181923        4.7537338017        3.7767706569
  C         7.5344873738        8.3761363940        8.4904877541
  C         7.6521818342        5.8288255410        5.8677296945
  C         4.2968278245        3.5505640482        8.2674428909
  C         4.1372122948        6.1789650144       10.7796741253
  C         4.2860827900        6.2940414781       12.2243283700
  C         9.7783491162        6.7851337111       12.8876311403
  C         9.7352209831        6.8994209143       14.2568265707
  C         4.2529669514        6.5606385305       15.0005691747
  C         5.4270570587        6.1651409003       14.3647592956
  C         5.4884413986        6.0270003910       12.9619873754
  C         6.5368494737        5.2031908836        2.3019108936
  C         7.7247921564        5.4806748254        1.6310312984
  C         2.2410945382        5.8984407585        2.3331971952
  C         8.8056706103        6.0009275230        3.7057964043
  C         7.6220266044        5.6992847744        4.4090302873
  C         6.4421953328        5.3069495227        3.7074308960
  C         7.5054274745        9.8640623653        8.5411035702
  C         8.4256123348       10.6178909661        9.3424973037
  C         6.5729563649       10.5365705660        7.7739744555
  C         9.3501363944        9.9925264479       10.2210658272
  C        10.1855397443       10.7396110791       11.0261066007
  C         4.3121915376        2.0724875364        8.4384935369
  C         3.4182133336        1.3098610935        7.7136063093
  C         5.2544032843        1.4229806324        9.3013636949
  C         6.1073971836        2.1519673931       10.1714800387
  C         6.9985925738        1.5176313088       11.0111722193
  N         4.3216293655        6.6210221018       16.4073254134
  N         7.6549107912        5.3616903664        0.2253422673
  N         6.6465997733        5.5665783269       12.4036427020
  N         5.2794485094        4.9757002831        4.3326722996
  O         6.4263850921        7.7628124877        8.6287712200
  O         8.7807971417        5.7753537066        6.4650230904
  O         3.1987139334        4.1718260394        8.4206956811
  O         5.2738582096        5.9113645714       10.1722291508
  O         5.4014622134        4.1229544249        7.9774548515
  O         3.0273540724        6.3134921712       10.1593133048
  O         8.6574004598        7.8199358353        8.2730628215
  O         6.5230321495        6.0340540524        6.4498684394
  O         4.3154666354        6.5968694804        7.6867574416
  O         7.6597574467        5.2886503740        8.8155655994
  F         2.5376902478        1.8768323091        6.8599746725
  F         5.7043294795        9.8687907352        6.9784542122
  O         6.1444544402        5.5065304986        9.3063447452
  H         5.8933144887        4.8064058925        9.3413799139
  H         6.2393038514        5.5660497334       10.0685111269
  C         3.8489202064        1.1903121024        1.6757174824
  H         3.7487554844        1.1260182177        0.9415672870
  H         4.0579108585        1.8917377766        1.6836611772
  H         3.6395114380        0.4888071990        1.6677156290
  H         3.9487167517        1.2543345067        2.4098769987
      68
 i =      113, E =      -434.3007436367
 Al         5.9894160446        5.9168503083        8.1698160023
 Al         9.3473254820        6.0375327588        8.2526053113
  H         4.3100855406        7.5551485886        7.4244212784
  H         7.8060639966        4.2405985914        8.8772191967
  H         8.9243552135        7.0517390398       12.2573149185
  H         8.8289179698        7.2610828252       14.7762009293
  H         6.3023469260        5.9403377739       14.9805842150
  H         5.6670815315        4.9021256748        1.7169919460
  H         3.1446058170        6.1608622614        1.7858575755
  H         3.0113489943        6.3513847914        4.2923434848
  H         9.3971243393        8.9094487889       10.2566271800
  H        10.8890828401       10.2341225456       11.6924020552
  H         6.0305942620        3.2304466613       10.2161762624
  H         7.6384138544        2.1061338509       11.6732249877
  H         6.8158127835        5.6332824075       11.4323814883
  H         7.4946921150        5.4986976972       12.9654939738
  H         5.1432506379        5.2474672437        5.3010130849
  H         4.4613580555        4.7561621420        3.7743397482
  C         7.5312395370        8.3687813042        8.4832142537
  C         7.6712386271        5.8319818749        5.8453444634
  C         4.2828279951        3.5371410300        8.2492523631
  C         4.0295724248        6.1680363055       10.8412486525
  C         4.2444196288        6.2760742575       12.2606413866
  C         9.7498269907        6.7879464116       12.9206823190
  C         9.7285628665        6.9130768448       14.2831463994
  C         4.2541047390        6.5620405471       15.0116440016
  C         5.4300794593        6.1747800110       14.3676689329
  C         5.4742717456        6.0256035336       12.9710732849
  C         6.5352056592        5.2041951244        2.3003037010
  C         7.7223141443        5.4830233356        1.6283612265
  C         2.2414022834        5.8996599124        2.3273597678
  C         8.8088186193        5.9932700698        3.6978804953
  C         7.6270104514        5.6900910428        4.3990489521
  C         6.4413812953        5.3078883681        3.7027233649
  C         7.5022482087        9.8546364612        8.5445636724
  C         8.4262195113       10.6162576257        9.3389737557
  C         6.5694125659       10.5351120883        7.7790773994
  C         9.3522302479        9.9961297614       10.2194096617
  C        10.1885417456       10.7396545531       11.0283702336
  C         4.3048880686        2.0696332673        8.4400782952
  C         3.4113543351        1.3046377375        7.7138315035
  C         5.2555121079        1.4220869410        9.2969471122
  C         6.1109838759        2.1451645730       10.1683391791
  C         7.0022861380        1.5166906290       11.0130460785
  N         4.3259547113        6.6150496382       16.4118228745
  N         7.6511202086        5.3642094502        0.2267538586
  N         6.6388181208        5.5466619768       12.4206921584
  N         5.2782208195        4.9785003270        4.3316927751
  O         6.4377543340        7.7196612299        8.6185174397
  O         8.7966402830        5.7831673570        6.4491823410
  O         3.1992657388        4.1800256974        8.4092990005
  O         5.2414004302        6.1613645714       10.2002946928
  O         5.3929911670        4.0968648375        7.9434356036
  O         2.9537392942        6.3161470495       10.1653196027
  O         8.6618407581        7.8245976990        8.2673714554
  O         6.5346184403        6.0319718525        6.4089232085
  O         4.3577286249        6.6075186042        7.6563667698
  O         7.7360668779        5.2021053781        8.7262733614
  F         2.5351915112        1.8688764133        6.8546718923
  F         5.7052758269        9.8644796605        6.9834908489
  O         6.1687471456        5.4948184246        9.3473999497
  H         5.8099937155        4.7950981110        9.4249452514
  H         6.2412507855        5.5953841056       10.1107107395
  C         3.8524830074        1.1897032421        1.6754243278
  H         3.7336021055        1.1200536923        0.9058379599
  H         4.0852052150        1.9572167226        1.6806884050
  H         3.6102016358        0.4248623393        1.6711167803
  H         3.9623789462        1.2615186966        2.4459943661
      68
 i =      114, E =      -434.6294374951
 Al         6.0164080671        5.8622014326        8.1248883010
 Al         9.3590719532        6.0397993640        8.2438508533
  H         4.3285095878        7.5515802450        7.4285498111
  H         7.8576640250        4.1940350872        8.8529053259
  H         8.9180659461        7.0525405317       12.2736216006
  H         8.8275002378        7.2697931959       14.7927946403
  H         6.2975013770        5.9411633328       14.9765232457
  H         5.6678833055        4.8992737445        1.7159783300
  H         3.1437802886        6.1644357353        1.7808787719
  H         3.0121279504        6.3481046982        4.2879137907
  H         9.3982487017        8.9083658712       10.2569001660
  H        10.8890740469       10.2323964191       11.6932317341
  H         6.0308443181        3.2290660073       10.2212904508
  H         7.6368524520        2.1058867305       11.6730637469
  H         6.8325709097        5.6540407223       11.4432866500
  H         7.4868577524        5.5042695793       12.9739502709
  H         5.1436183578        5.2496622889        5.2989774336
  H         4.4602243553        4.7582713096        3.7719193287
  C         7.5330809322        8.3572041261        8.4791473976
  C         7.6849470390        5.8282436132        5.8329048435
  C         4.2815811756        3.5249390393        8.2384811572
  C         4.0155242341        6.2482990137       10.8535880002
  C         4.2217904231        6.2492336789       12.2756271097
  C         9.7410023102        6.7822846922       12.9380826092
  C         9.7227335740        6.9204540957       14.2968861819
  C         4.2511774561        6.5685424216       15.0182384023
  C         5.4239571065        6.1791101461       14.3669606321
  C         5.4666362875        6.0221371208       12.9741793570
  C         6.5339136736        5.2046278499        2.2996243222
  C         7.7210535231        5.4835622619        1.6282006663
  C         2.2424865178        5.9007765039        2.3223123642
  C         8.8113792305        5.9894517802        3.6913254641
  C         7.6322832097        5.6841592753        4.3927483612
  C         6.4423619035        5.3070699140        3.7008100690
  C         7.4988791329        9.8474223774        8.5485249518
  C         8.4242896549       10.6131175643        9.3402245650
  C         6.5701802520       10.5281519855        7.7784151485
  C         9.3542382735        9.9946551837       10.2182206285
  C        10.1899139537       10.7385034860       11.0278544560
  C         4.2998302611        2.0610965823        8.4407303092
  C         3.4105567308        1.2977824602        7.7104286804
  C         5.2530638830        1.4199422625        9.2994328080
  C         6.1113313869        2.1447397773       10.1671784413
  C         7.0023054879        1.5155504744       11.0116458126
  N         4.3265073329        6.6111047926       16.4151410814
  N         7.6493402755        5.3655298603        0.2289464588
  N         6.6303389474        5.5260442914       12.4243773889
  N         5.2776204242        4.9798182982        4.3298436118
  O         6.4492307034        7.6879900952        8.5965223382
  O         8.8112625351        5.8018898680        6.4368429948
  O         3.2101174633        4.1767532645        8.4110859181
  O         5.2544914804        6.4113645714       10.2071784953
  O         5.3983923273        4.0573338695        7.9216375226
  O         2.9241913338        6.2903851588       10.1769628471
  O         8.6712173502        7.8310096412        8.2574443849
  O         6.5451208799        6.0293294536        6.3874479119
  O         4.3787009030        6.6017047112        7.6564532894
  O         7.7669356672        5.1463128640        8.6849840686
  F         2.5299189648        1.8542136204        6.8525546533
  F         5.7026424899        9.8588848846        6.9877841682
  O         6.1638033774        5.4738129608        9.3727889443
  H         5.6915199165        4.7958327526        9.4969472920
  H         6.2279677870        5.6103614394       10.1447755266
  C         3.8808782971        1.1816636676        1.6724361265
  H         3.7037958635        1.1155891506        0.8844062833
  H         4.1008576730        1.9831987127        1.6706168808
  H         3.5806150837        0.4036271296        1.6827723159
  H         3.9777759057        1.2707646917        2.4691364476
      68
 i =      115, E =      -434.9937865285
 Al         6.0393531394        5.8027338903        8.0865229375
 Al         9.3666397773        6.0374404216        8.2354235710
  H         4.3515648649        7.5426086480        7.4357312616
  H         7.9079625933        4.1535178275        8.8288556336
  H         8.9108565843        7.0537574405       12.2910886343
  H         8.8271781693        7.2804994676       14.8098370066
  H         6.2929692587        5.9420801334       14.9731026727
  H         5.6683068706        4.8961562093        1.7145382300
  H         3.1431408403        6.1687099298        1.7742480707
  H         3.0136690065        6.3444732143        4.2828741123
  H         9.3997972940        8.9066684997       10.2569650095
  H        10.8891084274       10.2307124586       11.6936666260
  H         6.0322057123        3.2262154449       10.2254810808
  H         7.6350430332        2.1055778848       11.6726873536
  H         6.8504668777        5.6793428665       11.4558066050
  H         7.4765804732        5.5096832860       12.9834955170
  H         5.1436176435        5.2518967203        5.2966932628
  H         4.4593406581        4.7608943692        3.7695691308
  C         7.5384311205        8.3437327022        8.4688497618
  C         7.6991148816        5.8301735871        5.8200096277
  C         4.2879242271        3.5102420187        8.2251060436
  C         4.0187349842        6.3722971566       10.8613693388
  C         4.2068387069        6.2457635696       12.2894243607
  C         9.7283020778        6.7671890375       12.9562641781
  C         9.7172479092        6.9268742382       14.3113482616
  C         4.2480993753        6.5730100431       15.0246232536
  C         5.4181174308        6.1820677718       14.3670790111
  C         5.4560439728        6.0124586343       12.9784016694
  C         6.5328592063        5.2045515449        2.2979668706
  C         7.7200691849        5.4841744436        1.6274934545
  C         2.2440239505        5.9020742720        2.3160816180
  C         8.8147024625        5.9855630521        3.6837683725
  C         7.6388913058        5.6755272669        4.3856799124
  C         6.4438823337        5.3055091403        3.6982310862
  C         7.4945850169        9.8387386043        8.5535484467
  C         8.4213421856       10.6081935397        9.3424969527
  C         6.5693883751       10.5172433654        7.7780008189
  C         9.3558792820        9.9924358049       10.2178892938
  C        10.1914327249       10.7372445150       11.0268273227
  C         4.2943211916        2.0500991261        8.4407671126
  C         3.4091342863        1.2875046281        7.7079474056
  C         5.2494829699        1.4157648623        9.3018794246
  C         6.1095924618        2.1427113596       10.1667018577
  C         7.0022520130        1.5143264416       11.0098737767
  N         4.3271012955        6.6092134902       16.4184735098
  N         7.6478876575        5.3659320127        0.2304994184
  N         6.6201044229        5.5039558747       12.4284378861
  N         5.2775414203        4.9815227339        4.3276956511
  O         6.4641540131        7.6560507101        8.5599265234
  O         8.8268771961        5.8164478438        6.4203036363
  O         3.2305765279        4.1725960224        8.4156450862
  O         5.2655855952        6.6613645714       10.2213712700
  O         5.4057274541        4.0199618189        7.8822090085
  O         2.9085440014        6.2718173505       10.1847932448
  O         8.6865454647        7.8367404941        8.2514632326
  O         6.5590568268        6.0219456555        6.3749278616
  O         4.3958241186        6.5880881622        7.6527825192
  O         7.7918421176        5.0970234308        8.6479568109
  F         2.5294694611        1.8424134730        6.8497847328
  F         5.7006920467        9.8459406199        6.9922526916
  O         6.1441694015        5.4444438590        9.4068339993
  H         5.5532754866        4.7961159444        9.5769866337
  H         6.2040865501        5.6189154994       10.1876219205
  C         4.0600895989        1.1291012002        1.6529396218
  H         3.6121749138        1.1197624948        0.8689872365
  H         4.0952333406        2.0184320181        1.6529870264
  H         3.5068243110        0.3929132719        1.7087866684
  H         3.9696203030        1.2964318027        2.4959661864
      68
 i =      116, E =      -435.2556286519
 Al         6.0623376821        5.7433184689        8.0472970803
 Al         9.3745513689        6.0352838501        8.2269439555
  H         4.3746775742        7.5337344878        7.4429326436
  H         7.9587725791        4.1125101171        8.8045449348
  H         8.9035660046        7.0549013735       12.3087822387
  H         8.8267572867        7.2912422442       14.8271394527
  H         6.2883877520        5.9429793203       14.9696656927
  H         5.6687409741        4.8929946987        1.7130722441
  H         3.1425008015        6.1730401331        1.7675810611
  H         3.0152042342        6.3408233005        4.2777962416
  H         9.4013647068        8.9049865610       10.2570233887
  H        10.8891817282       10.2290076298       11.6941154530
  H         6.0335120702        3.2233835920       10.2296878191
  H         7.6332266653        2.1052600282       11.6722891883
  H         6.8684695013        5.7047004815       11.4684479708
  H         7.4662384100        5.5150944039       12.9931439455
  H         5.1436173713        5.2541387770        5.2944029975
  H         4.4584376400        4.7635453212        3.7672082346
  C         7.5440771585        8.3303527386        8.4587280965
  C         7.7134301502        5.8314847675        5.8070106247
  C         4.2939555376        3.4954181617        8.2115395318
  C         4.0204619220        6.4941394861       10.8695057270
  C         4.1912587884        6.2411010616       12.3032383325
  C         9.7158192150        6.7528506032       12.9746179681
  C         9.7115562527        6.9332108745       14.3259911550
  C         4.2450112238        6.5777053579       15.0310626686
  C         5.4121286812        6.1848447023       14.3672075621
  C         5.4454787760        6.0034027814       12.9825482252
  C         6.5317654144        5.2044725629        2.2963212643
  C         7.7190479359        5.4847872737        1.6267950702
  C         2.2455811372        5.9033502036        2.3097811117
  C         8.8180779940        5.9816194620        3.6761230093
  C         7.6454987590        5.6671469634        4.3785025940
  C         6.4454289099        5.3039187093        3.6956559688
  C         7.4903541781        9.8300878184        8.5584768903
  C         8.4184481157       10.6032984579        9.3447310409
  C         6.5685307490       10.5064833471        7.7776332331
  C         9.3575419463        9.9902259746       10.2175305955
  C        10.1929551982       10.7359571486       11.0258465903
  C         4.2888305419        2.0390742950        8.4408163632
  C         3.4076363842        1.2773504872        7.7054035958
  C         5.2459460357        1.4116100220        9.3043445311
  C         6.1079420101        2.1407115474       10.1661766627
  C         7.0021772968        1.5130577561       11.0081258106
  N         4.3277440603        6.6072340770       16.4218460579
  N         7.6464497835        5.3663590534        0.2320879105
  N         6.6098653863        5.4821185135       12.4325310077
  N         5.2774503069        4.9832643205        4.3255317802
  O         6.4794652129        7.6240538017        8.5237406588
  O         8.8426338196        5.8313844445        6.4038256897
  O         3.2507954874        4.1684602208        8.4199583892
  O         5.2758520569        6.9113645714       10.2354133773
  O         5.4134014215        3.9818071478        7.8441291365
  O         2.8918440742        6.2531157865       10.1930423317
  O         8.7020852153        7.8425027754        8.2451552575
  O         6.5728891102        6.0148434092        6.3615112585
  O         4.4129793785        6.5746402329        7.6492104125
  O         7.8172472819        5.0471526182        8.6091432141
  F         2.5288242744        1.8312723918        6.8473855250
  F         5.6987092380        9.8330710354        6.9968032155
  O         6.1252535676        5.4155967643        9.4406610622
  H         5.4162824669        4.7962712813        9.6570077558
  H         6.1807068375        5.6283536773       10.2306328737
  C         4.2556612587        1.0716197961        1.6315629238
  H         3.5179642907        1.1250650545        0.8540806801
  H         4.0847725224        2.0550974618        1.6361449052
  H         3.4318480957        0.3826841826        1.7345406305
  H         3.9536938440        1.3239916578        2.5236296161
      68
 i =      117, E =      -435.4450163890
 Al         6.0451625803        5.6803150149        8.0301226250
 Al         9.3606239078        6.0066777058        8.2333891967
  H         4.4389917578        7.4787599746        7.4777735746
  H         8.0126396748        4.1232074215        8.7686190149
  H         8.8829365053        7.0527806374       12.3566297149
  H         8.8322054133        7.3181058970       14.8655917476
  H         6.2805057972        5.9456603448       14.9687944541
  H         5.6657899493        4.8857966906        1.7058859024
  H         3.1444730041        6.1863930974        1.7439149970
  H         3.0237168273        6.3332618030        4.2651958899
  H         9.4080444741        8.8975463742       10.2550866770
  H        10.8914657113       10.2254158764       11.6911025549
  H         6.0388550966        3.2123919573       10.2255173997
  H         7.6273660647        2.1032951013       11.6672977735
  H         6.8902313970        5.7616873539       11.4952990520
  H         7.4260342152        5.5187867751       13.0226008463
  H         5.1393462524        5.2571448267        5.2874417711
  H         4.4578321177        4.7719816795        3.7655145383
  C         7.5968857679        8.3074672494        8.4137893718
  C         7.7356197457        5.8293865151        5.7920520192
  C         4.3393343099        3.4639375311        8.1713455720
  C         4.0380031540        6.7441394861       10.8694861448
  C         4.2011980412        6.3321270996       12.2967051555
  C         9.7007551036        6.7261990903       13.0018352917
  C         9.6952638781        6.9224272752       14.3515035884
  C         4.2389222441        6.5860979439       15.0387964750
  C         5.3944429477        6.1614290364       14.3729534194
  C         5.4197306624        5.9947360113       12.9880690576
  C         6.5294842929        5.1995725220        2.2886983359
  C         7.7175873312        5.4846442158        1.6226371882
  C         2.2526398479        5.9045829980        2.2887233321
  C         8.8322988400        5.9743219371        3.6542707166
  C         7.6645671882        5.6581506159        4.3625318402
  C         6.4558065114        5.2947707687        3.6897535739
  C         7.4840106896        9.8115267229        8.5659021301
  C         8.4105867564       10.5849413239        9.3543513199
  C         6.5561988655       10.4780591398        7.7840177832
  C         9.3580051003        9.9806538417       10.2225323970
  C        10.1949873542       10.7317458443       11.0231781050
  C         4.2842241742        2.0124984514        8.4369300877
  C         3.4016335312        1.2518182199        7.7070803917
  C         5.2342633297        1.3922215407        9.3095647774
  C         6.0947891522        2.1303413782       10.1665915723
  C         6.9977259495        1.5081177891       11.0034141934
  N         4.3303240137        6.6147194921       16.4272347888
  N         7.6480325158        5.3619475783        0.2316657265
  N         6.5871750369        5.4649901574       12.4357816886
  N         5.2819388445        4.9892145991        4.3186777781
  O         6.5277998901        7.6203681088        8.3907743471
  O         8.8728729390        5.8703790115        6.3720952199
  O         3.3199215258        4.1495319969        8.4348239665
  O         5.1761034231        7.0553165399       10.3041166703
  O         5.4384512978        3.9502715354        7.7449167325
  O         2.9196280532        6.3238661731       10.1949286367
  O         8.7775056573        7.8445992153        8.2439044388
  O         6.5965311719        5.9941749335        6.3650976878
  O         4.3901980974        6.5072843323        7.6405306062
  O         7.8113533462        5.0513308368        8.5316713119
  F         2.5439821001        1.8663676823        6.8653360354
  F         5.6983293881        9.8145541793        6.9844129168
  O         6.0461453549        5.3795997426        9.5320597861
  H         5.2776934864        4.7847171533        9.7818271574
  H         6.1051687592        5.6583365758       10.3645382556
  C         4.3858501951        1.0296473120        1.6136866263
  H         3.5648861049        1.0903291062        0.8344670179
  H         3.9995297011        2.1136773688        1.6203483058
  H         3.4846032810        0.3427564579        1.7468830660
  H         3.8077498478        1.3874440602        2.5650127130
      68
 i =      118, E =      -435.4922473833
 Al         6.0652647541        5.6143864816        7.9833623146
 Al         9.3444362446        6.0140259118        8.2626622233
  H         4.5112486868        7.3809721448        7.5304276286
  H         8.0151767706        4.1747511727        8.7221648630
  H         8.8305909169        7.0474580381       12.4091797702
  H         8.8393506525        7.3363226088       14.9151496604
  H         6.2609929988        5.9321002407       14.9669910823
  H         5.6731206558        4.8799233365        1.7000108314
  H         3.1329132988        6.2009446628        1.7113104114
  H         3.0400695278        6.3225172387        4.2396186465
  H         9.4150264184        8.8792745552       10.2538976138
  H        10.8996518448       10.2226228177       11.6847568508
  H         6.0407410116        3.1959951183       10.2042089744
  H         7.6216858079        2.1034505901       11.6589041785
  H         6.9282668175        5.8361666075       11.5381395461
  H         7.3609276348        5.5092970397       13.0579497191
  H         5.1474850969        5.2645697448        5.2842630140
  H         4.4647455886        4.7852655914        3.7538696196
  C         7.6324935542        8.2935616109        8.3363273634
  C         7.7748017064        5.8396775555        5.7728257987
  C         4.3843230575        3.4382235628        8.1231503419
  C         4.0196830687        6.6053614753       10.9039374394
  C         4.1893702917        6.4717955782       12.2768728808
  C         9.6819628328        6.7778366801       13.0272626532
  C         9.6765895122        6.8867346907       14.3883960318
  C         4.2292351299        6.5631753877       15.0528166081
  C         5.3666084488        6.1215312127       14.3724354286
  C         5.3872533695        6.0669004228       12.9727634338
  C         6.5390110164        5.1869386379        2.2829663162
  C         7.7206328709        5.4821281048        1.6139785146
  C         2.2544053709        5.9066532707        2.2721301731
  C         8.8435088328        5.9669883935        3.6363571811
  C         7.6766293663        5.6513379656        4.3423971781
  C         6.4587951105        5.2886821850        3.6836683142
  C         7.5091072383        9.7941188222        8.5320870790
  C         8.3933260086       10.5586032519        9.3738085541
  C         6.5470485597       10.4655735943        7.7976154212
  C         9.3558002057        9.9600729102       10.2271016839
  C        10.1924351593       10.7182646462       11.0211371455
  C         4.3276579127        1.9869702198        8.4030161653
  C         3.3909349084        1.2408320772        7.7275689148
  C         5.2249912771        1.3639635755        9.3270271034
  C         6.0887788179        2.1139128140       10.1706731249
  C         6.9926758788        1.4941097401       11.0069484399
  N         4.3387518658        6.6413903673       16.4384060324
  N         7.6540912978        5.3530711889        0.2278312475
  N         6.5525587028        5.4806290672       12.4351598596
  N         5.2861825735        4.9928507694        4.3158016965
  O         6.5969252270        7.5981307769        8.3268182751
  O         8.9083789474        5.8918023001        6.3518461329
  O         3.4009374198        4.1633110120        8.4822628565
  O         5.0976989162        7.2737748093       10.3393771944
  O         5.4857620369        3.8885363014        7.6512807555
  O         3.0234799396        6.5208968543       10.1954861410
  O         8.8441300685        7.8704612187        8.2531411202
  O         6.6150387215        5.9599434878        6.3205399162
  O         4.3882797082        6.4090677797        7.6590885103
  O         7.8092053371        5.0923589103        8.4913796927
  F         2.5308670745        1.8022923016        6.8461004898
  F         5.6788777723        9.8319012841        6.9914402296
  O         5.9476088551        5.3536173427        9.6085311127
  H         5.1268215322        4.7941569443        9.8981581061
  H         6.0247814268        5.7203288473       10.4869578705
  C         4.4779574542        1.0018255678        1.6020173983
  H         3.5250301389        1.0866205155        0.8307093637
  H         3.9784324012        2.1389240182        1.5982782177
  H         3.5279736671        0.3181433589        1.7642566980
  H         3.7297038483        1.4274994759        2.5852054291
      68
 i =      119, E =      -435.5234239698
 Al         6.0892598039        5.5996511316        7.9785004462
 Al         9.3529465943        6.0325670601        8.2465808318
  H         4.5470707581        7.3304221057        7.5615774987
  H         7.9907649627        4.2122041756        8.7002614051
  H         8.7838356264        7.0535909980       12.4423194963
  H         8.8399919259        7.3272899364       14.9476746867
  H         6.2482367116        5.9039112868       14.9658599442
  H         5.6776742430        4.8727180788        1.6948315694
  H         3.1268052004        6.2114454477        1.6847081122
  H         3.0564105558        6.3161894918        4.2196691223
  H         9.4251708593        8.8664655949       10.2551074468
  H        10.9093262890       10.2168632031       11.6780285122
  H         6.0401505721        3.1804648001       10.1808968903
  H         7.6186976181        2.0979150437       11.6517877660
  H         6.9513642089        5.8935017924       11.5643314779
  H         7.3180133454        5.4896632689       13.0872120732
  H         5.1563801173        5.2696528379        5.2793871026
  H         4.4729867311        4.7955622435        3.7448463743
  C         7.6588379346        8.2990431615        8.3392404473
  C         7.7805823555        5.8295378539        5.7571887283
  C         4.4121501393        3.4360157396        8.1214380785
  C         4.0752803165        6.8553614753       10.8552591464
  C         4.1462321239        6.4130014111       12.2922291304
  C         9.6761469444        6.8401362532       13.0292113426
  C         9.6712539470        6.8900067217       14.3999851504
  C         4.2146584535        6.5375949915       15.0590326668
  C         5.3573731218        6.1315578451       14.3780598382
  C         5.3825525087        6.1264703174       12.9739157717
  C         6.5428632484        5.1773305619        2.2802275843
  C         7.7219052680        5.4820519301        1.6148175660
  C         2.2588985559        5.9104062519        2.2594442787
  C         8.8549979627        5.9657715557        3.6222724132
  C         7.6876369732        5.6523700192        4.3264296856
  C         6.4649851291        5.2865325634        3.6799157986
  C         7.5273208908        9.7911513995        8.5049870020
  C         8.3946778459       10.5472449875        9.3707903219
  C         6.5396316016       10.4597462280        7.8015579280
  C         9.3468159209        9.9465273170       10.2339456359
  C        10.1871830355       10.7051859184       11.0252623850
  C         4.3423257860        1.9823870596        8.3881533204
  C         3.3942261085        1.2339594943        7.7301321634
  C         5.2255420620        1.3512717099        9.3212302726
  C         6.0842624760        2.0974918870       10.1712923738
  C         6.9861242105        1.4802887413       11.0108163149
  N         4.3371860730        6.6492254991       16.4425246163
  N         7.6568261077        5.3435516149        0.2337269838
  N         6.5434437671        5.5260712233       12.4268163863
  N         5.2930228908        4.9958899227        4.3114726221
  O         6.6367684773        7.5962050004        8.3161805311
  O         8.9162797570        5.8885733289        6.3220087447
  O         3.4466039345        4.1816967908        8.5314372352
  O         5.0131689195        7.2610829467       10.3728491403
  O         5.5170682797        3.8582910666        7.6161353045
  O         3.0039863923        6.4625570014       10.2169353094
  O         8.8614024424        7.8747162493        8.2384047038
  O         6.6197783686        5.9297257869        6.3053982340
  O         4.4150186331        6.3634418667        7.6680401353
  O         7.8216007598        5.1290318530        8.4708904051
  F         2.5142827474        1.7606875060        6.8428902942
  F         5.6759542106        9.8195185149        6.9988463228
  O         5.8928066282        5.3306420892        9.6626846296
  H         5.1062180465        4.7775244384        9.9419110119
  H         5.9803949162        5.7378261001       10.5659735936
  C         4.4833324918        1.0005806177        1.5998985616
  H         3.4847874937        1.0983093847        0.8372227604
  H         4.0029167759        2.1362916737        1.5868366009
  H         3.5575441889        0.3087311719        1.7705709127
  H         3.7069038961        1.4372120291        2.5858215554
      68
 i =      120, E =      -435.5582872095
 Al         6.1203853484        5.6304189005        7.9839650011
 Al         9.3793162832        6.0291058706        8.2218534235
  H         4.5512865620        7.3435538471        7.5593149290
  H         7.9810675419        4.2065173185        8.7210541750
  H         8.7772085394        7.0806310721       12.4440107501
  H         8.8349605765        7.3082933362       14.9535778529
  H         6.2467952771        5.8865944317       14.9628067962
  H         5.6777041209        4.8663919194        1.6920890294
  H         3.1291283730        6.2137887656        1.6773885439
  H         3.0629808806        6.3162232222        4.2160106719
  H         9.4257578243        8.8677369006       10.2547631916
  H        10.9126166630       10.2082176248       11.6748603604
  H         6.0436454366        3.1750695669       10.1716289707
  H         7.6191159914        2.0859852914       11.6498088296
  H         6.9639328406        5.9271714337       11.5609008037
  H         7.3066556014        5.4750821537       13.0967715370
  H         5.1607957709        5.2698335879        5.2739625035
  H         4.4773460604        4.7981842930        3.7430458722
  C         7.6782119820        8.3015071779        8.3871171026
  C         7.7666611000        5.8049542817        5.7495409488
  C         4.4259887286        3.4424957524        8.1629414862
  C         4.0297081836        6.7623261216       10.8618806770
  C         4.1539977338        6.4010086714       12.3103146951
  C         9.6585387415        6.8048727439       13.0218934122
  C         9.6773869329        6.9299144085       14.3885958505
  C         4.2101711086        6.5479030271       15.0512806832
  C         5.3656738005        6.1724597344       14.3830239409
  C         5.3743627410        6.0749542726       12.9934904268
  C         6.5388448079        5.1784941378        2.2797167360
  C         7.7200881718        5.4846812243        1.6211577051
  C         2.2625779356        5.9145763783        2.2537128709
  C         8.8616990651        5.9715464579        3.6154383339
  C         7.6957142190        5.6572438192        4.3204298426
  C         6.4738921124        5.2853793152        3.6790599599
  C         7.5116319703        9.7874049201        8.5280122040
  C         8.4145876063       10.5491887547        9.3467561433
  C         6.5472856088       10.4468948505        7.7897738884
  C         9.3427242353        9.9487957273       10.2384465462
  C        10.1837423516       10.7036954048       11.0338392567
  C         4.3043261785        1.9846116016        8.4078488184
  C         3.4049490033        1.2208369051        7.7074432987
  C         5.2316024700        1.3527572947        9.2945593068
  C         6.0765928214        2.0909451926       10.1643394523
  C         6.9789035957        1.4782610408       11.0076048606
  N         4.3240059107        6.6251117641       16.4367783407
  N         7.6524072154        5.3335681430        0.2425316706
  N         6.5516463043        5.5677573918       12.4140681272
  N         5.2990752488        4.9985966291        4.3058375125
  O         6.6372250121        7.6097697943        8.3152280957
  O         8.8996313744        5.8774305833        6.3148702971
  O         3.4525029239        4.1693485609        8.5366796303
  O         5.0740419943        7.3805506969       10.3755055637
  O         5.5083063283        3.8860339198        7.6148997302
  O         2.9241477661        6.3017296874       10.2292556919
  O         8.8543062597        7.8496620052        8.2119355614
  O         6.6222387990        5.9332464426        6.3117559348
  O         4.4484618101        6.3804228000        7.6612450318
  O         7.8292246053        5.1332566726        8.4925732789
  F         2.5184079622        1.8265880241        6.8809045642
  F         5.6925329388        9.7877074775        6.9898531499
  O         5.8864934252        5.3556466249        9.6658615596
  H         5.0894631425        4.8152281998        9.9442961001
  H         5.9955448106        5.7646647989       10.5636784813
  C         4.4599146329        1.0071176685        1.6002073850
  H         3.4918367792        1.1021822918        0.8475933551
  H         4.0177113746        2.1216746324        1.5849204695
  H         3.5672031775        0.3176245571        1.7700214591
  H         3.6968651836        1.4363637255        2.5774848829
      68
 i =      121, E =      -435.5794302441
 Al         6.1227239139        5.6426731852        7.9951318126
 Al         9.3923396547        6.0291245314        8.2284573142
  H         4.5725656729        7.3646595342        7.5623967585
  H         7.9750755728        4.2042349029        8.7381237688
  H         8.7779698275        7.1005090654       12.4485366201
  H         8.8300015934        7.3051522180       14.9639301861
  H         6.2374328890        5.8858904329       14.9598744074
  H         5.6827187357        4.8595225353        1.6902066381
  H         3.1254804944        6.2161996342        1.6682649799
  H         3.0685823176        6.3148827496        4.2087420943
  H         9.4228738521        8.8605997214       10.2568116756
  H        10.9106693005       10.2001000118       11.6733728831
  H         6.0438000842        3.1781659267       10.1638097618
  H         7.6170443830        2.0801766247       11.6476487163
  H         6.9936960651        6.0027391538       11.5773388970
  H         7.2941429075        5.4604843152       13.0998086755
  H         5.1645863695        5.2688587217        5.2704022308
  H         4.4825147978        4.8022232926        3.7409094343
  C         7.6741589656        8.2962659509        8.3312130816
  C         7.7784505196        5.8180158565        5.7494152989
  C         4.4161751645        3.4347629026        8.1311420688
  C         4.0272756011        6.7368367103       10.8682142399
  C         4.1587437160        6.4518542445       12.3061737579
  C         9.6436936411        6.7861001541       13.0321143852
  C         9.6713074516        6.9273679975       14.3975200198
  C         4.2211678302        6.5853276627       15.0505234692
  C         5.3538337998        6.1495338995       14.3783326319
  C         5.3655042557        6.0882292951       12.9876336172
  C         6.5440202370        5.1800442905        2.2735146124
  C         7.7233357421        5.4778711007        1.6105464175
  C         2.2590654075        5.9213465593        2.2476611107
  C         8.8619836291        5.9744489114        3.6108449420
  C         7.7008421108        5.6440740465        4.3221443738
  C         6.4777045928        5.2909660952        3.6714235286
  C         7.5153327836        9.7793721119        8.5360513653
  C         8.4145443263       10.5469486968        9.3513770944
  C         6.5661942369       10.4389499369        7.7729362789
  C         9.3545022835        9.9415554729       10.2269680826
  C        10.1798617432       10.6982006035       11.0362340535
  C         4.3237442951        1.9765468358        8.3991444392
  C         3.4037918116        1.2183091840        7.7151100364
  C         5.2377408234        1.3489708457        9.3025706028
  C         6.0891689077        2.0955303581       10.1555580698
  C         6.9760086654        1.4729654348       11.0072154198
  N         4.3168122063        6.6028590780       16.4384932937
  N         7.6400835726        5.3265928049        0.2328029735
  N         6.5393851492        5.5638355591       12.4176602666
  N         5.3057854645        5.0006793363        4.3018057209
  O         6.6383295199        7.6085254150        8.3433642191
  O         8.9052870998        5.8620855879        6.3274950616
  O         3.4569093957        4.1609336521        8.5649247016
  O         5.0440711816        7.3620536772       10.3852217194
  O         5.4977920827        3.8827847791        7.6293733555
  O         2.9629039236        6.3490044100       10.2086698262
  O         8.8713271924        7.8500430756        8.2105077952
  O         6.6344828205        5.9299484041        6.3212284807
  O         4.4553424809        6.4015873238        7.6586960871
  O         7.8203924731        5.1365657884        8.4958591905
  F         2.5383724177        1.8490670673        6.8822891815
  F         5.6900229720        9.7660312928        7.0016204065
  O         5.8489996969        5.3428582282        9.6804100514
  H         5.0659414679        4.8072679155        9.9411043148
  H         5.9684280248        5.7526894249       10.5763997735
  C         4.4280931457        1.0169262005        1.6014373729
  H         3.4853558251        1.1044723194        0.8533425909
  H         4.0461404238        2.1100991947        1.5756431498
  H         3.5600930434        0.3243375277        1.7781222285
  H         3.7112333151        1.4348354063        2.5715777129
      68
 i =      122, E =      -435.5991016636
 Al         6.1474874316        5.6598024813        8.0095142907
 Al         9.4195377920        6.0346917498        8.2416771581
  H         4.6213044635        7.3904672348        7.5817041588
  H         7.9554136426        4.2123008700        8.7608653182
  H         8.7617156140        7.1269929070       12.4669636456
  H         8.8187301249        7.2979900057       14.9914430448
  H         6.2111602162        5.8690245950       14.9513104729
  H         5.6929072990        4.8445579647        1.6868555649
  H         3.1151305660        6.2271823648        1.6427624915
  H         3.0821078801        6.3129422212        4.1846386408
  H         9.4227423590        8.8432939369       10.2550068784
  H        10.9056497094       10.1857474536       11.6731552719
  H         6.0532029713        3.1708822222       10.1411793730
  H         7.6159337717        2.0693793379       11.6490253071
  H         7.0000610615        6.1249488879       11.6135067172
  H         7.2614450081        5.4177948740       13.1166183142
  H         5.1785219916        5.2700319859        5.2662025540
  H         4.4952664732        4.8136919672        3.7299808700
  C         7.6978926035        8.2947524705        8.3575345818
  C         7.7971533988        5.7920277041        5.7550106161
  C         4.4284482101        3.4313214977        8.1735266824
  C         4.0412604180        6.7402321356       10.8709798126
  C         4.1382223232        6.4799704246       12.3110711963
  C         9.6330068650        6.8212230315       13.0459155977
  C         9.6579174616        6.9302030871       14.4132697849
  C         4.2112238097        6.5767887884       15.0525001102
  C         5.3347710118        6.1445979486       14.3672939649
  C         5.3528880701        6.1386853227       12.9760678243
  C         6.5499566042        5.1755686480        2.2711601587
  C         7.7210694034        5.4640474645        1.5963488426
  C         2.2528628949        5.9285501370        2.2290884804
  C         8.8681647881        5.9704601618        3.5955442749
  C         7.7091200195        5.6502534707        4.3223014267
  C         6.4899003702        5.2900384344        3.6673071356
  C         7.5530564623        9.7760575547        8.4846393432
  C         8.4119177587       10.5333033667        9.3542533978
  C         6.5522290402       10.4234398088        7.7623260688
  C         9.3603851711        9.9249102872       10.2207967474
  C        10.1814340091       10.6857394238       11.0302126921
  C         4.3564594152        1.9579960860        8.3761541990
  C         3.4136962119        1.2115898634        7.7019366006
  C         5.2535123288        1.3342181814        9.3005186666
  C         6.1038181525        2.0879874502       10.1455922564
  C         6.9790918346        1.4615974540       11.0067589858
  N         4.3185034648        6.5862119127       16.4369837147
  N         7.6368757267        5.3210807051        0.2196705618
  N         6.5395049148        5.6444129066       12.4062415464
  N         5.3163016906        5.0072589278        4.2960995092
  O         6.6479040176        7.6032557321        8.3403022249
  O         8.9273844866        5.8649537229        6.3385421236
  O         3.4752029528        4.1464089817        8.5819456898
  O         4.9904473015        7.3736663269       10.4070791369
  O         5.4860278131        3.8779331688        7.6060232979
  O         3.0326222982        6.3905146327       10.1853854311
  O         8.8871257250        7.8486982516        8.1491689370
  O         6.6527834904        5.9451573845        6.3209519344
  O         4.4809622856        6.4273500306        7.6623734787
  O         7.8132130633        5.1500541971        8.5234902924
  F         2.5429294054        1.8479546141        6.8764054544
  F         5.6734743712        9.7182521966        7.0031473575
  O         5.7598829118        5.3019871566        9.7168335709
  H         4.9819783816        4.7852588439        9.9422539327
  H         5.9075606876        5.7216917017       10.6131788532
  C         4.3785234080        1.0326079442        1.6019229977
  H         3.4604238161        1.1101985101        0.8695097740
  H         4.0945916675        2.0926944443        1.5513297260
  H         3.5575281446        0.3332919510        1.7998344878
  H         3.7330287181        1.4369962767        2.5571568260
      68
 i =      123, E =      -435.6187119574
 Al         6.1955710171        5.6904075087        8.0316354475
 Al         9.4474945217        6.0383364269        8.2333738917
  H         4.6739405791        7.4045399715        7.6163689668
  H         7.9308764528        4.2258890035        8.7844603909
  H         8.7310585652        7.1580854158       12.4902347251
  H         8.8060605918        7.2900704384       15.0230290857
  H         6.1867476186        5.8426622793       14.9426200837
  H         5.7005652088        4.8249423739        1.6873990936
  H         3.1007639866        6.2439118254        1.6102200316
  H         3.1042844839        6.3120275703        4.1530603998
  H         9.4283799747        8.8221316661       10.2492737567
  H        10.9002922752       10.1679442583       11.6733181874
  H         6.0733416474        3.1517420457       10.1117840638
  H         7.6169783030        2.0520672901       11.6529264452
  H         7.0128547538        6.2952885742       11.6615892723
  H         7.2146471379        5.3783177860       13.1069779044
  H         5.1981411709        5.2730157190        5.2656114920
  H         4.5118527994        4.8289635334        3.7158635999
  C         7.7106113803        8.2917881855        8.2891160663
  C         7.8251091423        5.8142155659        5.7520327571
  C         4.4317498013        3.4222036462        8.1122881632
  C         4.0636160607        6.7924831058       10.8637675081
  C         4.1071730870        6.4847689280       12.3208374991
  C         9.6237241928        6.8829268178       13.0509700652
  C         9.6411977652        6.9397807025       14.4225881055
  C         4.1832865270        6.5384943143       15.0538765548
  C         5.3171530523        6.1577235405       14.3653857525
  C         5.3355162881        6.1998460450       12.9759445497
  C         6.5556238384        5.1585575086        2.2729969781
  C         7.7150319835        5.4666003531        1.5936028901
  C         2.2542144328        5.9268672335        2.2140338602
  C         8.8776410612        5.9730088697        3.5803625594
  C         7.7280563476        5.6340782519        4.3192365905
  C         6.5001301924        5.2926682911        3.6666086130
  C         7.5632118915        9.7638678787        8.4794450454
  C         8.4419369933       10.5155997757        9.3251820595
  C         6.5681150139       10.4127477897        7.7465891710
  C         9.3557329028        9.9042025719       10.2257734849
  C        10.1829177189       10.6684012157       11.0244955207
  C         4.3658036468        1.9439712442        8.3741682242
  C         3.4312953855        1.2052411896        7.6765248757
  C         5.2706000781        1.3148124932        9.2837020989
  C         6.1124261036        2.0667908290       10.1373870124
  C         6.9883855299        1.4457076946       11.0017628855
  N         4.3168626124        6.5681935625       16.4320438599
  N         7.6399542126        5.3097118900        0.2218986464
  N         6.5282490827        5.7411592435       12.3855632270
  N         5.3267710163        5.0164314333        4.2931324829
  O         6.6766162964        7.5900426247        8.3907968169
  O         8.9593367771        5.8320256318        6.3281416707
  O         3.4975258309        4.1334388437        8.6340057068
  O         4.9636934870        7.4733495592       10.4458786911
  O         5.4816018208        3.8806539007        7.5854464949
  O         3.0665787046        6.2890359425       10.1686200276
  O         8.9103157781        7.8434166653        8.1198381952
  O         6.6700624824        5.9283683367        6.3169999367
  O         4.5182858622        6.4381988733        7.6691666043
  O         7.8173880853        5.1670027060        8.5796731721
  F         2.5357284191        1.8172597171        6.8563260976
  F         5.6641370302        9.7103577147        7.0022958265
  O         5.6545661771        5.2587011029        9.7711317320
  H         4.8478659622        4.7742119769        9.9595904905
  H         5.8463184542        5.6921058793       10.6665432416
  C         4.3387239417        1.0453811939        1.6002496055
  H         3.4225599491        1.1139979872        0.8944221101
  H         4.1333747215        2.0819485816        1.5149113308
  H         3.5764886332        0.3357197551        1.8326160926
  H         3.7434041391        1.4499119904        2.5370243939
      68
 i =      124, E =      -435.6348514775
 Al         6.2210161647        5.7160007948        8.0520429737
 Al         9.4709330969        6.0314044281        8.2370188415
  H         4.6909059117        7.4179396034        7.6395477920
  H         7.9324807175        4.2228448432        8.8123777514
  H         8.7144900451        7.1905553766       12.4999376074
  H         8.8005102606        7.2885672626       15.0313370860
  H         6.1782888027        5.8337226225       14.9360171398
  H         5.7014486630        4.8088677673        1.6967499605
  H         3.0940263523        6.2556211004        1.5923528895
  H         3.1228673914        6.3172023204        4.1373098423
  H         9.4312274888        8.8171163597       10.2470193695
  H        10.8967410480       10.1521838444       11.6784715703
  H         6.0892880048        3.1346840070       10.0966515326
  H         7.6173047234        2.0308199228       11.6499879997
  H         7.0193579032        6.4347793299       11.6986002635
  H         7.1868895136        5.3998532591       13.0362863564
  H         5.2078276873        5.2748925622        5.2705716189
  H         4.5207914618        4.8399292469        3.7145928866
  C         7.7260651189        8.2774149673        8.3004903392
  C         7.8465309669        5.7913744619        5.7510946913
  C         4.4455969983        3.4308555367        8.1437711657
  C         4.0769396245        6.8199936705       10.8529318740
  C         4.1068804051        6.5171742308       12.3167727776
  C         9.6106112395        6.8932535078       13.0457707924
  C         9.6313854531        6.9435352807       14.4192065970
  C         4.1677381468        6.5344906635       15.0543984569
  C         5.3051728526        6.1605256861       14.3713358199
  C         5.3212329210        6.2201424791       12.9875112413
  C         6.5585647942        5.1520074690        2.2757758643
  C         7.7173040310        5.4665814741        1.6012057665
  C         2.2596252664        5.9323900559        2.2090688344
  C         8.8950402639        5.9693937986        3.5748791614
  C         7.7425388579        5.6445819752        4.3128467168
  C         6.5128491567        5.2829885341        3.6709629711
  C         7.5726778735        9.7474663889        8.4667800365
  C         8.4513950235       10.5085992851        9.3024760027
  C         6.5902106712       10.4075968880        7.7351487629
  C         9.3634665427        9.8988373768       10.2056770111
  C        10.1779363213       10.6503164239       11.0290941462
  C         4.3758108588        1.9417994239        8.3433080761
  C         3.4319063228        1.1965869687        7.6663208638
  C         5.2736522753        1.3085256013        9.2572723109
  C         6.1215241082        2.0492686801       10.1185273655
  C         6.9923746382        1.4283129296       10.9893841265
  N         4.2964470374        6.5362252954       16.4317069979
  N         7.6262007214        5.2972511099        0.2351130301
  N         6.5022088427        5.7690869898       12.3645166731
  N         5.3331536354        5.0297362074        4.2945123416
  O         6.6938178102        7.5703329404        8.4405796388
  O         8.9831408508        5.8027933170        6.3294991320
  O         3.4930061909        4.1109667096        8.6178277703
  O         4.9661736980        7.5774492342       10.4712054253
  O         5.4822246205        3.8886354743        7.5649210629
  O         3.0910739271        6.2406551161       10.1587547601
  O         8.9180215196        7.8314108026        8.0963972779
  O         6.7037779195        5.9342831731        6.3311377266
  O         4.5378628778        6.4490846409        7.6696270985
  O         7.8200939114        5.1652759278        8.6139841924
  F         2.5473114889        1.8153651930        6.8390904901
  F         5.6795715256        9.7064696592        7.0010167799
  O         5.5790269735        5.2182997630        9.8032856631
  H         4.7214973566        4.7641864584        9.9640838298
  H         5.8062437520        5.6496759186       10.6911461687
  C         4.3182639336        1.0521305490        1.5983554934
  H         3.3773433345        1.1046203111        0.9174452980
  H         4.1596303464        2.0828692185        1.4678909136
  H         3.6080810608        0.3257931239        1.8753150523
  H         3.7432556458        1.4795592915        2.5198233252
      68
 i =      125, E =      -435.6477575525
 Al         6.2598105953        5.7626221432        8.1109547057
 Al         9.5142329633        6.0158029831        8.2551480793
  H         4.6937783334        7.4529815426        7.6784029457
  H         7.9488977332        4.2082107912        8.8785407754
  H         8.7003690996        7.2584548869       12.5062372914
  H         8.7877038799        7.2890537182       15.0266021978
  H         6.1611355679        5.8278310036       14.9227382216
  H         5.7064437628        4.7792382089        1.7271725924
  H         3.0815908287        6.2752627632        1.5695701633
  H         3.1559848817        6.3280266085        4.1157665637
  H         9.4321992948        8.8025751300       10.2335902772
  H        10.8792478895       10.1167000439       11.6931479961
  H         6.1205164230        3.1102208079       10.0715305443
  H         7.6199199793        1.9891540521       11.6397225243
  H         6.9276966924        6.6066324658       11.7380860903
  H         7.1485659671        5.4359492149       12.8863466511
  H         5.2199624419        5.2764253342        5.2910369412
  H         4.5393504696        4.8603609292        3.7280103037
  C         7.7498730158        8.2537262258        8.3691942812
  C         7.8899678481        5.7523598736        5.7628989627
  C         4.4469754915        3.4289453508        8.0889035482
  C         4.0991683513        6.8643922213       10.8335349241
  C         4.1211397577        6.6044457946       12.3016814713
  C         9.5877362836        6.8971553967       13.0339383268
  C         9.6165564913        6.9491554648       14.4097222994
  C         4.1413971979        6.5220866602       15.0549541899
  C         5.2869871057        6.1671654146       14.3729895828
  C         5.2938334014        6.2259071204       13.0057494912
  C         6.5684851272        5.1390054041        2.2931203936
  C         7.7214469893        5.4551778714        1.6121154976
  C         2.2649452664        5.9416760629        2.2006296375
  C         8.9252072397        5.9743867122        3.5656665318
  C         7.7832434305        5.6449141231        4.3158185104
  C         6.5374472401        5.2846596009        3.6902553012
  C         7.5892435453        9.7271997542        8.4307962602
  C         8.4740818742       10.4901911295        9.2591146579
  C         6.6192981152       10.3969255972        7.7114678719
  C         9.3795926402        9.8833093509       10.1693270936
  C        10.1786277336       10.6165520410       11.0242659572
  C         4.3837556021        1.9363645148        8.3145033331
  C         3.4644894028        1.1754730016        7.6324001617
  C         5.2998348931        1.2930215246        9.2011467855
  C         6.1511907472        2.0253513346       10.0749496274
  C         6.9952383026        1.3945109565       10.9676113286
  N         4.2509498767        6.4695271485       16.4312478595
  N         7.5891708987        5.2771485453        0.2539130463
  N         6.5032006912        5.9762712127       12.2836560360
  N         5.3495849104        5.0609908383        4.3076980188
  O         6.7095034187        7.5362464324        8.5219019970
  O         9.0314486871        5.7138341552        6.3452297976
  O         3.4750662600        4.0748436844        8.6010933994
  O         4.9726823319        7.7539731454       10.5211411031
  O         5.4865732023        3.8985419924        7.5734435341
  O         3.1584958470        6.2307210392       10.1337937978
  O         8.9160553732        7.8108719100        8.0764292929
  O         6.7735121215        5.9589059114        6.3750014546
  O         4.5699224793        6.4836302674        7.6782560253
  O         7.8341360794        5.1558390940        8.7164028271
  F         2.5634906429        1.7986884326        6.8311466501
  F         5.6976005224        9.7096669816        6.9905277444
  O         5.4395124901        5.1274253912        9.8703556898
  H         4.4862040428        4.7353742633        9.9698347307
  H         5.7315990777        5.5402725158       10.7351741122
  C         4.2640315546        1.0699463223        1.5959414856
  H         3.2575537498        1.0622496057        0.9700777921
  H         4.2445665982        2.0847305174        1.3332027314
  H         3.6965694015        0.2893516788        1.9949233109
  H         3.7267935656        1.5776336829        2.4838484288
      68
 i =      126, E =      -435.6792870101
 Al         6.2822105171        5.7957139403        8.1625953989
 Al         9.5475529508        5.9991928022        8.2740010329
  H         4.6835147090        7.4828772388        7.7076116119
  H         7.9645910205        4.2012869742        8.9344719736
  H         8.6937159285        7.3076937440       12.4997674813
  H         8.7715489224        7.2892946399       15.0130915839
  H         6.1457104700        5.8266231282       14.9135541397
  H         5.7146207889        4.7592727790        1.7581017261
  H         3.0700663164        6.2888504307        1.5585919690
  H         3.1766920333        6.3351814014        4.1006022581
  H         9.4295984774        8.7851996813       10.2136939082
  H        10.8563418369       10.0874838971       11.7037320303
  H         6.1452988336        3.0974175959       10.0504743902
  H         7.6244210290        1.9606274469       11.6328686720
  H         6.8885821011        6.8566324658       11.7686944775
  H         7.1109918612        5.4736120070       12.7459161964
  H         5.2283396188        5.2784040725        5.3150473447
  H         4.5572679448        4.8754426513        3.7468433893
  C         7.7628782317        8.2422815744        8.4218721638
  C         7.9249769470        5.7282824496        5.7856418916
  C         4.4492504709        3.4168674785        8.0487094065
  C         4.1144100356        6.9058292775       10.8202373754
  C         4.1128993784        6.6454285913       12.2956614139
  C         9.5736365633        6.9268783261       13.0251123023
  C         9.6050545340        6.9515766575       14.4050848694
  C         4.1189386932        6.4843642803       15.0538474756
  C         5.2768454695        6.1671368197       14.3605799628
  C         5.2900444694        6.2737031019       12.9954668237
  C         6.5778526384        5.1274629954        2.3186503828
  C         7.7186127765        5.4403468458        1.6160635842
  C         2.2626242604        5.9435234917        2.1931012018
  C         8.9399924437        5.9825204687        3.5589245333
  C         7.8175053103        5.6344168861        4.3336426773
  C         6.5556054254        5.2978046825        3.7151970449
  C         7.6010441106        9.7215057341        8.4058217360
  C         8.5026478679       10.4773731936        9.2238881312
  C         6.6276102521       10.3815837644        7.6952735526
  C         9.3832972045        9.8654772125       10.1546195474
  C        10.1869996561       10.5947259544       11.0058906319
  C         4.3906863084        1.9238169819        8.3004834530
  C         3.5048972432        1.1523296054        7.5965693246
  C         5.3344209682        1.2823528386        9.1588371857
  C         6.1798430895        2.0131495389       10.0446707705
  C         7.0010922836        1.3718711595       10.9530609556
  N         4.2255967530        6.4268030697       16.4280929656
  N         7.5672361724        5.2671832948        0.2598091578
  N         6.4628352981        6.0021547374       12.2173036455
  N         5.3655218569        5.0845387969        4.3279137983
  O         6.7173119576        7.5127973127        8.5804840327
  O         9.0743003473        5.6383464834        6.3609868341
  O         3.4599228220        4.0473885628        8.5686791025
  O         4.9711231142        7.8502328988       10.5518933966
  O         5.4922991066        3.9038682740        7.5906856585
  O         3.2152926355        6.2721281144       10.1161034289
  O         8.9018788301        7.7898073261        8.0695293657
  O         6.8231555064        5.9760932332        6.4135149568
  O         4.5902758900        6.5131788356        7.6864783951
  O         7.8480927696        5.1551399498        8.8065588591
  F         2.5669691785        1.7630980564        6.8339998578
  F         5.7039129065        9.7097680289        6.9724615394
  O         5.3362247716        5.0495555269        9.9186038166
  H         4.3327515877        4.7040699184        9.9634165763
  H         5.6763156475        5.4415894163       10.7631342338
  C         4.1999338582        1.0902990767        1.5956732773
  H         3.1384443560        1.0143679093        1.0188271849
  H         4.3532180338        2.0769611683        1.1960368533
  H         3.8046525057        0.2463112882        2.1109554967
  H         3.6790378576        1.6887311676        2.4557367546
      68
 i =      127, E =      -435.7104601093
 Al         6.2833053671        5.8350731832        8.2321591267
 Al         9.5842975109        5.9591048038        8.3033314420
  H         4.6437664392        7.5236444086        7.7425280959
  H         7.9920693118        4.1985322153        9.0155671236
  H         8.7005988908        7.3652690673       12.4672370442
  H         8.7438873713        7.2910603236       14.9771855073
  H         6.1369442095        5.8337301710       14.9015839092
  H         5.7244198328        4.7404746174        1.8152510554
  H         3.0534997390        6.3005365768        1.5604919345
  H         3.1945513373        6.3474951295        4.0877616819
  H         9.4171118444        8.7665564832       10.1798207838
  H        10.8165556503       10.0514759409       11.7118569767
  H         6.1759171327        3.0900615320       10.0265708964
  H         7.6333290205        1.9286293985       11.6267737529
  H         6.7968015602        7.1066324658       11.7921878163
  H         7.0982298149        5.5054930101       12.5313276797
  H         5.2369710654        5.2842265823        5.3621822615
  H         4.5832218410        4.8899305234        3.7879808520
  C         7.7517452454        8.2234688839        8.3957112228
  C         7.9682446904        5.7074795793        5.8333766915
  C         4.4651291396        3.4030437638        8.1102208583
  C         4.1384070267        6.9777428949       10.8038977111
  C         4.0883090303        6.6807929988       12.2877855398
  C         9.5632926431        6.9874068575       13.0084051138
  C         9.5844620840        6.9377637607       14.3948553573
  C         4.0973340451        6.4404937537       15.0408152561
  C         5.2703642466        6.1483563496       14.3353642687
  C         5.2888166128        6.3554344834       12.9625646961
  C         6.5912154351        5.1199207521        2.3628552189
  C         7.7117436609        5.4254633071        1.6202004220
  C         2.2538422121        5.9405549649        2.1960210643
  C         8.9459304413        5.9847023835        3.5662208170
  C         7.8469368925        5.6245183919        4.3773011269
  C         6.5774760020        5.3083532381        3.7580169560
  C         7.5995077075        9.7104395228        8.4242018466
  C         8.5474532782       10.4799752629        9.1788316518
  C         6.6599764958       10.3534106541        7.6667862332
  C         9.3875169673        9.8466479436       10.1313944469
  C        10.1899817871       10.5741116345       10.9798919458
  C         4.4288960180        1.8992220675        8.2415021719
  C         3.5325292668        1.1168032655        7.5733750517
  C         5.3800647440        1.2857885316        9.1138071075
  C         6.2244546874        2.0073420471       10.0102722831
  C         7.0247481411        1.3499004649       10.9256492263
  N         4.2024373267        6.3703909366       16.4154694014
  N         7.5499797892        5.2528624366        0.2606372372
  N         6.4234682042        6.0924491403       12.1223039438
  N         5.3863165142        5.1165384948        4.3722249927
  O         6.7183245071        7.4862044153        8.6979737264
  O         9.1269354365        5.5375886244        6.3924972937
  O         3.4163084576        4.0029492172        8.4480098837
  O         4.9815338816        7.8866876056       10.5651905635
  O         5.5035538523        3.9116571666        7.6201529291
  O         3.2809748092        6.3754408876       10.0990588307
  O         8.8686123780        7.7413283043        8.0954669664
  O         6.8813412796        5.9925752913        6.4730454600
  O         4.5938279343        6.5485605306        7.6929858706
  O         7.8608550273        5.1625693145        8.9040291338
  F         2.5875094591        1.7355116629        6.8384453438
  F         5.7262464761        9.7032245704        6.9504278417
  O         5.2315043601        4.9467889363        9.9503491908
  H         4.2135902347        4.6517272833        9.9188057892
  H         5.6306069199        5.2956693277       10.7621411165
  C         4.0506239003        1.1357875132        1.6017533673
  H         2.9466828485        0.9478710851        1.0942779288
  H         4.5770946818        2.0403489748        0.9882679682
  H         4.0402590213        0.1636018203        2.2710022652
  H         3.5419463436        1.8730531819        2.4208583538
      68
 i =      128, E =      -435.7600693024
 Al         6.2237299727        5.7903248161        8.1960033763
 Al         9.5344136281        5.9607701495        8.2868173441
  H         4.6000448213        7.4960485865        7.7072907153
  H         7.9909258632        4.2106822498        8.9748012231
  H         8.7299838921        7.3130167175       12.4372679967
  H         8.7489377797        7.2926012271       14.9558713424
  H         6.1633104904        5.8512702033       14.9084801473
  H         5.7160823045        4.7696809648        1.8159892755
  H         3.0647762395        6.2786354856        1.5994049783
  H         3.1623810572        6.3441644042        4.1181204747
  H         9.4055742166        8.7828098811       10.1821407414
  H        10.8206798787       10.0804585889       11.6995999931
  H         6.1531429136        3.1149232362       10.0519143075
  H         7.6366735335        1.9637091024       11.6332385826
  H         6.8343864823        6.8988779464       11.7376611092
  H         7.1619807864        5.5004819214       12.5826099117
  H         5.2239339743        5.2852845944        5.3677245074
  H         4.5697637534        4.8685949077        3.8030013063
  C         7.7194638593        8.2341450214        8.3838250352
  C         7.9304253594        5.7245148567        5.8407205075
  C         4.4538484756        3.3962142079        8.1255020228
  C         4.1171587027        6.9558561368       10.8202677468
  C         4.0864241531        6.6334974147       12.2912093270
  C         9.5840119025        6.9748584185       13.0089752058
  C         9.5944759054        6.9247064356       14.3910935150
  C         4.1211635994        6.4570027538       15.0321418969
  C         5.2920729793        6.1413299426       14.3268888866
  C         5.3036937154        6.3194047155       12.9421308190
  C         6.5843784042        5.1372487211        2.3627604365
  C         7.7097806470        5.4313763035        1.6169201047
  C         2.2463577899        5.9309777324        2.2178079361
  C         8.9169186633        5.9749883962        3.5910771186
  C         7.8064028549        5.6322999969        4.3914573849
  C         6.5578170273        5.3038098407        3.7572894465
  C         7.5867134410        9.7262108936        8.4467434876
  C         8.5168204816       10.4949997340        9.2236958803
  C         6.6354091568       10.3661429241        7.6849216554
  C         9.3845576304        9.8635597635       10.1460315471
  C        10.1856493511       10.6057182548       10.9823291366
  C         4.4352970059        1.9041239100        8.2615392326
  C         3.5052498112        1.1381246681        7.6089478504
  C         5.3738478502        1.2987621182        9.1555411060
  C         6.2125888832        2.0322304752       10.0399472109
  C         7.0326072832        1.3809485595       10.9364750189
  N         4.2360658442        6.4180452857       16.4122614613
  N         7.5790769330        5.2661785967        0.2456997853
  N         6.4275155962        5.9721052970       12.1672744104
  N         5.3737858007        5.0990184770        4.3837309426
  O         6.6848395265        7.5198704701        8.6505996715
  O         9.0845332203        5.5986075196        6.3896034307
  O         3.4089448887        4.0396575357        8.4296776757
  O         4.9970229028        7.6977355141       10.5028711399
  O         5.5144953542        3.8989896828        7.6560426552
  O         3.2156246704        6.4199772321       10.1130090522
  O         8.8479054719        7.7520418414        8.1262304351
  O         6.8350769434        5.9835230206        6.4623444522
  O         4.5461593561        6.5210837999        7.6891470348
  O         7.8510265707        5.1719398204        8.8310519094
  F         2.5781184336        1.7464014402        6.8475986909
  F         5.7317476951        9.6946489797        6.9481320871
  O         5.3705364427        5.0179102853        9.8766927513
  H         4.4635902347        4.6684874403        9.8937638532
  H         5.7158135270        5.3658838589       10.6965669342
  C         4.0455488832        1.1360599097        1.6087139337
  H         3.0425224993        0.9930045245        1.0592642806
  H         4.5382163395        2.0319716689        1.0984334719
  H         4.0287224840        0.1744586298        2.1622418359
  H         3.5137468713        1.7992326718        2.4481416646
      68
 i =      129, E =      -435.7874736668
 Al         6.1864222317        5.7836047221        8.1989116360
 Al         9.4885315113        5.9580308081        8.2545648387
  H         4.5855526353        7.4711184125        7.7144149049
  H         7.9667294560        4.2397785453        8.9683569928
  H         8.7332912548        7.3136414474       12.4248676653
  H         8.7426559574        7.2774754815       14.9598173663
  H         6.1707064674        5.8517597933       14.8906868935
  H         5.6996774858        4.7779644526        1.8397755626
  H         3.0708271114        6.2695073927        1.6188597245
  H         3.1564261432        6.3432944893        4.1335623289
  H         9.3953589118        8.7878465620       10.1829898778
  H        10.8262410190       10.0882468577       11.6929234090
  H         6.1587151429        3.1149232985       10.0429794047
  H         7.6451016397        1.9723236629       11.6320199369
  H         6.8859579868        6.9040273293       11.6754015557
  H         7.1879391938        5.4023895321       12.5730269887
  H         5.2355696572        5.2926252656        5.3901431056
  H         4.5682755813        4.8575164575        3.8344864438
  C         7.7114028353        8.2189411010        8.4419183417
  C         7.9166148748        5.7213927344        5.8513283252
  C         4.4495077888        3.3803619150        8.0249990604
  C         4.1036181126        6.9400947479       10.8325059860
  C         4.0906480111        6.6533752154       12.2887106698
  C         9.5885595844        6.9723623351       13.0036994761
  C         9.5868554864        6.9207408543       14.3802854091
  C         4.1173578209        6.4818940153       15.0262052018
  C         5.2827084176        6.1427474134       14.3210855105
  C         5.2789946118        6.2652275169       12.9393465439
  C         6.5789339409        5.1422359891        2.3665718117
  C         7.7129937316        5.4268775074        1.6274807463
  C         2.2457815874        5.9282645119        2.2382868622
  C         8.9069300034        5.9648683636        3.6161738821
  C         7.7819061771        5.6413453430        4.4026944067
  C         6.5508162343        5.3001754117        3.7624876068
  C         7.6099831580        9.7162981315        8.4064840789
  C         8.4807235886       10.4798344474        9.2551138255
  C         6.6140917809       10.3677068875        7.6865475940
  C         9.3949519741        9.8688335128       10.1393394417
  C        10.1845770020       10.6115538333       10.9883167866
  C         4.4567103926        1.9065689510        8.2811173389
  C         3.4938896259        1.1563418948        7.6314326969
  C         5.3840814345        1.2797160804        9.1729340876
  C         6.2245056014        2.0300442856       10.0349151670
  C         7.0406174052        1.3872271169       10.9415528882
  N         4.2456636590        6.4284972187       16.4157596402
  N         7.5899542758        5.2564585136        0.2464324513
  N         6.4165110752        6.0205406828       12.1408438700
  N         5.3732397521        5.0998340377        4.4062478078
  O         6.6485497943        7.5575881310        8.6124971534
  O         9.0650084004        5.6057738190        6.3886884954
  O         3.4232569973        4.0723372353        8.4472347506
  O         5.0235058675        7.6510141349       10.4732659952
  O         5.5502175057        3.8970776990        7.7142162650
  O         3.1733734068        6.3546758226       10.0912789182
  O         8.8425121895        7.7635154680        8.0619040145
  O         6.8304056658        5.9655116657        6.4868693752
  O         4.5161130367        6.4885877947        7.6874145184
  O         7.8348771244        5.2023476274        8.8164112421
  F         2.5995132354        1.7772514601        6.8387250093
  F         5.7569250281        9.6292088649        6.9348450213
  O         5.4126445450        5.0633576105        9.8548968740
  H         4.5863751336        4.7013912768        9.8912484248
  H         5.7640746041        5.4203390678       10.6816414393
  C         3.9304237253        1.1707583749        1.6194462208
  H         3.0265794080        1.0685284895        1.0726424718
  H         4.6159108689        1.9875487726        1.1576673098
  H         4.1845633352        0.1497592057        2.0763092620
  H         3.4109724077        1.7632746113        2.4509288221
      68
 i =      130, E =      -435.8144744759
 Al         6.1878994757        5.7751090544        8.1864657036
 Al         9.4705946952        5.9525135188        8.2536121075
  H         4.5862498575        7.4378670413        7.7010503822
  H         7.9549272518        4.2410283516        8.9349308269
  H         8.7271646144        7.3000919085       12.4418655649
  H         8.7508644855        7.2661530489       14.9724215580
  H         6.1653168563        5.8526643949       14.8781497037
  H         5.6845516081        4.7847629967        1.8311279807
  H         3.0832861271        6.2614822706        1.6303915069
  H         3.1501874143        6.3346496116        4.1536609843
  H         9.4073159751        8.7927844625       10.1950644117
  H        10.8467488831       10.0972505816       11.6937802179
  H         6.1606461967        3.1107963949       10.0381860942
  H         7.6462170277        1.9783787998       11.6284615286
  H         6.8622893732        6.7663482055       11.6335186070
  H         7.1866515445        5.4528680065       12.6442842252
  H         5.2422569268        5.2956274998        5.3855606819
  H         4.5502451111        4.8462083926        3.8442298549
  C         7.7005099624        8.2352734785        8.3541875913
  C         7.8983901325        5.7405295112        5.8405327264
  C         4.4803764416        3.3970662872        8.0619225946
  C         4.0944123744        6.9105628348       10.8361357736
  C         4.0970786422        6.6189712039       12.2880183305
  C         9.5965009248        6.9505543159       13.0065841685
  C         9.5984389265        6.9315322977       14.3804640159
  C         4.1217540896        6.4752772461       15.0265101364
  C         5.2782674010        6.1394513722       14.3081439689
  C         5.3083999519        6.2643059280       12.9235664290
  C         6.5665551070        5.1349990018        2.3617461411
  C         7.7119394849        5.4254401034        1.6401009687
  C         2.2524231246        5.9187222847        2.2429727697
  C         8.9061938026        5.9804556455        3.6171315657
  C         7.7832875686        5.6267919075        4.3927797352
  C         6.5379676069        5.3166291495        3.7593315075
  C         7.5886982469        9.7251180447        8.4580897527
  C         8.5027411737       10.4955425706        9.2456900249
  C         6.6187716547       10.3615550330        7.6934049415
  C         9.3721883934        9.8741461603       10.1725160081
  C        10.1995645912       10.6117770314       10.9894991700
  C         4.4151655447        1.9220473522        8.2988839310
  C         3.4899890282        1.1519345752        7.6186383121
  C         5.3512663297        1.2932729253        9.1810373337
  C         6.2113688744        2.0248476717       10.0399312398
  C         7.0283057346        1.3876169956       10.9528950271
  N         4.2472186123        6.4628033434       16.4186962606
  N         7.5938820695        5.2610843016        0.2565176951
  N         6.4459091040        5.9852343765       12.1421651660
  N         5.3642127590        5.0898623329        4.4006777424
  O         6.6511317345        7.5809519578        8.5827855420
  O         9.0361618099        5.6233336797        6.3951685359
  O         3.4447550241        4.0778036592        8.4436107444
  O         5.0411517629        7.6590080242       10.4600210589
  O         5.5698443732        3.9130987007        7.6792489083
  O         3.1480181878        6.3711975766       10.1089903141
  O         8.8459623953        7.7630217912        8.0623005946
  O         6.7998727272        5.9424470569        6.4702095019
  O         4.5146559534        6.4611522443        7.6909611627
  O         7.8332314326        5.1955959744        8.7976161660
  F         2.5648699670        1.7632686806        6.8462660317
  F         5.7636439469        9.6266986590        6.9294808802
  O         5.4651751952        5.0996984022        9.8425259310
  H         4.5985139766        4.7307316990        9.9078266771
  H         5.7986545627        5.4660909987       10.6873130776
  C         3.9501524666        1.1667297896        1.6212068925
  H         3.0183469231        1.1296455070        1.0615960712
  H         4.5744482822        1.9821473789        1.2379129780
  H         4.1961793345        0.1623670651        1.9979770662
  H         3.4339658234        1.6924833387        2.4590713339
      68
 i =      131, E =      -435.8219172869
 Al         6.1970955865        5.7610216754        8.1942681219
 Al         9.4798721986        5.9496487780        8.2603277746
  H         4.5835603555        7.4380011308        7.7018121372
  H         7.9472582917        4.2365342600        8.9399910745
  H         8.7212944419        7.3135806016       12.4480465555
  H         8.7474628759        7.2615421262       14.9766295513
  H         6.1662540841        5.8418953196       14.8707012246
  H         5.6853544298        4.7808672073        1.8414741048
  H         3.0796217832        6.2565647179        1.6342764765
  H         3.1522753428        6.3340123981        4.1587752221
  H         9.4078033321        8.7860058495       10.1983809788
  H        10.8541960372       10.0893970736       11.6936247615
  H         6.1785789862        3.1046518814       10.0239309962
  H         7.6490241839        1.9689809415       11.6227858603
  H         6.8163162203        6.7837152990       11.6388473939
  H         7.1701951373        5.5217390993       12.6264833590
  H         5.2533604890        5.3018986088        5.3991916437
  H         4.5475114583        4.8443399033        3.8616111971
  C         7.7023160760        8.2395797195        8.3379643165
  C         7.8986750554        5.7183225475        5.8511110147
  C         4.4877931863        3.4035309972        8.0667823753
  C         4.1062590391        6.9470607619       10.8200575573
  C         4.1024662075        6.6630139946       12.2687835111
  C         9.5877712105        6.9483779944       13.0070496092
  C         9.5942674204        6.9230279529       14.3847033755
  C         4.1249316390        6.4684048631       15.0170547767
  C         5.2868973173        6.1447882374       14.3005465993
  C         5.3006333381        6.2694303578       12.9163591199
  C         6.5688610748        5.1395407101        2.3679124485
  C         7.7129081383        5.4265906413        1.6405200155
  C         2.2503587425        5.9171073635        2.2481548963
  C         8.9117701004        5.9717550851        3.6223325992
  C         7.7819381880        5.6468613121        4.3967921926
  C         6.5452348615        5.2989265970        3.7687454914
  C         7.5960992296        9.7259302913        8.4579585955
  C         8.5004681958       10.4932979682        9.2529352351
  C         6.6477879395       10.3675792887        7.6857521164
  C         9.3872458343        9.8680511620       10.1586108998
  C        10.1881474011       10.6031555882       11.0065416375
  C         4.4241568238        1.9228178790        8.2781375024
  C         3.4841198475        1.1534707893        7.6165025009
  C         5.3595182514        1.2917851076        9.1607082079
  C         6.2022393356        2.0180478772       10.0432892611
  C         7.0424649950        1.3806244338       10.9312205423
  N         4.2435228479        6.4561930965       16.4113635130
  N         7.5922673728        5.2497170540        0.2575476739
  N         6.4404452143        5.9810192250       12.1298172428
  N         5.3635004835        5.1005706337        4.4102622451
  O         6.6614695118        7.5664298916        8.5731076811
  O         9.0424045617        5.6158908092        6.4044161635
  O         3.4440888969        4.0762300580        8.4327946118
  O         5.0435642094        7.6654161764       10.4527278751
  O         5.5832039135        3.8977767019        7.6625223279
  O         3.1475977852        6.3858925130       10.1248639266
  O         8.8393593430        7.7522212698        8.0501897818
  O         6.7968205300        5.9626006832        6.4670365504
  O         4.5292372786        6.4663142705        7.6958088961
  O         7.8423480561        5.1922027360        8.8246881241
  F         2.5713023887        1.7612757122        6.8313692826
  F         5.7931434421        9.6396400840        6.9212147333
  O         5.4569891428        5.0711428191        9.8486741888
  H         4.5492610257        4.7169644243        9.9100427176
  H         5.7998475089        5.4381446247       10.6990554053
  C         3.9091664223        1.1809009968        1.6255643545
  H         2.9650040415        1.1592109175        1.0769171048
  H         4.6248622967        1.9597610668        1.2379398018
  H         4.2578847857        0.1594204751        1.9833936850
  H         3.4126528689        1.6878724139        2.4544335076
      68
 i =      132, E =      -435.8272474342
 Al         6.1984718288        5.7442997444        8.1860156225
 Al         9.4762012576        5.9576153640        8.2563250602
  H         4.5975612035        7.4325676730        7.7034425365
  H         7.9415066925        4.2323878678        8.9327303651
  H         8.7086125575        7.3130161734       12.4540784082
  H         8.7543186900        7.2533797632       14.9848424652
  H         6.1688271468        5.8308825249       14.8633589162
  H         5.6863784233        4.7817789537        1.8368765572
  H         3.0806816867        6.2483736965        1.6361174506
  H         3.1485218139        6.3281845143        4.1616965756
  H         9.4081048156        8.7832602661       10.2037308187
  H        10.8628183348       10.0905224522       11.6928073109
  H         6.1835187073        3.1039390111       10.0199186322
  H         7.6531798347        1.9706421666       11.6151445105
  H         6.8020327314        6.8073985546       11.6377245035
  H         7.1672964371        5.4979586286       12.6584236584
  H         5.2613655104        5.3071844560        5.4003881568
  H         4.5441596045        4.8394375904        3.8692565306
  C         7.7133763047        8.2393602123        8.3408343251
  C         7.8967058799        5.7427120467        5.8455038042
  C         4.4886929113        3.4067123043        8.0815621642
  C         4.1080657606        6.9535233070       10.8171538196
  C         4.0892466142        6.6543266767       12.2691850558
  C         9.5835211573        6.9673493369       13.0051976766
  C         9.5944875301        6.9068470257       14.3879492331
  C         4.1311441159        6.4840049982       15.0209864291
  C         5.2846299535        6.1383961659       14.3068547695
  C         5.2907288531        6.2849277733       12.9205285701
  C         6.5716611523        5.1373387004        2.3628698921
  C         7.7159799923        5.4282494805        1.6367871811
  C         2.2501591710        5.9164877528        2.2503026611
  C         8.9075515455        5.9685659948        3.6232528367
  C         7.7794506417        5.6350330693        4.3957738818
  C         6.5396907945        5.3033991156        3.7626791253
  C         7.6064737408        9.7237864773        8.4396097420
  C         8.4951662244       10.4861288352        9.2549088907
  C         6.6563996552       10.3772386902        7.6866512643
  C         9.3844788041        9.8654740497       10.1641435156
  C        10.1945070471       10.6019455956       11.0018339366
  C         4.4416674112        1.9215304476        8.2677345788
  C         3.4848342804        1.1601641606        7.6228943274
  C         5.3490143130        1.2858888484        9.1775420755
  C         6.2113630533        2.0197547653       10.0339065460
  C         7.0326938262        1.3787658776       10.9402134371
  N         4.2540699759        6.4568849632       16.4166175645
  N         7.5970780177        5.2444730264        0.2547825752
  N         6.4381526045        5.9897049364       12.1360256530
  N         5.3631985514        5.1008397993        4.4108845779
  O         6.6695986571        7.5621413177        8.5364666450
  O         9.0396342246        5.6142124541        6.4016795027
  O         3.4529014548        4.0844600913        8.4295494104
  O         5.0388825782        7.6667688496       10.4423068598
  O         5.5781586705        3.8908060009        7.6477017569
  O         3.1434657565        6.3870286803       10.1316570885
  O         8.8519373241        7.7604672411        8.0292607295
  O         6.7861709498        5.9459320936        6.4594404830
  O         4.5334699481        6.4578567310        7.6906167966
  O         7.8426528936        5.1909579974        8.8166667364
  F         2.5844217903        1.7765956562        6.8321450755
  F         5.7884692624        9.6760653862        6.9194222135
  O         5.4668786224        5.0718760795        9.8481301314
  H         4.5450880259        4.7208732552        9.9208136486
  H         5.8079859562        5.4493413670       10.7103325199
  C         3.9055560195        1.1836114971        1.6280229440
  H         2.9880962946        1.1741088867        1.0705163061
  H         4.6267546009        1.9458516272        1.2627118101
  H         4.2343692444        0.1832899228        1.9566004517
  H         3.4153862043        1.6652134558        2.4613069003
      68
 i =      133, E =      -435.8308666789
 Al         6.1908331939        5.7336519976        8.1802774622
 Al         9.4676893312        5.9574762267        8.2443331045
  H         4.6076585812        7.4235432108        7.7023654845
  H         7.9440714013        4.2290528224        8.9249461788
  H         8.7014871566        7.3121681253       12.4589182051
  H         8.7583031029        7.2408765962       14.9888525736
  H         6.1712645534        5.8228997720       14.8522682139
  H         5.6843598309        4.7835116813        1.8317411443
  H         3.0881113137        6.2395890336        1.6417991995
  H         3.1428828821        6.3221008595        4.1679722062
  H         9.4072905053        8.7805908750       10.2063611085
  H        10.8677408505       10.0949369058       11.6898198040
  H         6.1883311433        3.1029322134       10.0158262790
  H         7.6612671954        1.9762840310       11.6097725307
  H         6.7921491400        6.8103000941       11.6324796171
  H         7.1733390771        5.4990182632       12.6688333851
  H         5.2683533922        5.3131230178        5.4027056436
  H         4.5398367271        4.8320501321        3.8808766845
  C         7.7196018497        8.2387913967        8.3285869296
  C         7.8884649113        5.7193119880        5.8415678877
  C         4.4879164641        3.4080082779        8.0731499080
  C         4.1019051120        6.9478891365       10.8165244665
  C         4.0817921125        6.6531144182       12.2703008995
  C         9.5782542197        6.9673057750       13.0052049427
  C         9.6029834711        6.9184632713       14.3863516134
  C         4.1271336647        6.4711793228       15.0281135166
  C         5.2842436408        6.1498300249       14.3083545256
  C         5.2775212545        6.2809696137       12.9259677783
  C         6.5673155847        5.1358596799        2.3619752026
  C         7.7172476397        5.4185507192        1.6411953736
  C         2.2521081884        5.9141941251        2.2502530850
  C         8.9055078956        5.9640627871        3.6226563685
  C         7.7743888725        5.6419502501        4.3925006149
  C         6.5351558555        5.3068683254        3.7608669755
  C         7.6113988503        9.7246546912        8.4266437033
  C         8.4905170187       10.4832378809        9.2572047528
  C         6.6550615705       10.3892211291        7.6935673872
  C         9.3767350803        9.8626505105       10.1716873975
  C        10.1980456807       10.6025167300       10.9945868406
  C         4.4377576817        1.9272359695        8.2925801386
  C         3.5092606862        1.1684600196        7.6189340697
  C         5.3584427503        1.2849498414        9.1818662820
  C         6.2181384705        2.0198910238       10.0374096805
  C         7.0350980232        1.3787672508       10.9466808989
  N         4.2640152724        6.4668374042       16.4226438382
  N         7.6047114173        5.2460171321        0.2584842746
  N         6.4307986896        5.9894426488       12.1393729176
  N         5.3622300222        5.1029121647        4.4130829383
  O         6.6739945749        7.5665353650        8.5262253137
  O         9.0348409921        5.6262886580        6.3932437810
  O         3.4590424219        4.0886148017        8.4242494854
  O         5.0359763878        7.6579250408       10.4249268614
  O         5.5767482773        3.8941183287        7.6499158994
  O         3.1369647479        6.3956804027       10.1245142035
  O         8.8653180975        7.7648346006        8.0388601411
  O         6.7869797170        5.9471632073        6.4628163449
  O         4.5290318350        6.4465669220        7.6859337653
  O         7.8408039982        5.1905917757        8.7944501415
  F         2.5713705439        1.7595996235        6.8538046988
  F         5.7966122867        9.6987766458        6.9152410834
  O         5.4898079970        5.0846826372        9.8434540931
  H         4.5752295050        4.7344761610        9.9288457313
  H         5.8254608104        5.4693177072       10.7165304484
  C         3.8974285207        1.1886947315        1.6317877832
  H         2.9947165192        1.1818381549        1.0631812331
  H         4.6375478176        1.9277735471        1.2750745323
  H         4.2403898912        0.1993860429        1.9371765238
  H         3.4011747083        1.6606760425        2.4732396741
      68
 i =      134, E =      -435.8342113211
 Al         6.1898452546        5.7258202729        8.1807483522
 Al         9.4649555253        5.9571009525        8.2316074315
  H         4.6173767459        7.4119557509        7.6982949479
  H         7.9494756569        4.2243167769        8.9157772914
  H         8.6963937210        7.3148807326       12.4702980124
  H         8.7566077200        7.2318622302       14.9958031625
  H         6.1718077617        5.8181721985       14.8395969359
  H         5.6833971775        4.7834001039        1.8260064863
  H         3.0937762057        6.2299998785        1.6474276016
  H         3.1409703824        6.3143511666        4.1744595541
  H         9.4047789157        8.7770106656       10.2084797194
  H        10.8739334847       10.0938644179       11.6861948011
  H         6.1976822143        3.1008968768       10.0107170031
  H         7.6731297790        1.9765347580       11.6071367383
  H         6.7756713878        6.8085617834       11.6291450637
  H         7.1760473489        5.5357559015       12.6661371349
  H         5.2764627634        5.3209157799        5.4068814234
  H         4.5356071036        4.8240193231        3.8944575409
  C         7.7308863263        8.2432525399        8.3293998385
  C         7.8879460770        5.7259601585        5.8369856409
  C         4.4881621449        3.4098494939        8.0659722243
  C         4.0924274322        6.9441291483       10.8125198596
  C         4.0758224319        6.6604574390       12.2690649816
  C         9.5759750711        6.9682056809       13.0108697428
  C         9.6020307309        6.9210514479       14.3903736382
  C         4.1301993060        6.4744459773       15.0277700890
  C         5.2810371435        6.1464780472       14.3036675661
  C         5.2695119973        6.2869667354       12.9233827807
  C         6.5635229805        5.1321206815        2.3620251575
  C         7.7168638411        5.4173614528        1.6466152108
  C         2.2563046982        5.9027167402        2.2549941067
  C         8.9015394454        5.9660067572        3.6256992534
  C         7.7722009107        5.6320152397        4.3926392140
  C         6.5289560207        5.3111328067        3.7593871732
  C         7.6125127483        9.7329601570        8.4206824034
  C         8.4988023665       10.4838328578        9.2545104045
  C         6.6589972342       10.3917475365        7.6761850926
  C         9.3762665240        9.8598084627       10.1773220586
  C        10.1970575952       10.6028923947       10.9989488425
  C         4.4361873476        1.9305374460        8.3021638322
  C         3.5121919343        1.1715735590        7.6268635979
  C         5.3657555976        1.2871885293        9.1815143150
  C         6.2205468872        2.0172020209       10.0442853774
  C         7.0503449595        1.3796278940       10.9406546722
  N         4.2639368570        6.4701123056       16.4223233120
  N         7.6078873671        5.2408575739        0.2650792355
  N         6.4219650058        5.9872042317       12.1363069627
  N         5.3600210452        5.1091163927        4.4165254019
  O         6.6790858679        7.5760890024        8.5129733721
  O         9.0357994884        5.6320976846        6.3860792976
  O         3.4618120129        4.0889946543        8.4263636126
  O         5.0320573676        7.6535946111       10.4079179895
  O         5.5765337345        3.9021511034        7.6556511011
  O         3.1238776640        6.3916093920       10.1189189833
  O         8.8785748963        7.7685792939        8.0459515703
  O         6.7914680388        5.9405515311        6.4680302143
  O         4.5314468100        6.4374110014        7.6853435517
  O         7.8450131258        5.1867676887        8.7789999200
  F         2.5926348720        1.7673243928        6.8455915448
  F         5.7902207809        9.6920572701        6.9196949489
  O         5.5153595080        5.0963960071        9.8455626275
  H         4.6094599046        4.7509886458        9.9406522730
  H         5.8450077919        5.4863619850       10.7300950393
  C         3.8870354800        1.1962671189        1.6366151256
  H         2.9800813149        1.1846380488        1.0568990100
  H         4.6437127275        1.9088993656        1.2753083140
  H         4.2649874785        0.2135096721        1.9277673193
  H         3.3959120184        1.6663369601        2.4857444967
      68
 i =      135, E =      -435.8392565829
 Al         6.2057702717        5.7139556391        8.1939230133
 Al         9.4790960641        5.9563115809        8.2220561251
  H         4.6446650653        7.4004602017        7.7005876037
  H         7.9604359019        4.2155190291        8.9077818557
  H         8.6794936856        7.3341572956       12.4947277012
  H         8.7500866464        7.2201937001       15.0139201118
  H         6.1632657636        5.8066362506       14.8170653342
  H         5.6879924062        4.7765070780        1.8186784806
  H         3.0971388783        6.2152652571        1.6484467511
  H         3.1450898361        6.3035765951        4.1770398120
  H         9.3993687213        8.7716474003       10.2126430279
  H        10.8812311071       10.0805114168       11.6844103946
  H         6.2195234619        3.0968720715       10.0014970414
  H         7.6970450798        1.9632070164       11.5989268836
  H         6.7491758737        6.8684102223       11.6378913452
  H         7.1655725647        5.5974779894       12.6473316330
  H         5.2910918195        5.3341544801        5.4149300922
  H         4.5333265904        4.8162201552        3.9145156161
  C         7.7514186471        8.2441229088        8.3106488031
  C         7.8987760199        5.7309195619        5.8343987205
  C         4.4915202960        3.4114865281        8.0721850177
  C         4.0806236181        6.9556344160       10.8029300275
  C         4.0649604989        6.6987844449       12.2664720091
  C         9.5641148924        6.9788742320       13.0227659758
  C         9.5924316987        6.9188281222       14.4019962804
  C         4.1306790053        6.4814981313       15.0299670240
  C         5.2687984550        6.1430844061       14.2946988485
  C         5.2491940554        6.3044015479       12.9200386216
  C         6.5626293946        5.1305915942        2.3617820559
  C         7.7195443203        5.4068542110        1.6477343703
  C         2.2581992891        5.8924792237        2.2576274534
  C         8.9051223643        5.9552267126        3.6285105437
  C         7.7716612662        5.6302974972        4.3927322010
  C         6.5292554052        5.3030065042        3.7587037921
  C         7.6306538114        9.7377485457        8.4107987609
  C         8.5210993204       10.4885231985        9.2432634968
  C         6.6746037142       10.3891316668        7.6573404174
  C         9.3835156935        9.8556335246       10.1757086658
  C        10.2012024336       10.5952759640       11.0049105221
  C         4.4433783909        1.9271672938        8.2895250384
  C         3.5127541943        1.1705956864        7.6185128754
  C         5.3719777947        1.2927408951        9.1793188471
  C         6.2396504371        2.0132249236       10.0368318910
  C         7.0684111615        1.3726058994       10.9317046580
  N         4.2583877298        6.4591490580       16.4233946954
  N         7.6045279100        5.2261069307        0.2700012817
  N         6.4053383443        6.0255027409       12.1200849411
  N         5.3582350662        5.1310053872        4.4207082959
  O         6.6948706947        7.5766259759        8.5032997858
  O         9.0521766871        5.6372658492        6.3803465266
  O         3.4638687850        4.0789149101        8.4366551370
  O         5.0099062077        7.6709351001       10.3936504706
  O         5.5766706127        3.9056519756        7.6567997654
  O         3.1126720662        6.3734031685       10.1176668603
  O         8.9056345660        7.7692371225        8.0500157897
  O         6.8080812860        5.9425918922        6.4739328535
  O         4.5534450086        6.4280760203        7.6829125759
  O         7.8586148695        5.1787540474        8.7944296452
  F         2.5780413300        1.7667639390        6.8465750459
  F         5.7975531049        9.6736097102        6.9255329351
  O         5.5223190611        5.0867917972        9.8712940541
  H         4.6113527657        4.7636674187        9.9671420981
  H         5.8514777047        5.4836350114       10.7733850552
  C         3.8691635371        1.2104548991        1.6439389074
  H         2.9643180468        1.1690908677        1.0498170828
  H         4.6394805622        1.8837225290        1.2512451137
  H         4.2869752919        0.2447894451        1.9395579899
  H         3.4095906698        1.6905755485        2.5014248650
      68
 i =      136, E =      -435.8442525149
 Al         6.2208050107        5.6957797020        8.2191402735
 Al         9.5046346512        5.9506935376        8.2247533944
  H         4.6885621151        7.3819915265        7.7073808968
  H         7.9914774028        4.1976563226        8.8978721958
  H         8.6445297368        7.3701613540       12.5282180903
  H         8.7389088119        7.2030271957       15.0403169928
  H         6.1467218454        5.7886012204       14.7807493420
  H         5.6946165935        4.7665118035        1.8131703988
  H         3.1041356443        6.1882110682        1.6494591897
  H         3.1514495451        6.2849872865        4.1783679994
  H         9.3875972224        8.7729065845       10.2171557740
  H        10.8869481934       10.0572811240       11.6871908798
  H         6.2627274433        3.0946600571        9.9931459810
  H         7.7391417840        1.9354942783       11.5778236565
  H         6.6957934944        6.9782099437       11.6568815803
  H         7.1534513777        5.7012126631       12.6037292671
  H         5.3118593512        5.3546694987        5.4293083540
  H         4.5327854476        4.8049039020        3.9493596491
  C         7.7740891337        8.2357386624        8.2938027929
  C         7.9122183993        5.7299814141        5.8401214471
  C         4.4970348576        3.4116815651        8.0780050322
  C         4.0613676237        6.9783048238       10.7911750463
  C         4.0357299509        6.7436530764       12.2697822463
  C         9.5382473428        7.0085729338       13.0366018548
  C         9.5784698506        6.9210364216       14.4161284742
  C         4.1199149289        6.4682879055       15.0355564196
  C         5.2501454562        6.1490736407       14.2786745548
  C         5.2221580619        6.3528525342       12.9109078597
  C         6.5652543405        5.1162142011        2.3681272097
  C         7.7218135585        5.3884915248        1.6486925326
  C         2.2621959881        5.8713111781        2.2575386785
  C         8.9134762850        5.9342801400        3.6286607265
  C         7.7776908827        5.6295460236        4.3979381039
  C         6.5303983742        5.3023397263        3.7644491105
  C         7.6708239818        9.7323914272        8.3852507839
  C         8.5409696176       10.4920714080        9.2334019523
  C         6.6993016300       10.3813147946        7.6440423045
  C         9.4014266697        9.8569108553       10.1618244154
  C        10.2161047857       10.5825284649       11.0063017479
  C         4.4589563192        1.9226349611        8.2732163311
  C         3.5244989331        1.1625768988        7.6089792914
  C         5.4004496653        1.2957295842        9.1558784236
  C         6.2679491980        2.0103645817       10.0197987811
  C         7.0928471527        1.3594996643       10.9130957782
  N         4.2562131170        6.4371314522       16.4252038235
  N         7.6042170996        5.2020361688        0.2758126159
  N         6.3779762048        6.1015100360       12.0931744277
  N         5.3574140986        5.1662000111        4.4299092883
  O         6.7107190799        7.5719274707        8.4990117508
  O         9.0753678042        5.6496973358        6.3828049325
  O         3.4640897824        4.0596897964        8.4472802773
  O         4.9711177921        7.7042724107       10.3708027317
  O         5.5850255324        3.9035764967        7.6642820031
  O         3.1029121687        6.3766921709       10.1275014990
  O         8.9285764957        7.7569751957        8.0452993763
  O         6.8242180643        5.9474950892        6.4801157717
  O         4.5796533975        6.4127993627        7.6825757351
  O         7.8713838240        5.1595572485        8.7970669050
  F         2.5980557652        1.7807423101        6.8373331890
  F         5.7981175152        9.7112908315        6.9056201571
  O         5.5292455567        5.0668515566        9.9153440263
  H         4.5997973333        4.7860626060       10.0110077987
  H         5.8608367269        5.4704092768       10.8439879780
  C         3.8438680764        1.2341915404        1.6565752203
  H         2.9551589750        1.1156118512        1.0360881831
  H         4.6169295778        1.8474950362        1.1876907790
  H         4.3110789303        0.3016723615        1.9837577422
  H         3.4384614684        1.7540777301        2.5289356768
      68
 i =      137, E =      -435.8477273539
 Al         6.2209621381        5.6933660286        8.2298487009
 Al         9.5117983707        5.9436040769        8.2296519156
  H         4.7039855275        7.3748926492        7.7131503944
  H         8.0160177229        4.1929228959        8.8942731492
  H         8.6273643551        7.3934655454       12.5404859697
  H         8.7283800569        7.2010469097       15.0521813802
  H         6.1401570982        5.7849107068       14.7664419611
  H         5.6953512712        4.7609643773        1.8237090418
  H         3.1083881059        6.1701050817        1.6495172852
  H         3.1590116262        6.2731757764        4.1755506424
  H         9.3807430208        8.7753218553       10.2131951898
  H        10.8784040273       10.0518934899       11.6875722446
  H         6.2877447994        3.0922644924        9.9918370244
  H         7.7662215650        1.9274144315       11.5650523106
  H         6.6618704081        7.0502986060       11.6626172205
  H         7.1509816519        5.7512241897       12.5737435461
  H         5.3193813392        5.3650603697        5.4399339511
  H         4.5394319202        4.8026192757        3.9670424216
  C         7.7814932474        8.2319904100        8.3082814063
  C         7.9155817613        5.7393611143        5.8460767603
  C         4.5053668496        3.4073687187        8.0913553668
  C         4.0543241156        6.9972572137       10.7863756474
  C         4.0229751508        6.7729351332       12.2706845879
  C         9.5237314330        7.0267377742       13.0412974639
  C         9.5639471411        6.9186743009       14.4202580076
  C         4.1103764193        6.4629227772       15.0297957111
  C         5.2440463568        6.1535280527       14.2707937372
  C         5.2119239494        6.3778094077       12.9050083339
  C         6.5698440822        5.1062090204        2.3765924503
  C         7.7257725323        5.3737786481        1.6522357991
  C         2.2676306489        5.8546526713        2.2592595475
  C         8.9178195067        5.9260249235        3.6296497940
  C         7.7850486444        5.6224520245        4.4033542196
  C         6.5310892933        5.3073264021        3.7728082428
  C         7.6704371945        9.7273252991        8.3775978843
  C         8.5557922422       10.4850866805        9.2077004218
  C         6.7074976829       10.3867187954        7.6380969965
  C         9.3987763099        9.8560116645       10.1540417473
  C        10.2274668354       10.5764633982       10.9865484302
  C         4.4842315234        1.9207931165        8.2660850450
  C         3.5384660401        1.1667064177        7.6064799480
  C         5.4192703764        1.2870577875        9.1504144530
  C         6.2943322604        2.0071897232       10.0060948661
  C         7.1118246850        1.3523873705       10.9070092242
  N         4.2530691214        6.4118195006       16.4192900896
  N         7.6053591292        5.1855135447        0.2791132293
  N         6.3651596263        6.1579360652       12.0745962969
  N         5.3579129704        5.1842614432        4.4392218012
  O         6.7194348151        7.5678868216        8.5083610560
  O         9.0766359214        5.6385456077        6.3912699984
  O         3.4656797543        4.0491391491        8.4520126886
  O         4.9520853059        7.7267148917       10.3497472105
  O         5.5929675505        3.9052398247        7.6692056731
  O         3.1112561493        6.3776414055       10.1233184791
  O         8.9267936326        7.7484621952        8.0364125125
  O         6.8225484832        5.9391400165        6.4781842867
  O         4.5808415338        6.4124434188        7.7006781287
  O         7.8724436709        5.1519294240        8.7843102701
  F         2.5866278436        1.7513029484        6.8392219758
  F         5.8088728382        9.7084702599        6.9030692246
  O         5.5344955198        5.0590014567        9.9318568860
  H         4.5953124264        4.8043917532       10.0251373763
  H         5.8699707930        5.4609342604       10.8719200900
  C         3.8306889490        1.2487946687        1.6645677599
  H         2.9620688080        1.0601458816        1.0284073495
  H         4.5870235086        1.8343314952        1.1295751796
  H         4.3185382837        0.3353097610        2.0323860648
  H         3.4648030342        1.8111200179        2.5431993972
      68
 i =      138, E =      -435.8499056994
 Al         6.2175214117        5.6959492669        8.2307555665
 Al         9.5035829859        5.9442070776        8.2357902545
  H         4.6976969844        7.3784984669        7.7258075372
  H         8.0228009051        4.1985979555        8.8871352637
  H         8.6248118424        7.4013778786       12.5381303843
  H         8.7252864366        7.2043806238       15.0520510527
  H         6.1355257080        5.7925967802       14.7667656646
  H         5.6909510483        4.7591235823        1.8400144321
  H         3.1122324133        6.1574162646        1.6489937490
  H         3.1654083274        6.2673036722        4.1724434574
  H         9.3765258947        8.7753104306       10.2085705615
  H        10.8695786308       10.0537970710       11.6851102563
  H         6.2938960755        3.0904511998        9.9914604975
  H         7.7774475555        1.9293880849       11.5580934860
  H         6.6470826924        7.0768618064       11.6566121231
  H         7.1550945750        5.7569899399       12.5780505348
  H         5.3177768711        5.3665329510        5.4429167274
  H         4.5474185242        4.8049927645        3.9683926292
  C         7.7699581482        8.2340878807        8.3068683455
  C         7.9045000927        5.7231826082        5.8517137978
  C         4.5119195657        3.3994682755        8.0964851796
  C         4.0462721226        7.0061754662       10.7852417664
  C         4.0217750192        6.7796696897       12.2677040056
  C         9.5226588522        7.0365344216       13.0386805938
  C         9.5601856859        6.9183998728       14.4166914731
  C         4.1018867941        6.4559212748       15.0256951766
  C         5.2423392110        6.1602042738       14.2668442982
  C         5.2163224046        6.3853125651       12.8997272136
  C         6.5723448933        5.1057565151        2.3806198900
  C         7.7319867344        5.3546812743        1.6548845011
  C         2.2716661923        5.8454314481        2.2596010509
  C         8.9221581384        5.9201488005        3.6305439835
  C         7.7858579497        5.6323315763        4.4037332301
  C         6.5364020233        5.3055083273        3.7775290587
  C         7.6649399563        9.7250125083        8.3845318239
  C         8.5538943844       10.4828286558        9.2087660471
  C         6.7028536613       10.3840758026        7.6463336640
  C         9.4014163955        9.8532847492       10.1460869206
  C        10.2294794112       10.5767858184       10.9748064549
  C         4.4867225449        1.9193391389        8.2697377989
  C         3.5454337514        1.1643959017        7.6027841374
  C         5.4324271820        1.2823787565        9.1385442720
  C         6.3038684428        2.0043822326       10.0001302419
  C         7.1269682826        1.3520612618       10.8984182759
  N         4.2523762671        6.3968686819       16.4167055904
  N         7.6048285934        5.1793048672        0.2773505008
  N         6.3667723102        6.1812848804       12.0705361571
  N         5.3578820641        5.1938419373        4.4411149296
  O         6.7194062412        7.5647716388        8.5191830092
  O         9.0612654514        5.6430770679        6.3986710754
  O         3.4758377054        4.0541000573        8.4638152579
  O         4.9413350056        7.7322223303       10.3338026029
  O         5.5956257332        3.9091652239        7.6714947157
  O         3.1092711771        6.3614985774       10.1238460790
  O         8.9153378561        7.7531860430        8.0395778984
  O         6.8086877960        5.9439186343        6.4723426232
  O         4.5715703864        6.4137179381        7.7208570172
  O         7.8714850704        5.1545540941        8.7837904851
  F         2.5905383793        1.7726499758        6.8570475815
  F         5.8066873951        9.6915688740        6.9137939067
  O         5.5467551242        5.0657090919        9.9334211468
  H         4.6071419599        4.8202794009       10.0274029351
  H         5.8796372394        5.4650432884       10.8764745416
  C         3.8338968921        1.2542845885        1.6690248590
  H         2.9814527633        1.0212474051        1.0219427076
  H         4.5505035042        1.8370798079        1.0989436762
  H         4.2965742868        0.3572121425        2.0637212934
  H         3.5008107810        1.8396385431        2.5482464085
      68
 i =      139, E =      -435.8512245024
 Al         6.2096936091        5.7023847987        8.2354619486
 Al         9.4892374407        5.9433496454        8.2467281351
  H         4.6724366421        7.3904719816        7.7421868651
  H         8.0165582813        4.2061942516        8.8882320460
  H         8.6334521537        7.4029065522       12.5226307147
  H         8.7262441136        7.2078548627       15.0384484784
  H         6.1350687576        5.8051328222       14.7737255999
  H         5.6841913895        4.7590752475        1.8568061765
  H         3.1132394110        6.1515596444        1.6497217563
  H         3.1695026122        6.2684121967        4.1703815405
  H         9.3752240675        8.7750118333       10.2041731563
  H        10.8661550753       10.0531808465       11.6856932518
  H         6.2878092499        3.0907830496        9.9872684314
  H         7.7748682489        1.9305149490       11.5527779794
  H         6.6467508420        7.0690964588       11.6504324334
  H         7.1624552012        5.7557704211       12.5789951223
  H         5.3135150723        5.3620293908        5.4427225775
  H         4.5531395331        4.8070645584        3.9625643896
  C         7.7528851023        8.2348594050        8.3166117927
  C         7.8970000145        5.7289484012        5.8573840452
  C         4.5158495551        3.3953503978        8.0973937106
  C         4.0395987900        7.0083979266       10.7862394347
  C         4.0254313844        6.7718127554       12.2627252833
  C         9.5284780470        7.0400920526       13.0292904212
  C         9.5651716161        6.9222431267       14.4064931093
  C         4.0952653080        6.4469629448       15.0228351951
  C         5.2432740126        6.1668020535       14.2655358216
  C         5.2236203285        6.3810374740       12.8962585415
  C         6.5738887967        5.1000935996        2.3842895326
  C         7.7321346140        5.3501024521        1.6576739748
  C         2.2741301966        5.8367426882        2.2613217375
  C         8.9231691936        5.9205041996        3.6331219810
  C         7.7879062932        5.6297920060        4.4072114987
  C         6.5396113300        5.3138089572        3.7796265147
  C         7.6577352556        9.7247787699        8.3926267761
  C         8.5491589541       10.4837289349        9.2140012579
  C         6.6899164097       10.3781249836        7.6580285655
  C         9.4028827564        9.8529193916       10.1440787027
  C        10.2333959782       10.5761518187       10.9706516840
  C         4.4799657533        1.9175408749        8.2670110823
  C         3.5377463288        1.1602820154        7.5979587535
  C         5.4297417923        1.2825574319        9.1339630688
  C         6.3105127470        2.0049619574        9.9886551540
  C         7.1266690905        1.3508378134       10.8928579468
  N         4.2509502544        6.3908931313       16.4157829277
  N         7.6036694028        5.1767326680        0.2759908240
  N         6.3716437648        6.1798196450       12.0736145992
  N         5.3589150151        5.1970435984        4.4396441343
  O         6.7097016414        7.5635772187        8.5356597108
  O         9.0480781999        5.6378364048        6.4063248281
  O         3.4811496863        4.0587749879        8.4726627768
  O         4.9420213369        7.7259508770       10.3320579631
  O         5.5986390531        3.9100571735        7.6761100661
  O         3.1065297946        6.3717923943       10.1282442358
  O         8.8982125759        7.7598726991        8.0402656943
  O         6.7989026039        5.9457709584        6.4798228505
  O         4.5568068532        6.4223860672        7.7497706057
  O         7.8680373446        5.1617847445        8.7983601845
  F         2.5852441901        1.7645137975        6.8486877091
  F         5.7910080786        9.6728969201        6.9314530770
  O         5.5517584846        5.0710125382        9.9308056963
  H         4.6146213484        4.8251156180       10.0219839764
  H         5.8852389551        5.4648310936       10.8672789562
  C         3.8292220158        1.2575502710        1.6707682710
  H         2.9816436502        1.0114301576        1.0261127220
  H         4.5488003990        1.8430959474        1.0874141557
  H         4.3025854122        0.3528951085        2.0749171360
  H         3.5009785048        1.8521004792        2.5445096016
      68
 i =      140, E =      -435.8521772042
 Al         6.2061190638        5.7056954380        8.2375623935
 Al         9.4848344420        5.9426634916        8.2491635486
  H         4.6552030266        7.3982644942        7.7555434901
  H         8.0066731727        4.2066293432        8.8893319748
  H         8.6415272003        7.4036614885       12.5153123217
  H         8.7250390165        7.2100341531       15.0303839427
  H         6.1389381415        5.8117592693       14.7788378806
  H         5.6827816226        4.7580095069        1.8617425227
  H         3.1125241712        6.1456833887        1.6508727864
  H         3.1704868423        6.2689783271        4.1705138634
  H         9.3766271391        8.7736301174       10.2035230789
  H        10.8705003763       10.0521065073       11.6847500765
  H         6.2852084849        3.0899770111        9.9780151868
  H         7.7701187156        1.9302525804       11.5475730974
  H         6.6475890226        7.0572105313       11.6473532873
  H         7.1638495274        5.7639930830       12.5874890390
  H         5.3131224366        5.3596025381        5.4411867918
  H         4.5537206388        4.8051677770        3.9563441052
  C         7.7482874559        8.2333356790        8.3294243708
  C         7.8979653720        5.7383858161        5.8591673995
  C         4.5147284792        3.3992781025        8.0940836123
  C         4.0372828307        7.0128317928       10.7862628533
  C         4.0285825971        6.7721109919       12.2587450232
  C         9.5322620924        7.0385042131       13.0275722966
  C         9.5660240404        6.9216502448       14.4050214765
  C         4.0984996307        6.4524270353       15.0178836070
  C         5.2451209493        6.1627176611       14.2669014031
  C         5.2242554569        6.3757547216       12.8962303010
  C         6.5733403651        5.0989186569        2.3857655000
  C         7.7300598051        5.3497110954        1.6586147812
  C         2.2735976547        5.8307283076        2.2635061440
  C         8.9227636157        5.9182202668        3.6359724467
  C         7.7855988962        5.6302719131        4.4095499794
  C         6.5408794540        5.3149357363        3.7792750934
  C         7.6462682919        9.7248315290        8.3991439864
  C         8.5494473819       10.4821565119        9.2107444154
  C         6.6823158747       10.3806193856        7.6633206267
  C         9.3997243790        9.8526742580       10.1486180000
  C        10.2346254201       10.5749587568       10.9728165175
  C         4.4796048158        1.9197255937        8.2632788291
  C         3.5302569682        1.1631609712        7.6028061593
  C         5.4211200484        1.2817649051        9.1369567891
  C         6.3075170518        2.0041889842        9.9847889216
  C         7.1249304399        1.3497791307       10.8855361940
  N         4.2464291476        6.3913181113       16.4123538178
  N         7.6015982774        5.1730719361        0.2760254289
  N         6.3748249898        6.1712661767       12.0783676240
  N         5.3574563661        5.2006568842        4.4363675481
  O         6.7036217773        7.5647403798        8.5513089336
  O         9.0509644674        5.6363982721        6.4027325732
  O         3.4812506500        4.0572700715        8.4846616508
  O         4.9432882081        7.7259871592       10.3348775572
  O         5.5972179973        3.9099465154        7.6743299571
  O         3.1028613988        6.3756591517       10.1317466922
  O         8.8948190171        7.7635791976        8.0383101828
  O         6.7980919385        5.9466628315        6.4862345836
  O         4.5538179066        6.4203240414        7.7476434214
  O         7.8662437387        5.1643597119        8.7989003300
  F         2.5828060741        1.7629565688        6.8470938271
  F         5.7973500829        9.6915260004        6.9079835655
  O         5.5554172613        5.0757391469        9.9307190837
  H         4.6143194270        4.8292911039       10.0221714983
  H         5.8906110385        5.4689959052       10.8641312831
  C         3.8282521724        1.2590576489        1.6717663615
  H         2.9727779392        1.0225181931        1.0297392476
  H         4.5619762848        1.8431095090        1.0945843698
  H         4.3087497786        0.3496660947        2.0662489112
  H         3.4915139613        1.8477639989        2.5427497083
      68
 i =      141, E =      -435.8530574837
 Al         6.2064661655        5.7103812881        8.2396655432
 Al         9.4870078008        5.9395432388        8.2517026258
  H         4.6433748238        7.4000207416        7.7632000805
  H         7.9978748379        4.2036299730        8.8896807445
  H         8.6433727139        7.4103966962       12.5134913196
  H         8.7215305641        7.2110921245       15.0288300970
  H         6.1391717197        5.8152713731       14.7799389870
  H         5.6849199323        4.7543449999        1.8625681132
  H         3.1125817191        6.1339362429        1.6503573777
  H         3.1715024110        6.2654777556        4.1692585284
  H         9.3763702567        8.7714969907       10.2050672737
  H        10.8744842184       10.0519634715       11.6805652633
  H         6.2894752006        3.0869777459        9.9655844153
  H         7.7721897964        1.9295181091       11.5388483674
  H         6.6477736354        7.0659846485       11.6471121106
  H         7.1632568879        5.7770223290       12.5992409252
  H         5.3133737986        5.3591771703        5.4388454255
  H         4.5550116304        4.8026110742        3.9504627335
  C         7.7460494357        8.2320788700        8.3334833811
  C         7.9024278212        5.7416702793        5.8592108916
  C         4.5135622916        3.4037971458        8.0947840065
  C         4.0370656210        7.0186416270       10.7886121886
  C         4.0268763967        6.7758126868       12.2603597908
  C         9.5306937680        7.0407612206       13.0290949579
  C         9.5637547405        6.9239862253       14.4069653569
  C         4.0977487275        6.4538721314       15.0167722713
  C         5.2427427596        6.1627989887       14.2681383976
  C         5.2212768479        6.3783743534       12.8979595068
  C         6.5738387797        5.0967859623        2.3874161555
  C         7.7283739321        5.3426603932        1.6567637786
  C         2.2722533506        5.8221976300        2.2625895493
  C         8.9236219118        5.9131059712        3.6352328192
  C         7.7839636978        5.6336848267        4.4100843027
  C         6.5411049979        5.3160112052        3.7789179673
  C         7.6353746237        9.7244823761        8.4030919072
  C         8.5416923660       10.4799321727        9.2124632851
  C         6.6815276394       10.3844572584        7.6598800719
  C         9.3976600592        9.8512855238       10.1468692344
  C        10.2340294586       10.5730884560       10.9707066111
  C         4.4804935795        1.9213097632        8.2646483091
  C         3.5259744705        1.1677001326        7.6105071877
  C         5.4235491524        1.2796062536        9.1324015730
  C         6.3040878211        2.0009691960        9.9835551177
  C         7.1261668120        1.3482185151       10.8788656204
  N         4.2430607643        6.3913635418       16.4110788678
  N         7.5989701384        5.1673202178        0.2744122400
  N         6.3767601544        6.1763633962       12.0819627420
  N         5.3551819190        5.2075385832        4.4327274815
  O         6.7000468044        7.5663954570        8.5757705409
  O         9.0591083944        5.6413820349        6.3983329861
  O         3.4819070833        4.0493900859        8.4983549074
  O         4.9391342126        7.7376568816       10.3376473294
  O         5.5921819468        3.9111309161        7.6682899337
  O         3.1058562213        6.3708337654       10.1330453000
  O         8.8930956951        7.7599834133        8.0409689065
  O         6.8004228784        5.9503581833        6.4867570598
  O         4.5570313483        6.4222343068        7.7520384880
  O         7.8644070351        5.1636521630        8.7891903011
  F         2.5888642075        1.7687364121        6.8465801821
  F         5.7934614901        9.6847643678        6.9179189727
  O         5.5578348792        5.0810927806        9.9363765909
  H         4.6094486583        4.8398794562       10.0280032771
  H         5.8971985453        5.4762778927       10.8699073425
  C         3.8309235250        1.2620698186        1.6738414003
  H         2.9730111359        1.0275634897        1.0300552235
  H         4.5648304522        1.8420653894        1.0989444967
  H         4.3041349156        0.3569692909        2.0606772404
  H         3.4900502071        1.8472084567        2.5444373689
      68
 i =      142, E =      -435.8537209658
 Al         6.2042547643        5.7107275349        8.2417543930
 Al         9.4868839921        5.9401773678        8.2551195766
  H         4.6335944895        7.3972895509        7.7673754327
  H         7.9908953300        4.1990285381        8.8875756679
  H         8.6420447407        7.4187690820       12.5137142540
  H         8.7185722962        7.2115084965       15.0303326353
  H         6.1369616959        5.8193755614       14.7775379477
  H         5.6844653813        4.7499679121        1.8636325460
  H         3.1165717454        6.1178582961        1.6508575592
  H         3.1714140368        6.2587327894        4.1693656393
  H         9.3723661739        8.7682938528       10.2063642196
  H        10.8770170110       10.0525976487       11.6726521396
  H         6.2967042939        3.0841782337        9.9561237522
  H         7.7811747497        1.9301272110       11.5299469352
  H         6.6454889978        7.0728007030       11.6439891827
  H         7.1677712361        5.7973164405       12.6051462259
  H         5.3119508181        5.3600930524        5.4385759625
  H         4.5562014744        4.8000946860        3.9511246470
  C         7.7428536996        8.2338042612        8.3358966726
  C         7.9033510857        5.7441666074        5.8581604983
  C         4.5123011182        3.4024450755        8.0991528952
  C         4.0336587066        7.0213746651       10.7904278973
  C         4.0245998612        6.7805098121       12.2619730487
  C         9.5280784688        7.0439954273       13.0292032764
  C         9.5595594518        6.9244352681       14.4071621529
  C         4.0941825801        6.4558057753       15.0182600023
  C         5.2375822192        6.1648897460       14.2677516075
  C         5.2192318461        6.3883374394       12.8980990735
  C         6.5734212502        5.0937309663        2.3885378954
  C         7.7287669719        5.3338961428        1.6576130266
  C         2.2742653678        5.8115073149        2.2625441368
  C         8.9233594709        5.9096418618        3.6340130094
  C         7.7834580243        5.6337331298        4.4100846714
  C         6.5390843394        5.3179814236        3.7792031635
  C         7.6365640472        9.7263872215        8.4063118833
  C         8.5389092399       10.4812266121        9.2176783984
  C         6.6806981581       10.3830070206        7.6632999075
  C         9.3965288454        9.8482449840       10.1463992752
  C        10.2333996436       10.5740918069       10.9654278210
  C         4.4781082441        1.9180331325        8.2647648887
  C         3.5264363122        1.1660226830        7.6087468226
  C         5.4229914609        1.2794668341        9.1315419293
  C         6.3084068248        1.9987736003        9.9768951804
  C         7.1294242397        1.3493136889       10.8756188823
  N         4.2407771005        6.3903479288       16.4123366332
  N         7.5969157466        5.1599405344        0.2754593088
  N         6.3766526650        6.1849457077       12.0846438405
  N         5.3527524464        5.2138812604        4.4324053889
  O         6.6959523575        7.5696195018        8.5763027618
  O         9.0585591666        5.6469261666        6.4013643783
  O         3.4845459489        4.0490159319        8.4917558346
  O         4.9328696115        7.7428579686       10.3344945794
  O         5.5879093697        3.9114239900        7.6703037912
  O         3.1044627099        6.3696967634       10.1347244864
  O         8.8882599293        7.7581375079        8.0439111184
  O         6.8014992976        5.9521390324        6.4861967025
  O         4.5579046225        6.4196817017        7.7485097632
  O         7.8641912616        5.1600940038        8.7813953666
  F         2.5839019625        1.7718702702        6.8535604372
  F         5.7978057382        9.6756684874        6.9245931346
  O         5.5685292781        5.0898349886        9.9417686270
  H         4.6206356131        4.8545485776       10.0362752538
  H         5.9100786085        5.4876601190       10.8770886459
  C         3.8282605485        1.2683847038        1.6774313020
  H         2.9733705755        1.0284447387        1.0290641498
  H         4.5612732918        1.8396387628        1.0997796689
  H         4.3123709567        0.3651840806        2.0567610869
  H         3.4874684560        1.8530531902        2.5487395079
      68
 i =      143, E =      -435.8543049313
 Al         6.2038081377        5.7122071330        8.2467843345
 Al         9.4838811475        5.9394571882        8.2587935375
  H         4.6193663846        7.3944793679        7.7756823563
  H         7.9785757781        4.1932816082        8.8839593682
  H         8.6392220676        7.4363869302       12.5152206687
  H         8.7111370937        7.2139018505       15.0343679531
  H         6.1299395343        5.8279670497       14.7752407536
  H         5.6828935721        4.7399805321        1.8677632279
  H         3.1241057313        6.0857354514        1.6492089098
  H         3.1740050657        6.2461141544        4.1668764767
  H         9.3641571633        8.7660016766       10.2078054170
  H        10.8837112203       10.0514431515       11.6598218919
  H         6.3109371864        3.0816353893        9.9374607170
  H         7.7977001679        1.9290612274       11.5110088971
  H         6.6413831724        7.0965322101       11.6398995196
  H         7.1759558110        5.8367685692       12.6136183695
  H         5.3080130740        5.3609447394        5.4379621635
  H         4.5598207366        4.7981438680        3.9518325683
  C         7.7390570134        8.2362048849        8.3393494341
  C         7.9026653622        5.7398192845        5.8571305188
  C         4.5114788496        3.3992110115        8.1080533581
  C         4.0272478211        7.0287073171       10.7917558255
  C         4.0225065851        6.7963432595       12.2628198753
  C         9.5225599379        7.0501979635       13.0294274939
  C         9.5504576872        6.9284771179       14.4068833670
  C         4.0836969617        6.4539097429       15.0205373659
  C         5.2297930856        6.1774378384       14.2664903400
  C         5.2140634381        6.4040846391       12.8999119414
  C         6.5723397020        5.0878371458        2.3913164639
  C         7.7303959638        5.3147312352        1.6608851000
  C         2.2785927736        5.7925954331        2.2617805966
  C         8.9258799857        5.8994523182        3.6314900616
  C         7.7837087284        5.6386082342        4.4091297627
  C         6.5380537273        5.3175236175        3.7813818203
  C         7.6352895367        9.7279648698        8.4133481663
  C         8.5364998004       10.4826743267        9.2215623318
  C         6.6779576679       10.3772795941        7.6654347561
  C         9.3932080238        9.8457506725       10.1467085741
  C        10.2347155883       10.5737206008       10.9576976931
  C         4.4749222205        1.9112570296        8.2618852668
  C         3.5258989445        1.1597730097        7.6057476439
  C         5.4211480416        1.2787719701        9.1305674911
  C         6.3183906171        1.9969498103        9.9625804994
  C         7.1375795475        1.3489184485       10.8649713857
  N         4.2347439666        6.3849068922       16.4133485880
  N         7.5923113716        5.1443102473        0.2790682257
  N         6.3778342960        6.2117742334       12.0893665440
  N         5.3485326694        5.2255656698        4.4314555836
  O         6.6926430437        7.5714486524        8.5745762903
  O         9.0565752375        5.6512685144        6.4041929820
  O         3.4889391717        4.0475574692        8.4884981292
  O         4.9175332693        7.7570622960       10.3294046403
  O         5.5837454735        3.9103937326        7.6709666807
  O         3.1074129555        6.3666292030       10.1306319901
  O         8.8817733946        7.7557500130        8.0480606248
  O         6.8027060004        5.9567008980        6.4839762375
  O         4.5580673484        6.4217781169        7.7534023608
  O         7.8661142845        5.1557185573        8.7853801751
  F         2.5869688772        1.7575930529        6.8400576029
  F         5.7893676702        9.6827837818        6.9243856272
  O         5.5842909813        5.1028525340        9.9551108948
  H         4.6361293469        4.8810599872       10.0519729304
  H         5.9311261235        5.5049701915       10.8924377471
  C         3.8250277575        1.2806390600        1.6841823171
  H         2.9778442339        1.0230648989        1.0283624302
  H         4.5493647844        1.8389025325        1.0940322628
  H         4.3204923505        0.3825434407        2.0581050640
  H         3.4891178261        1.8698617984        2.5550863277
      68
 i =      144, E =      -435.8553332910
 Al         6.2022191627        5.7157423461        8.2524380686
 Al         9.4800499250        5.9365409522        8.2639587430
  H         4.6085931322        7.3987292827        7.7923723985
  H         7.9683011425        4.1913214392        8.8835468487
  H         8.6376188836        7.4530214731       12.5137643835
  H         8.7018253444        7.2185217896       15.0344430022
  H         6.1217636158        5.8400191449       14.7780918517
  H         5.6806899715        4.7298170828        1.8753470259
  H         3.1290798865        6.0540369482        1.6453793248
  H         3.1796798510        6.2351856389        4.1611706170
  H         9.3562710923        8.7702611169       10.2080473085
  H        10.8913581276       10.0489598312       11.6504460156
  H         6.3236681410        3.0809408545        9.9175635183
  H         7.8101294057        1.9255170145       11.4894185871
  H         6.6378845511        7.1236509186       11.6391822425
  H         7.1837505022        5.8764826129       12.6186535411
  H         5.3026755277        5.3593168021        5.4370854770
  H         4.5644139400        4.7981369613        3.9504056690
  C         7.7357967791        8.2326696771        8.3468761662
  C         7.9024998343        5.7407104214        5.8592465431
  C         4.5105433214        3.3985041034        8.1049065204
  C         4.0217758503        7.0386461675       10.7910729954
  C         4.0172273914        6.8043683567       12.2629924739
  C         9.5187533010        7.0635470287       13.0281955819
  C         9.5411890309        6.9323959334       14.4056778737
  C         4.0729855224        6.4497880969       15.0192745050
  C         5.2246319426        6.1896191931       14.2649221151
  C         5.2132497828        6.4276293147       12.8993504924
  C         6.5725238330        5.0765887132        2.3959034125
  C         7.7298611982        5.2999317732        1.6642333611
  C         2.2821912862        5.7721075817        2.2615075573
  C         8.9290949170        5.8888689861        3.6302019407
  C         7.7866265290        5.6387226808        4.4106381643
  C         6.5384630350        5.3202386328        3.7848608569
  C         7.6293181556        9.7227464229        8.4176018299
  C         8.5294375749       10.4807436708        9.2208713476
  C         6.6717590891       10.3724914522        7.6700190794
  C         9.3872968708        9.8491469850       10.1469135380
  C        10.2388130179       10.5710635256       10.9518827937
  C         4.4734557314        1.9096532051        8.2609619843
  C         3.5291646412        1.1551548612        7.6029826325
  C         5.4206164065        1.2755886330        9.1263333502
  C         6.3243667863        1.9961400382        9.9493088746
  C         7.1457000946        1.3455861743       10.8481195011
  N         4.2273327276        6.3763281335       16.4105248428
  N         7.5880329385        5.1259478521        0.2826718781
  N         6.3813900000        6.2425096023       12.0958617639
  N         5.3456676532        5.2349018465        4.4296608684
  O         6.6904096900        7.5673935067        8.5783894875
  O         9.0557064634        5.6411869998        6.4060851538
  O         3.4894445853        4.0453806061        8.4993554047
  O         4.9032354633        7.7796971301       10.3286951386
  O         5.5878503217        3.9057614350        7.6711538462
  O         3.1133312767        6.3725617221       10.1277355760
  O         8.8762381572        7.7529833711        8.0469074587
  O         6.8025739713        5.9530200855        6.4849049062
  O         4.5537217283        6.4244380890        7.7548669354
  O         7.8663159831        5.1549453579        8.7961420663
  F         2.5884744134        1.7626730699        6.8450287769
  F         5.7959151479        9.6728341072        6.9197160916
  O         5.5913122439        5.1119763150        9.9697611722
  H         4.6406744756        4.9046691090       10.0660910391
  H         5.9477396873        5.5175323872       10.9049153603
  C         3.8205632204        1.2929915089        1.6903298326
  H         2.9812208272        1.0157221865        1.0319580164
  H         4.5430628201        1.8429012158        1.0826622963
  H         4.3259083646        0.3956238182        2.0662003962
  H         3.4895494716        1.8905787099        2.5570189262
      68
 i =      145, E =      -435.8560174909
 Al         6.1966026483        5.7199591232        8.2538014318
 Al         9.4751319760        5.9349926126        8.2696664122
  H         4.6038850679        7.4037691861        7.8148510007
  H         7.9588273133        4.1903864345        8.8840959942
  H         8.6386611466        7.4685986970       12.5119317245
  H         8.6901320362        7.2263850293       15.0306904608
  H         6.1132000266        5.8587028266       14.7870382014
  H         5.6796510886        4.7173669336        1.8822195319
  H         3.1319954928        6.0144896909        1.6400577439
  H         3.1867862892        6.2217482107        4.1533316496
  H         9.3458776937        8.7742281891       10.2112339493
  H        10.9016995870       10.0490522611       11.6372447520
  H         6.3347489597        3.0801756795        9.8934480691
  H         7.8252973855        1.9258192725       11.4630261643
  H         6.6373386201        7.1511659707       11.6379186976
  H         7.1907670801        5.9204121497       12.6357405446
  H         5.2938947682        5.3554136647        5.4347236413
  H         4.5677553116        4.7962449805        3.9454216362
  C         7.7330191913        8.2274360762        8.3525817661
  C         7.9012317978        5.7416159303        5.8616591422
  C         4.5066455985        3.3985359948        8.0961920122
  C         4.0170416328        7.0573658803       10.7874553989
  C         4.0162013608        6.8196317128       12.2603279202
  C         9.5154156798        7.0746577831       13.0280610265
  C         9.5312585301        6.9365228584       14.4054749245
  C         4.0641187855        6.4534191365       15.0163752776
  C         5.2209229203        6.2036070902       14.2668459548
  C         5.2137177929        6.4491279983       12.9025371269
  C         6.5733979548        5.0628123733        2.3993043653
  C         7.7282393231        5.2831470149        1.6641790187
  C         2.2832207650        5.7467337267        2.2613144852
  C         8.9310266806        5.8767780576        3.6293345336
  C         7.7888599507        5.6338690966        4.4122335221
  C         6.5388022996        5.3217599684        3.7860983313
  C         7.6203258219        9.7157564299        8.4209113940
  C         8.5164995406       10.4766383632        9.2256000269
  C         6.6703245770       10.3751109436        7.6714884403
  C         9.3785105336        9.8523015490       10.1514644670
  C        10.2438594655       10.5712520264       10.9440425809
  C         4.4732154438        1.9101968070        8.2587466347
  C         3.5243943006        1.1570874120        7.6053595879
  C         5.4178071965        1.2716327771        9.1222037667
  C         6.3259317137        1.9951901282        9.9384257527
  C         7.1540513924        1.3445754943       10.8303774960
  N         4.2182325407        6.3669102156       16.4054605107
  N         7.5815197214        5.1022730606        0.2835134844
  N         6.3897468763        6.2736236841       12.1088674818
  N         5.3420123077        5.2439351668        4.4252298269
  O         6.6887400684        7.5584393367        8.5755558675
  O         9.0557306222        5.6334287011        6.4050391125
  O         3.4870863309        4.0473950984        8.5024575813
  O         4.8854967047        7.8155689321       10.3334303187
  O         5.5910488817        3.9002448906        7.6701547175
  O         3.1120365888        6.3740545035       10.1338311419
  O         8.8724095448        7.7513812001        8.0444617437
  O         6.8013032322        5.9463805097        6.4866315999
  O         4.5454433377        6.4245774414        7.7469851225
  O         7.8619476062        5.1555391446        8.7966082889
  F         2.5759490011        1.7706854925        6.8582125937
  F         5.7840642977        9.6835329921        6.9290390779
  O         5.5938351660        5.1238300511        9.9855655078
  H         4.6388381340        4.9318595573       10.0826610021
  H         5.9650583045        5.5360087747       10.9145206832
  C         3.8231090042        1.3051687777        1.6959841302
  H         2.9838975968        1.0187529860        1.0398722230
  H         4.5423524841        1.8546318488        1.0796532128
  H         4.3264655889        0.4055438415        2.0682188357
  H         3.4826074789        1.9073391380        2.5555293925
      68
 i =      146, E =      -435.8569968574
 Al         6.1930450729        5.7230851377        8.2497075477
 Al         9.4715057957        5.9345609256        8.2685711103
  H         4.6087093618        7.4029078661        7.8189073757
  H         7.9597631161        4.1921818017        8.8859393824
  H         8.6410404702        7.4701506251       12.5088227597
  H         8.6858754694        7.2299988348       15.0239296087
  H         6.1114338873        5.8707326073       14.7938708117
  H         5.6796699896        4.7121087888        1.8834192979
  H         3.1311965117        5.9985395159        1.6393025719
  H         3.1875945239        6.2160377214        4.1504891804
  H         9.3399182733        8.7747525229       10.2171897740
  H        10.9055532304       10.0529248307       11.6303676765
  H         6.3338575370        3.0803346062        9.8869753728
  H         7.8331673568        1.9307617420       11.4526924995
  H         6.6409030893        7.1598921092       11.6334326250
  H         7.1930610439        5.9287253748       12.6492552864
  H         5.2890821181        5.3532544491        5.4337094222
  H         4.5667780515        4.7929652892        3.9412678217
  C         7.7276447521        8.2267701299        8.3424583324
  C         7.8991104952        5.7393561250        5.8621715614
  C         4.5029019928        3.3997391456        8.0920492303
  C         4.0186517594        7.0623288855       10.7866383338
  C         4.0184585341        6.8226645279       12.2602802230
  C         9.5161579958        7.0782738149       13.0272148370
  C         9.5302427932        6.9385269983       14.4046547209
  C         4.0628118554        6.4605065347       15.0163993790
  C         5.2200707116        6.2088858079       14.2710094984
  C         5.2177077247        6.4559688305       12.9065954872
  C         6.5723318575        5.0601007380        2.3989123614
  C         7.7273367983        5.2713490782        1.6612807902
  C         2.2796491932        5.7384445519        2.2603756644
  C         8.9299911101        5.8694504308        3.6293256396
  C         7.7865905908        5.6299396140        4.4119745477
  C         6.5390694000        5.3166875525        3.7844051617
  C         7.6152542955        9.7156999137        8.4209104320
  C         8.5121679848       10.4767288887        9.2281925196
  C         6.6653682314       10.3769509141        7.6711566981
  C         9.3728614536        9.8528240501       10.1563561761
  C        10.2451991034       10.5748346785       10.9394301838
  C         4.4711460244        1.9131850015        8.2588698831
  C         3.5178610698        1.1592306833        7.6100032899
  C         5.4133959035        1.2728869689        9.1234016404
  C         6.3258973831        1.9960195797        9.9362355187
  C         7.1556642071        1.3475251293       10.8282095852
  N         4.2161796409        6.3648410666       16.4041686933
  N         7.5781713758        5.0959070968        0.2802727991
  N         6.3965335809        6.2854456694       12.1157874160
  N         5.3396138709        5.2464036947        4.4226327856
  O         6.6850878019        7.5532263848        8.5742904591
  O         9.0554355047        5.6333952260        6.4020045032
  O         3.4813499350        4.0516493625        8.4930592828
  O         4.8806753892        7.8275498738       10.3377725256
  O         5.5881874814        3.9033515402        7.6704713516
  O         3.1111598533        6.3729255988       10.1380334026
  O         8.8704139555        7.7525655531        8.0471683140
  O         6.7994305433        5.9471149553        6.4866214939
  O         4.5404857939        6.4284635277        7.7510154576
  O         7.8572487001        5.1572602128        8.7914654468
  F         2.5849618427        1.7681408171        6.8442151049
  F         5.7986983558        9.6753904129        6.9152834359
  O         5.5919874782        5.1265192688        9.9860055010
  H         4.6357594428        4.9383911715       10.0820586780
  H         5.9710897685        5.5398291178       10.9077013703
  C         3.8273257441        1.3087543040        1.6967534230
  H         2.9857930651        1.0310657328        1.0469701506
  H         4.5468061403        1.8666382783        1.0888748330
  H         4.3206428887        0.4040038810        2.0621808993
  H         3.4769640408        1.9049940775        2.5499690661
      68
 i =      147, E =      -435.8577909124
 Al         6.1944269973        5.7222321058        8.2451147321
 Al         9.4717486789        5.9312817707        8.2618085466
  H         4.6175496224        7.3997618056        7.8219811198
  H         7.9679422936        4.1939446777        8.8855578521
  H         8.6396100185        7.4724089880       12.5079648293
  H         8.6818936028        7.2302424788       15.0194255162
  H         6.1120953419        5.8801197869       14.7956956523
  H         5.6768162917        4.7069773539        1.8834885346
  H         3.1325838340        5.9846225549        1.6406879490
  H         3.1853212765        6.2078061908        4.1496988750
  H         9.3315622335        8.7763601077       10.2269087611
  H        10.9091281648       10.0556651114       11.6250012750
  H         6.3346484901        3.0821139465        9.8861005597
  H         7.8452146241        1.9329659685       11.4421183503
  H         6.6388519874        7.1743411720       11.6284614489
  H         7.1960740523        5.9466892218       12.6519202511
  H         5.2887467928        5.3554782382        5.4340584437
  H         4.5643637515        4.7883457451        3.9417860526
  C         7.7249838223        8.2264812448        8.3394095549
  C         7.8980375410        5.7390249208        5.8595604102
  C         4.5012716901        3.4011606359        8.0969186652
  C         4.0213791912        7.0638130104       10.7872061623
  C         4.0192434507        6.8290163263       12.2622003251
  C         9.5156401660        7.0830352142       13.0265382556
  C         9.5301207854        6.9432538590       14.4035716987
  C         4.0612670818        6.4642712092       15.0167238009
  C         5.2202766175        6.2180994104       14.2725856914
  C         5.2199332197        6.4668748988       12.9087948312
  C         6.5689950278        5.0538840896        2.3989403489
  C         7.7257561915        5.2596843743        1.6623012588
  C         2.2793088191        5.7263336065        2.2595746370
  C         8.9283616023        5.8584568261        3.6288705548
  C         7.7823310803        5.6246474821        4.4098039207
  C         6.5365878965        5.3101541380        3.7829467400
  C         7.6114925495        9.7181506862        8.4217101456
  C         8.5141912758       10.4800757081        9.2262839247
  C         6.6638536298       10.3765030546        7.6659667731
  C         9.3727460296        9.8545590475       10.1555220809
  C        10.2428681982       10.5778616541       10.9406083026
  C         4.4678339101        1.9162222836        8.2605996746
  C         3.5175314899        1.1588960092        7.6108208807
  C         5.4108209925        1.2772499006        9.1252701690
  C         6.3295736415        1.9987339197        9.9332653836
  C         7.1633836878        1.3505855282       10.8213350087
  N         4.2139276863        6.3611382607       16.4032981492
  N         7.5764660103        5.0913894813        0.2807113579
  N         6.3976017669        6.3011022640       12.1174600740
  N         5.3357590402        5.2500613100        4.4223317021
  O         6.6821630668        7.5494715732        8.5746977074
  O         9.0541005927        5.6368406926        6.3997951159
  O         3.4740957700        4.0513866343        8.4887656226
  O         4.8748866247        7.8329370087       10.3340041916
  O         5.5842478560        3.9096501099        7.6732992711
  O         3.1171542781        6.3737889273       10.1335445760
  O         8.8691717631        7.7525806192        8.0470679595
  O         6.7989525185        5.9518035247        6.4840575826
  O         4.5414135595        6.4305487052        7.7587931967
  O         7.8573503264        5.1577377680        8.7922754345
  F         2.5847971788        1.7693520260        6.8482180786
  F         5.7911991896        9.6792309435        6.9124881548
  O         5.5955154277        5.1234075796        9.9844200051
  H         4.6378467624        4.9421945441       10.0787366496
  H         5.9789479806        5.5354952789       10.9004468727
  C         3.8285382687        1.3144752377        1.6983226472
  H         2.9834661601        1.0359380068        1.0528867309
  H         4.5482224216        1.8761170777        1.0891520234
  H         4.3200870745        0.4062052976        2.0638957482
  H         3.4759909197        1.9114938154        2.5467068179
      68
 i =      148, E =      -435.8587607315
 Al         6.1972759282        5.7141266188        8.2332671778
 Al         9.4759805682        5.9283929720        8.2506430493
  H         4.6348019564        7.3969584541        7.8433743398
  H         7.9837024913        4.1961893125        8.8808560625
  H         8.6361341320        7.4788822487       12.5090001831
  H         8.6729851419        7.2307207738       15.0138693860
  H         6.1120446768        5.9035716569       14.7984682915
  H         5.6687720578        4.6942098568        1.8829748871
  H         3.1363754642        5.9453861214        1.6428959947
  H         3.1796631493        6.1836127507        4.1493818378
  H         9.3117724081        8.7828304244       10.2489305633
  H        10.9172223775       10.0617215103       11.6137152828
  H         6.3410081220        3.0873060967        9.8805008766
  H         7.8766422330        1.9363527613       11.4113961698
  H         6.6297706500        7.2006947944       11.6161976845
  H         7.2055542492        6.0041426401       12.6633837363
  H         5.2872837398        5.3607747714        5.4302403586
  H         4.5572056299        4.7801256537        3.9461697121
  C         7.7202809591        8.2243622678        8.3392400678
  C         7.8955414748        5.7374898743        5.8533165229
  C         4.4981784962        3.4042410204        8.1060533074
  C         4.0213652001        7.0678593656       10.7859297758
  C         4.0221361612        6.8493379840       12.2624203114
  C         9.5160529602        7.0938054295       13.0259677543
  C         9.5280289964        6.9538448058       14.4023526876
  C         4.0574270263        6.4718098607       15.0174071812
  C         5.2208451176        6.2438998793       14.2727168944
  C         5.2239462030        6.4955024793       12.9104124215
  C         6.5631063986        5.0322645638        2.3990047022
  C         7.7218045149        5.2321234858        1.6627678654
  C         2.2800909708        5.6897137362        2.2577911711
  C         8.9255825523        5.8313714924        3.6262201231
  C         7.7752223216        5.6118027289        4.4050830285
  C         6.5295315985        5.3015155980        3.7799212253
  C         7.6092705291        9.7212103018        8.4204493647
  C         8.5101807029       10.4864529897        9.2293470409
  C         6.6643787332       10.3823510412        7.6651128800
  C         9.3680681581        9.8602315275       10.1574143708
  C        10.2464219826       10.5846113739       10.9344398009
  C         4.4601058488        1.9217211264        8.2651022182
  C         3.5123998153        1.1645766278        7.6092764480
  C         5.4111334187        1.2850352385        9.1235601505
  C         6.3356857088        2.0048036752        9.9262252121
  C         7.1786560260        1.3562058024       10.8047851891
  N         4.2072329451        6.3524459359       16.4018518034
  N         7.5699761326        5.0770585399        0.2797872828
  N         6.4006456930        6.3367037146       12.1234328631
  N         5.3268533907        5.2563395629        4.4186166414
  O         6.6779915456        7.5396841211        8.5708186606
  O         9.0493904933        5.6487220360        6.3994290577
  O         3.4640058592        4.0543131679        8.4897373813
  O         4.8564304691        7.8533502160       10.3234618124
  O         5.5807486060        3.9149230268        7.6802887627
  O         3.1195299936        6.3696290051       10.1332413276
  O         8.8663042022        7.7543056545        8.0449252141
  O         6.7964375133        5.9544989236        6.4773979388
  O         4.5464280526        6.4225023182        7.7513239879
  O         7.8593226914        5.1573568011        8.7898035661
  F         2.5832919595        1.7625732143        6.8367323032
  F         5.7891482049        9.6811560495        6.9194925088
  O         5.6099630204        5.1196378460        9.9852816191
  H         4.6471434479        4.9577632776       10.0806657480
  H         6.0021692736        5.5331219270       10.8901807450
  C         3.8364654261        1.3291668692        1.7029841948
  H         2.9835908126        1.0448996444        1.0641711031
  H         4.5429474944        1.8988607842        1.0904005548
  H         4.3179845937        0.4174647298        2.0671735308
  H         3.4724976562        1.9312920187        2.5429831203
      68
 i =      149, E =      -435.8595188769
 Al         6.1997789325        5.7074803669        8.2259548827
 Al         9.4767041123        5.9286178183        8.2436219007
  H         4.6421143937        7.3906441424        7.8601018458
  H         7.9946585900        4.1975364517        8.8779310114
  H         8.6330841074        7.4913691829       12.5094265985
  H         8.6626763970        7.2313125838       15.0116268953
  H         6.1107140763        5.9307717701       14.7988603173
  H         5.6610457790        4.6775918973        1.8861288290
  H         3.1383962991        5.8955832356        1.6426998850
  H         3.1773499299        6.1537856184        4.1479184672
  H         9.2909453313        8.7909209382       10.2666844637
  H        10.9247766572       10.0657884239       11.6032338509
  H         6.3541421816        3.0911551135        9.8674630480
  H         7.9108089470        1.9368661155       11.3731372333
  H         6.6132982104        7.2401534313       11.6021322237
  H         7.2170283848        6.0804195123       12.6711093592
  H         5.2850993578        5.3671013034        5.4256754630
  H         4.5520987305        4.7750102349        3.9537122769
  C         7.7168599815        8.2222976365        8.3444883327
  C         7.8957484849        5.7336363496        5.8509384191
  C         4.4955187335        3.4067251091        8.1110861520
  C         4.0130141723        7.0816864360       10.7806575382
  C         4.0237215000        6.8734620393       12.2594536349
  C         9.5169800624        7.1104974337       13.0242642074
  C         9.5209934142        6.9613918756       14.4007382337
  C         4.0520057111        6.4812135278       15.0149949245
  C         5.2196954930        6.2697745673       14.2706801520
  C         5.2265660401        6.5273395779       12.9092938622
  C         6.5592310593        5.0103897903        2.4005208879
  C         7.7192787524        5.1972993685        1.6608749110
  C         2.2798856515        5.6472195082        2.2572773109
  C         8.9245736607        5.8012087743        3.6237858809
  C         7.7723231514        5.5994868855        4.4042295095
  C         6.5258739011        5.2915334801        3.7796640754
  C         7.6056472248        9.7215772789        8.4233174604
  C         8.5071969340       10.4878344299        9.2306583191
  C         6.6626455563       10.3826110644        7.6678214088
  C         9.3574660393        9.8660282734       10.1673286498
  C        10.2597892647       10.5903728864       10.9190130868
  C         4.4585805139        1.9245455772        8.2663472759
  C         3.5131968657        1.1653337414        7.6082850991
  C         5.4111624874        1.2861449501        9.1215986263
  C         6.3450302895        2.0083870438        9.9113210401
  C         7.1933987899        1.3593880511       10.7849637459
  N         4.1984496122        6.3393875927       16.3982128593
  N         7.5612126880        5.0541953140        0.2759414320
  N         6.4040906176        6.3782201410       12.1257684263
  N         5.3190988382        5.2653754295        4.4141584548
  O         6.6783582593        7.5302748332        8.5762247864
  O         9.0503123473        5.6460898928        6.3984749741
  O         3.4592005714        4.0601891568        8.4854970560
  O         4.8282681650        7.8859393589       10.3109306208
  O         5.5798925794        3.9163922135        7.6869354069
  O         3.1153279267        6.3679584411       10.1356254181
  O         8.8626853241        7.7576487335        8.0473210302
  O         6.7972623444        5.9486596584        6.4768892065
  O         4.5511503174        6.4246944772        7.7638491748
  O         7.8599348523        5.1573535130        8.7896788453
  F         2.5832371013        1.7677549464        6.8411300987
  F         5.7899315919        9.6832730825        6.9187361952
  O         5.6229944423        5.1184861270        9.9941652093
  H         4.6548679544        4.9823404774       10.0902557130
  H         6.0260844562        5.5351837951       10.8877697568
  C         3.8376789466        1.3497844899        1.7098107367
  H         2.9845894568        1.0520821552        1.0768727907
  H         4.5380643596        1.9207428341        1.0867249514
  H         4.3230188228        0.4342052543        2.0733083630
  H         3.4663001074        1.9596098852        2.5407413280
      68
 i =      150, E =      -435.8601386963
 Al         6.2002287961        5.7036737149        8.2196639890
 Al         9.4760936636        5.9318576007        8.2410114170
  H         4.6426730206        7.3919389459        7.8735998632
  H         8.0002340089        4.1971466123        8.8761728158
  H         8.6339394519        7.4942019161       12.5050989545
  H         8.6614894393        7.2284281900       15.0110707398
  H         6.1155375059        5.9478637919       14.7960301760
  H         5.6539060291        4.6692008975        1.8857474477
  H         3.1373293788        5.8683902018        1.6423036268
  H         3.1751763646        6.1334491212        4.1478821556
  H         9.2802741710        8.7983022531       10.2791073988
  H        10.9297538236       10.0709658757       11.6010043543
  H         6.3589586282        3.0930897487        9.8625885807
  H         7.9259548194        1.9382442084       11.3531457216
  H         6.6015206993        7.2528365431       11.5852928680
  H         7.2257564942        6.1221758011       12.6750537354
  H         5.2851516819        5.3731700763        5.4215934595
  H         4.5484235945        4.7734433363        3.9601293529
  C         7.7166740904        8.2233733476        8.3514471497
  C         7.8945080974        5.7299187939        5.8509480244
  C         4.4952008437        3.4098872006        8.1098786178
  C         4.0014661410        7.0853184124       10.7768374940
  C         4.0233839155        6.8778116306       12.2569091254
  C         9.5187434375        7.1170011148       13.0218657500
  C         9.5207588658        6.9658259389       14.3981665406
  C         4.0535457252        6.4876110106       15.0107378153
  C         5.2226069874        6.2813429437       14.2681672522
  C         5.2295193620        6.5389966296       12.9050494575
  C         6.5557946295        4.9975213751        2.3991426447
  C         7.7168505439        5.1796758775        1.6595622688
  C         2.2790105810        5.6230805374        2.2586137260
  C         8.9223725286        5.7825227476        3.6232581653
  C         7.7714204139        5.5879983762        4.4058203616
  C         6.5237727603        5.2835023368        3.7786016163
  C         7.5983586716        9.7226679034        8.4343475274
  C         8.5034830393       10.4894850040        9.2339344817
  C         6.6623886324       10.3799235175        7.6687330749
  C         9.3545787657        9.8713292556       10.1706845517
  C        10.2617800061       10.5920971356       10.9182260505
  C         4.4592872340        1.9265343250        8.2682069338
  C         3.5140166569        1.1643168018        7.6121294683
  C         5.4119842152        1.2868391918        9.1221057435
  C         6.3483165569        2.0091438948        9.9072947432
  C         7.2079466714        1.3601313166       10.7696332207
  N         4.1969250774        6.3361089042       16.3942233412
  N         7.5600966458        5.0411662136        0.2723810052
  N         6.4070894723        6.3928934843       12.1212376355
  N         5.3161948262        5.2653202359        4.4112910167
  O         6.6803975327        7.5316413542        8.5808889807
  O         9.0516307227        5.6428582380        6.3973058309
  O         3.4611112808        4.0653619863        8.4832228075
  O         4.8074480939        7.8916302466       10.2977658113
  O         5.5812384100        3.9171626291        7.6886040340
  O         3.1061244690        6.3718016074       10.1388343623
  O         8.8603108654        7.7614399288        8.0450117128
  O         6.7964256344        5.9471505538        6.4788879961
  O         4.5527483814        6.4232037616        7.7611169057
  O         7.8592087315        5.1564751821        8.7856728122
  F         2.5798168231        1.7675222782        6.8503687772
  F         5.7893959964        9.6796417781        6.9176271294
  O         5.6332332464        5.1181340610        9.9938735590
  H         4.6659086898        4.9943088032       10.0908997184
  H         6.0366962723        5.5345192312       10.8798523102
  C         3.8365444929        1.3622385611        1.7129935501
  H         2.9874823575        1.0626894689        1.0836458662
  H         4.5361516120        1.9344255125        1.0922095336
  H         4.3220067444        0.4454914671        2.0715654882
  H         3.4653501018        1.9697449084        2.5393717513
      68
 i =      151, E =      -435.8607128000
 Al         6.2043956463        5.6975882103        8.2118719082
 Al         9.4763761330        5.9366369612        8.2387435751
  H         4.6420469747        7.3942932621        7.8778154708
  H         8.0058488335        4.1954761931        8.8746195407
  H         8.6345524209        7.4926217532       12.4998691666
  H         8.6677369335        7.2217215762       15.0135143616
  H         6.1242747946        5.9561582080       14.7859218846
  H         5.6488595907        4.6662822036        1.8822320954
  H         3.1339826469        5.8557924449        1.6428506138
  H         3.1746506926        6.1171366273        4.1485439529
  H         9.2750585294        8.8031271253       10.2881565254
  H        10.9290124601       10.0739543505       11.6064921435
  H         6.3608156023        3.0929490241        9.8650264947
  H         7.9348854693        1.9383676587       11.3448017582
  H         6.5857394248        7.2513766056       11.5694274472
  H         7.2318309418        6.1533947703       12.6650517596
  H         5.2893954668        5.3829613831        5.4218456155
  H         4.5460803979        4.7702391779        3.9690702665
  C         7.7199328811        8.2252730420        8.3598732282
  C         7.8949417975        5.7254568430        5.8489374957
  C         4.4970016457        3.4116760272        8.1057530602
  C         3.9922403856        7.0871736783       10.7717443836
  C         4.0188621779        6.8769818917       12.2530228081
  C         9.5168747527        7.1161800136       13.0215049283
  C         9.5258373614        6.9661152004       14.3976231728
  C         4.0607534724        6.4884514073       15.0072805338
  C         5.2281993387        6.2844116841       14.2618473485
  C         5.2286596365        6.5417099505       12.8955189544
  C         6.5538450073        4.9887548498        2.3955541725
  C         7.7151420422        5.1711553492        1.6574297019
  C         2.2770280253        5.6108535975        2.2606074854
  C         8.9211214594        5.7681528951        3.6240295881
  C         7.7717537939        5.5745721548        4.4063239539
  C         6.5212992574        5.2751154000        3.7763963648
  C         7.6021984439        9.7236472401        8.4417367263
  C         8.5031826039       10.4923485642        9.2398081445
  C         6.6652029938       10.3814308507        7.6784319043
  C         9.3549094639        9.8741068154       10.1751970241
  C        10.2655221595       10.5924139451       10.9179938250
  C         4.4615818434        1.9262608273        8.2684698985
  C         3.5158009115        1.1665475819        7.6113356332
  C         5.4140354077        1.2882390294        9.1241052220
  C         6.3573135599        2.0085558894        9.9026886866
  C         7.2151649608        1.3590068364       10.7670812984
  N         4.2021917556        6.3390695686       16.3917251680
  N         7.5644511257        5.0356949847        0.2677930333
  N         6.4051510600        6.3946228607       12.1086540037
  N         5.3164971420        5.2632969427        4.4124201076
  O         6.6850981486        7.5376771030        8.5889534802
  O         9.0535301212        5.6406123372        6.3957838611
  O         3.4690968536        4.0690299571        8.4869695551
  O         4.7931580986        7.8871018440       10.2772383733
  O         5.5845849553        3.9150455680        7.6852051487
  O         3.1002055035        6.3649218542       10.1364038282
  O         8.8604470558        7.7636376706        8.0430800091
  O         6.7979058674        5.9502727963        6.4774807002
  O         4.5555710639        6.4240536607        7.7590318248
  O         7.8619129903        5.1543596624        8.7827616873
  F         2.5808168076        1.7735911657        6.8503445265
  F         5.7946991969        9.6807776508        6.9229364836
  O         5.6436280202        5.1126719075        9.9870967673
  H         4.6760674737        4.9969535017       10.0861593993
  H         6.0396632722        5.5266826575       10.8693347912
  C         3.8328322613        1.3709924231        1.7140886203
  H         2.9849354697        1.0685978507        1.0859785866
  H         4.5373563574        1.9399419920        1.0931065524
  H         4.3238439878        0.4565052246        2.0736744561
  H         3.4668985493        1.9795834439        2.5413752252
      68
 i =      152, E =      -435.8610757170
 Al         6.2082087226        5.6969773190        8.2092005533
 Al         9.4773298273        5.9416293797        8.2424943546
  H         4.6402312748        7.3976429130        7.8786488944
  H         8.0052084042        4.1937322946        8.8749395834
  H         8.6345745808        7.4907331042       12.4985494322
  H         8.6755174018        7.2185716626       15.0162982593
  H         6.1301316460        5.9594206437       14.7760094734
  H         5.6475887818        4.6645223244        1.8779651844
  H         3.1324654854        5.8511941956        1.6408158058
  H         3.1772376801        6.1067051675        4.1458111523
  H         9.2729164704        8.8041106587       10.2932945502
  H        10.9281133460       10.0734122649       11.6121674346
  H         6.3635011138        3.0930874900        9.8643231692
  H         7.9380279000        1.9377009319       11.3441206191
  H         6.5751505569        7.2514493530       11.5591487594
  H         7.2340326046        6.1661146157       12.6557529789
  H         5.2919376796        5.3896751195        5.4218719306
  H         4.5458987490        4.7666911977        3.9721601962
  C         7.7212665748        8.2282964375        8.3629112246
  C         7.8963838735        5.7230633453        5.8466558547
  C         4.5004708016        3.4122162669        8.1020530338
  C         3.9886684517        7.0869051963       10.7681951814
  C         4.0179878823        6.8764508587       12.2484114018
  C         9.5168417173        7.1137748152       13.0200323396
  C         9.5286283033        6.9606006477       14.3963470530
  C         4.0660018424        6.4900249387       15.0050499268
  C         5.2313891312        6.2867720239       14.2561996666
  C         5.2269178644        6.5381299545       12.8890955052
  C         6.5530120240        4.9839288137        2.3917914764
  C         7.7141052752        5.1685690442        1.6548771545
  C         2.2763256233        5.6061838401        2.2590502017
  C         8.9224657480        5.7580567243        3.6228944185
  C         7.7728394567        5.5661148340        4.4050807892
  C         6.5215538678        5.2674374152        3.7738746109
  C         7.6052768149        9.7251852773        8.4440908554
  C         8.5014087673       10.4930881693        9.2474635323
  C         6.6622784943       10.3777246948        7.6816106747
  C         9.3568888817        9.8747415335       10.1801690716
  C        10.2668665801       10.5931888325       10.9221518654
  C         4.4635246143        1.9250589799        8.2679228959
  C         3.5172184342        1.1628466650        7.6156997516
  C         5.4182401574        1.2882908206        9.1221974624
  C         6.3585521506        2.0081592448        9.9032531132
  C         7.2183791505        1.3593123196       10.7660449435
  N         4.2075026542        6.3423207183       16.3904762768
  N         7.5684486212        5.0335865847        0.2639721089
  N         6.4044215462        6.3953803525       12.0990772890
  N         5.3185391587        5.2614418126        4.4125082547
  O         6.6883944674        7.5424323276        8.6012521921
  O         9.0532525062        5.6408186506        6.3968126843
  O         3.4785546448        4.0707347441        8.4900032409
  O         4.7874592940        7.8857284245       10.2691092323
  O         5.5867637764        3.9139912513        7.6744523327
  O         3.1015563116        6.3569328114       10.1344749280
  O         8.8605367832        7.7640557613        8.0442727248
  O         6.8004787646        5.9507141071        6.4764895272
  O         4.5559108477        6.4264692012        7.7546115425
  O         7.8646160457        5.1525181641        8.7797401069
  F         2.5823940545        1.7631832260        6.8486466153
  F         5.7938016894        9.6765555776        6.9212163008
  O         5.6484575665        5.1079716222        9.9847096922
  H         4.6786973351        4.9971539054       10.0844338903
  H         6.0399171975        5.5198161768       10.8640056981
  C         3.8333173666        1.3753000278        1.7134665367
  H         2.9827046089        1.0720022559        1.0865250612
  H         4.5371262598        1.9448968303        1.0929264030
  H         4.3222448503        0.4636668398        2.0775736065
  H         3.4691838537        1.9868415845        2.5432014878
      68
 i =      153, E =      -435.8614624651
 Al         6.2094595184        5.6994951096        8.2082882963
 Al         9.4769914556        5.9435256621        8.2487726613
  H         4.6366148022        7.4021685721        7.8801527211
  H         8.0008105730        4.1936919867        8.8766519930
  H         8.6361329528        7.4888557097       12.4976368606
  H         8.6819811588        7.2166853200       15.0158837955
  H         6.1369467661        5.9664554361       14.7671719409
  H         5.6475490847        4.6607590676        1.8742606380
  H         3.1325639424        5.8427235060        1.6373909852
  H         3.1813149115        6.0934061173        4.1408972109
  H         9.2695645095        8.8045814204       10.3014327020
  H        10.9285873391       10.0747258484       11.6157421926
  H         6.3669213883        3.0930879672        9.8591233529
  H         7.9422607024        1.9397451096       11.3428456542
  H         6.5649183918        7.2537498104       11.5451387501
  H         7.2374693136        6.1765641493       12.6492086000
  H         5.2926177464        5.3945971929        5.4187746557
  H         4.5457366742        4.7628153349        3.9716078580
  C         7.7202460010        8.2290994933        8.3702228050
  C         7.8958757990        5.7173471551        5.8460734762
  C         4.5034422674        3.4102729795        8.0972507525
  C         3.9867936614        7.0847693820       10.7653186024
  C         4.0205011773        6.8751483514       12.2429996183
  C         9.5185457395        7.1078905149       13.0167455847
  C         9.5325120514        6.9596961740       14.3920941962
  C         4.0695442434        6.4887473194       15.0012070757
  C         5.2356144686        6.2919713925       14.2503957661
  C         5.2293896210        6.5369851753       12.8829882482
  C         6.5525397134        4.9775428971        2.3886240934
  C         7.7136271738        5.1616080885        1.6511876403
  C         2.2762264227        5.5980289434        2.2550057767
  C         8.9244110874        5.7464255363        3.6201444956
  C         7.7741936697        5.5570469364        4.4037949784
  C         6.5229885778        5.2603210411        3.7715980620
  C         7.6007480498        9.7251274287        8.4510257623
  C         8.5024219757       10.4941853971        9.2485816564
  C         6.6610869521       10.3804811298        7.6838376803
  C         9.3520894770        9.8754197512       10.1893936470
  C        10.2668440421       10.5949447306       10.9257598559
  C         4.4645906090        1.9227441811        8.2655594586
  C         3.5115440651        1.1649641267        7.6188958495
  C         5.4160017568        1.2889729281        9.1257184662
  C         6.3610615906        2.0085230358        9.9022311690
  C         7.2196732498        1.3608878490       10.7672123736
  N         4.2114584864        6.3472544264       16.3872730239
  N         7.5710455720        5.0316517252        0.2586218121
  N         6.4069542814        6.3974910478       12.0913631876
  N         5.3212688024        5.2562700056        4.4099945326
  O         6.6898338740        7.5429018604        8.6261736819
  O         9.0513854864        5.6443107669        6.3970223219
  O         3.4866629014        4.0693974640        8.4904205368
  O         4.7837515017        7.8852274147       10.2678267110
  O         5.5881624368        3.9120591282        7.6663620161
  O         3.1069346682        6.3510346807       10.1324117986
  O         8.8580758174        7.7609574550        8.0447580395
  O         6.8008253144        5.9556210120        6.4754848148
  O         4.5526479962        6.4324388159        7.7535831037
  O         7.8663872234        5.1526201581        8.7788955966
  F         2.5828017003        1.7659836525        6.8430779521
  F         5.7949462443        9.6769640279        6.9221384974
  O         5.6535531709        5.1051766714        9.9839257598
  H         4.6832971047        4.9996080359       10.0841337059
  H         6.0439675821        5.5147823611       10.8560080034
  C         3.8342703700        1.3814521144        1.7125681478
  H         2.9800494895        1.0820339218        1.0896454492
  H         4.5374895247        1.9561792263        1.0975856571
  H         4.3196018107        0.4693947655        2.0793725667
  H         3.4713475389        1.9925022239        2.5426149616
      68
 i =      154, E =      -435.8616434339
 Al         6.2102032043        5.7013813095        8.2083356832
 Al         9.4759235954        5.9436243182        8.2517235035
  H         4.6376962987        7.4032671631        7.8878240754
  H         7.9998422584        4.1934310478        8.8775810491
  H         8.6346952813        7.4914783657       12.4981793395
  H         8.6827331413        7.2155766034       15.0128615434
  H         6.1437645638        5.9787334038       14.7596524228
  H         5.6480107522        4.6522852517        1.8730517767
  H         3.1347935491        5.8217120350        1.6339403343
  H         3.1859591697        6.0734153040        4.1356262376
  H         9.2602667847        8.8063118476       10.3158232071
  H        10.9314061923       10.0772940595       11.6155491058
  H         6.3759658003        3.0927104391        9.8479751913
  H         7.9543707619        1.9417249205       11.3327918194
  H         6.5527700324        7.2688107376       11.5299394771
  H         7.2429594106        6.2057831830       12.6415397261
  H         5.2931981588        5.3999275549        5.4146347470
  H         4.5454862744        4.7578024317        3.9716023947
  C         7.7163343397        8.2271758289        8.3799201449
  C         7.8970452704        5.7161805582        5.8457535169
  C         4.5049900097        3.4092815887        8.0987796171
  C         3.9830520551        7.0869820145       10.7624986475
  C         4.0192061563        6.8787415734       12.2394048962
  C         9.5180179403        7.1096997336       13.0142034650
  C         9.5334920799        6.9591292117       14.3891219849
  C         4.0737261056        6.4934213350       14.9959461246
  C         5.2387766060        6.2960735403       14.2453880943
  C         5.2324170988        6.5509249179       12.8770272954
  C         6.5540242720        4.9668878753        2.3860533820
  C         7.7155055314        5.1466193112        1.6463900052
  C         2.2777835357        5.5794509664        2.2516984012
  C         8.9264036993        5.7289739631        3.6177880670
  C         7.7744721952        5.5455217611        4.4024196051
  C         6.5248116206        5.2502827806        3.7691741738
  C         7.5984463004        9.7238598269        8.4525294668
  C         8.4966440654       10.4955747693        9.2545627252
  C         6.6584482259       10.3820194192        7.6863995740
  C         9.3485638855        9.8774290739       10.1935504718
  C        10.2648891798       10.5966121299       10.9291630832
  C         4.4647331982        1.9230234845        8.2651987860
  C         3.5124145462        1.1653131613        7.6193531704
  C         5.4176226113        1.2904114619        9.1243176418
  C         6.3663770640        2.0091986605        9.8979265879
  C         7.2248474631        1.3622604434       10.7636675172
  N         4.2110579797        6.3458387541       16.3826249480
  N         7.5696214494        5.0230967126        0.2525170450
  N         6.4087985751        6.4163379866       12.0851771651
  N         5.3224685615        5.2535069699        4.4065456872
  O         6.6912543243        7.5354611766        8.6595370608
  O         9.0522141869        5.6430766617        6.3943351194
  O         3.4890944808        4.0665864248        8.4896394165
  O         4.7741997545        7.8971898516       10.2670094499
  O         5.5890936308        3.9108951677        7.6675987152
  O         3.1109598616        6.3392818544       10.1307974325
  O         8.8533398261        7.7583222891        8.0473616051
  O         6.8011024728        5.9576182894        6.4741272627
  O         4.5508297831        6.4369834014        7.7583338220
  O         7.8682182071        5.1526211723        8.7798881908
  F         2.5824669216        1.7652295191        6.8433723975
  F         5.7945467522        9.6817132478        6.9207293048
  O         5.6608880191        5.1045544723        9.9889415528
  H         4.6894730498        5.0116037122       10.0911558228
  H         6.0555367516        5.5148192641       10.8521300689
  C         3.8344131467        1.3934857627        1.7136689166
  H         2.9767654406        1.0925833974        1.0954931207
  H         4.5365785045        1.9714137393        1.0990087832
  H         4.3199721618        0.4808747581        2.0843674112
  H         3.4720160808        2.0074590543        2.5424292819
      68
 i =      155, E =      -435.8620417031
 Al         6.2096444868        5.6992593731        8.2074372569
 Al         9.4764951749        5.9413912715        8.2499266207
  H         4.6477425860        7.3989897395        7.8991806625
  H         8.0037389636        4.1920279224        8.8750028641
  H         8.6284265098        7.4980279268       12.5025862294
  H         8.6765513431        7.2149390754       15.0116838070
  H         6.1441017047        5.9875745804       14.7564690083
  H         5.6482889380        4.6423396042        1.8726095071
  H         3.1398323145        5.7962124006        1.6318801589
  H         3.1878589785        6.0560272098        4.1325822100
  H         9.2497506527        8.8094426956       10.3286423871
  H        10.9356909149       10.0791452181       11.6107583072
  H         6.3882548263        3.0921113512        9.8354226056
  H         7.9692957848        1.9416049280       11.3175980558
  H         6.5476186310        7.2955575611       11.5222349436
  H         7.2465090209        6.2429523521       12.6404370716
  H         5.2938543456        5.4027038301        5.4110526025
  H         4.5450015466        4.7536919819        3.9722916138
  C         7.7144626300        8.2236049766        8.3828657841
  C         7.8982889668        5.7152470304        5.8444374267
  C         4.5038989110        3.4094802272        8.1029287298
  C         3.9790898350        7.0933794772       10.7617732829
  C         4.0156739359        6.8915221299       12.2402265097
  C         9.5137124136        7.1175402079       13.0148887031
  C         9.5310624474        6.9641174658       14.3894347989
  C         4.0716235637        6.4943020678       14.9945578994
  C         5.2394815016        6.3091914670       14.2434100878
  C         5.2306149688        6.5677204933       12.8775356029
  C         6.5553851979        4.9546872218        2.3853928863
  C         7.7173398760        5.1312976496        1.6443520701
  C         2.2810678823        5.5582652492        2.2495649636
  C         8.9280103178        5.7129319787        3.6153845973
  C         7.7737665074        5.5391890550        4.4000429382
  C         6.5253731306        5.2432266964        3.7675660019
  C         7.5943773932        9.7218580245        8.4544877804
  C         8.4953694610       10.4951728415        9.2541378553
  C         6.6601981308       10.3807746377        7.6821389828
  C         9.3418280905        9.8798215082       10.1987160143
  C        10.2660518724       10.5984797298       10.9272535744
  C         4.4661298414        1.9251116503        8.2652632379
  C         3.5166057695        1.1638773977        7.6191190201
  C         5.4169948187        1.2900607544        9.1241209244
  C         6.3720561783        2.0097533199        9.8908138786
  C         7.2304009421        1.3631534767       10.7571050149
  N         4.2087840240        6.3396384747       16.3800054008
  N         7.5676879358        5.0114808908        0.2507490296
  N         6.4087206365        6.4475348797       12.0855492336
  N         5.3211514626        5.2542488136        4.4035635016
  O         6.6919448821        7.5253875257        8.6562125316
  O         9.0536456435        5.6424435332        6.3915603360
  O         3.4837166142        4.0631097931        8.4901410020
  O         4.7584007488        7.9179565417       10.2667487484
  O         5.5887841164        3.9116387219        7.6737428155
  O         3.1116780613        6.3310057985       10.1325961386
  O         8.8508712326        7.7567045646        8.0474836144
  O         6.8019456377        5.9564655939        6.4723407150
  O         4.5528516375        6.4350583441        7.7611645031
  O         7.8685490126        5.1512629122        8.7788847340
  F         2.5861930639        1.7678996012        6.8475589056
  F         5.7935690588        9.6812172584        6.9211637342
  O         5.6659467949        5.1074782387        9.9990417992
  H         4.6935345178        5.0292513038       10.1054368799
  H         6.0687301166        5.5239692031       10.8580117998
  C         3.8342657997        1.4061450666        1.7167764059
  H         2.9760118509        1.1001025108        1.1004421722
  H         4.5341145733        1.9821669901        1.0987216353
  H         4.3216663554        0.4951610950        2.0874476870
  H         3.4708907439        2.0230316004        2.5439096521
      68
 i =      156, E =      -435.8622615973
 Al         6.2098988779        5.6994426692        8.2072089706
 Al         9.4779192869        5.9389935180        8.2484327276
  H         4.6548878509        7.3946245114        7.9046482011
  H         8.0072732599        4.1899910401        8.8726965361
  H         8.6241597409        7.4989856436       12.5069445680
  H         8.6739179641        7.2140215909       15.0129694700
  H         6.1441662203        5.9881992736       14.7538421199
  H         5.6503511886        4.6370757116        1.8705788010
  H         3.1438375848        5.7875284803        1.6312862050
  H         3.1886513932        6.0491548734        4.1323807567
  H         9.2449924991        8.8120069097       10.3348208652
  H        10.9342040633       10.0796276275       11.6119383982
  H         6.3956752855        3.0907973221        9.8289273428
  H         7.9702871100        1.9398657474       11.3153570342
  H         6.5464947692        7.3095907781       11.5202601776
  H         7.2448998464        6.2556926281       12.6364665154
  H         5.2962829813        5.4020293176        5.4076266112
  H         4.5461668027        4.7530115190        3.9709044562
  C         7.7133519834        8.2201938423        8.3819392829
  C         7.8991444266        5.7123584948        5.8428880387
  C         4.5043145256        3.4067049557        8.1037575204
  C         3.9785869065        7.0971651671       10.7631765419
  C         4.0129212396        6.8952686480       12.2426123201
  C         9.5122292135        7.1219840256       13.0164483242
  C         9.5289627771        6.9637726535       14.3910384214
  C         4.0714942313        6.4969003896       14.9938501828
  C         5.2387964141        6.3114813473       14.2430856246
  C         5.2311872376        6.5801310875       12.8784068966
  C         6.5573790988        4.9492112763        2.3844029793
  C         7.7193112655        5.1273445590        1.6437919634
  C         2.2842230675        5.5508330496        2.2485374879
  C         8.9300341745        5.7073154302        3.6136726298
  C         7.7757777556        5.5366045834        4.3976657878
  C         6.5272614901        5.2405186602        3.7662408302
  C         7.5926067155        9.7195586147        8.4564312545
  C         8.4938672595       10.4919515800        9.2567670071
  C         6.6635923916       10.3795350043        7.6796452807
  C         9.3383488958        9.8809652522       10.2038935117
  C        10.2649094767       10.5998342949       10.9291870029
  C         4.4668485833        1.9229253816        8.2657898510
  C         3.5181518544        1.1634660659        7.6136211994
  C         5.4204173107        1.2868673008        9.1213838938
  C         6.3712455474        2.0086284239        9.8906094122
  C         7.2324174829        1.3634460763       10.7544923929
  N         4.2102590194        6.3350763432       16.3785666942
  N         7.5703444367        5.0073765421        0.2508773553
  N         6.4065897569        6.4634291397       12.0856429257
  N         5.3232214940        5.2482709949        4.4016183512
  O         6.6877899401        7.5244879446        8.6376756327
  O         9.0539859337        5.6400329233        6.3908482911
  O         3.4796796190        4.0580349621        8.4896377517
  O         4.7503370023        7.9316768688       10.2703681674
  O         5.5876834786        3.9148225724        7.6751371816
  O         3.1148579221        6.3270674497       10.1343635017
  O         8.8498809936        7.7566065345        8.0474718757
  O         6.8032442331        5.9535230014        6.4717601462
  O         4.5565265525        6.4320009995        7.7629948057
  O         7.8684385928        5.1493049724        8.7788197810
  F         2.5821627239        1.7694791459        6.8485657977
  F         5.7943942534        9.6809221158        6.9217565822
  O         5.6635728259        5.1098494459       10.0052703306
  H         4.6912731472        5.0383687750       10.1157149502
  H         6.0716691085        5.5324142458       10.8633725020
  C         3.8328903527        1.4125062551        1.7173561587
  H         2.9756754940        1.1084428827        1.1025771709
  H         4.5347345500        1.9872947231        1.1016310490
  H         4.3226007205        0.5030830133        2.0870741242
  H         3.4690021303        2.0281849761        2.5451373675
      68
 i =      157, E =      -435.8624750287
 Al         6.2096913175        5.6992819161        8.2069838115
 Al         9.4786414897        5.9396647470        8.2499339377
  H         4.6516503037        7.3960518102        7.9045030885
  H         8.0084098701        4.1881604807        8.8713971999
  H         8.6256923733        7.4918911449       12.5071045730
  H         8.6793728340        7.2111321215       15.0147434437
  H         6.1478912470        5.9831182516       14.7491659249
  H         5.6530504002        4.6383277234        1.8673848794
  H         3.1447552927        5.7957491914        1.6324533302
  H         3.1891910567        6.0497516577        4.1344274087
  H         9.2464601016        8.8129132290       10.3369303809
  H        10.9274145564       10.0801793680       11.6217012704
  H         6.3942095981        3.0894635846        9.8314475198
  H         7.9600996040        1.9390376093       11.3248853948
  H         6.5443454464        7.3032151309       11.5165494980
  H         7.2430293521        6.2453515453       12.6268083574
  H         5.2999268948        5.4009995451        5.4063232338
  H         4.5477861451        4.7517472867        3.9695573131
  C         7.7107893977        8.2205639720        8.3822535499
  C         7.8995336307        5.7123027170        5.8426868204
  C         4.5063951106        3.4054112488        8.1027391862
  C         3.9785698624        7.0942865381       10.7634012254
  C         4.0145075275        6.8923219978       12.2409722575
  C         9.5140093660        7.1148875556       13.0171679168
  C         9.5331648899        6.9616192735       14.3913025056
  C         4.0752177605        6.4927457200       14.9932027406
  C         5.2428278934        6.3112734851       14.2400348639
  C         5.2309038151        6.5698118168       12.8764351762
  C         6.5601651000        4.9510055629        2.3813828482
  C         7.7222162221        5.1323544537        1.6424404123
  C         2.2858634989        5.5563338669        2.2493704641
  C         8.9310847519        5.7092295758        3.6143834839
  C         7.7783217165        5.5339658003        4.3976270830
  C         6.5301860358        5.2382026768        3.7642229206
  C         7.5937013634        9.7198213403        8.4583607705
  C         8.4947821441       10.4906044517        9.2591241498
  C         6.6630966624       10.3767292614        7.6818390182
  C         9.3368961441        9.8808922046       10.2089993960
  C        10.2632535683       10.5995674447       10.9335815205
  C         4.4719552662        1.9211517008        8.2633122043
  C         3.5206616144        1.1613798557        7.6136879998
  C         5.4204968376        1.2847815576        9.1239433405
  C         6.3720323380        2.0075661187        9.8915303518
  C         7.2266870632        1.3622270809       10.7616027106
  N         4.2163590771        6.3379463098       16.3782940251
  N         7.5761509911        5.0126177810        0.2490658125
  N         6.4038761216        6.4552207154       12.0806814878
  N         5.3281946663        5.2387634113        4.4015469975
  O         6.6839764646        7.5282238797        8.6370465822
  O         9.0535298858        5.6384838304        6.3922899392
  O         3.4803754406        4.0549286143        8.4884247543
  O         4.7523921563        7.9230123743       10.2716128602
  O         5.5896270064        3.9144904838        7.6745604693
  O         3.1161693383        6.3243170163       10.1356534604
  O         8.8472430177        7.7580476053        8.0492712248
  O         6.8029071089        5.9512120522        6.4719156910
  O         4.5577129625        6.4296853599        7.7592212472
  O         7.8694674506        5.1474834213        8.7776518313
  F         2.5842390114        1.7692623037        6.8508758465
  F         5.7933237341        9.6779001982        6.9229053674
  O         5.6624579446        5.1083113483       10.0019993968
  H         4.6926998852        5.0341987422       10.1160161337
  H         6.0675089266        5.5320891801       10.8600832184
  C         3.8307860486        1.4128359640        1.7152180119
  H         2.9737665049        1.1149388733        1.1011676601
  H         4.5370151749        1.9882550926        1.1056967528
  H         4.3217843639        0.5050089224        2.0865733916
  H         3.4706314856        2.0258327753        2.5464768225
      68
 i =      158, E =      -435.8627269429
 Al         6.2091048722        5.6954930954        8.2025651299
 Al         9.4787275348        5.9380381201        8.2532436074
  H         4.6470348419        7.3973377280        7.9104896673
  H         8.0114901327        4.1850493657        8.8671874761
  H         8.6244690615        7.4864920618       12.5074211314
  H         8.6874902534        7.2046988495       15.0176723640
  H         6.1566689602        5.9881409546       14.7367498846
  H         5.6565249715        4.6315750774        1.8615890175
  H         3.1497051143        5.7839020195        1.6325909920
  H         3.1936052833        6.0330579535        4.1345202358
  H         9.2375008248        8.8140862401       10.3534162947
  H        10.9195927261       10.0830687760       11.6348280821
  H         6.4007384637        3.0868727621        9.8247134456
  H         7.9603157621        1.9395591330       11.3264493501
  H         6.5277337341        7.3134416212       11.4992517638
  H         7.2475692738        6.2652034056       12.6104359483
  H         5.3062009427        5.4031891615        5.4030820784
  H         4.5497887227        4.7423946288        3.9690793272
  C         7.7070879887        8.2208131718        8.3884391659
  C         7.9003154867        5.7059923919        5.8415610562
  C         4.5103170214        3.4020611435        8.0980863568
  C         3.9727585144        7.0941711861       10.7609842506
  C         4.0130448161        6.8917753865       12.2369651108
  C         9.5148185433        7.1115518527       13.0163791218
  C         9.5385251456        6.9573291263       14.3902925993
  C         4.0829316732        6.4922736671       14.9892191207
  C         5.2486975464        6.3136279429       14.2321414160
  C         5.2328768173        6.5742997594       12.8682915483
  C         6.5644513921        4.9418337751        2.3758810196
  C         7.7273198228        5.1241072889        1.6389837489
  C         2.2906106959        5.5449345637        2.2491211871
  C         8.9348509576        5.6946668689        3.6142653035
  C         7.7815809383        5.5224228396        4.3967024855
  C         6.5345124309        5.2257936786        3.7599089514
  C         7.5910110156        9.7202705882        8.4665706800
  C         8.4933975567       10.4907284869        9.2654792445
  C         6.6628778876       10.3758275715        7.6863005263
  C         9.3318060663        9.8809205187       10.2187565648
  C        10.2571984667       10.5995668491       10.9431393519
  C         4.4791786107        1.9177468574        8.2581295289
  C         3.5209902470        1.1606363367        7.6146824517
  C         5.4225190158        1.2835089841        9.1254995877
  C         6.3790967951        2.0053404401        9.8881885364
  C         7.2286697651        1.3610782442       10.7640482313
  N         4.2248128520        6.3381613865       16.3749176006
  N         7.5841918012        5.0085385435        0.2440191305
  N         6.4021760894        6.4657290034       12.0695789194
  N         5.3346411855        5.2254070150        4.3999900919
  O         6.6833239967        7.5252488109        8.6494246010
  O         9.0538470381        5.6412180232        6.3931028136
  O         3.4848287251        4.0483226561        8.4887194620
  O         4.7402539320        7.9268702503       10.2653968724
  O         5.5940854463        3.9108646344        7.6729726049
  O         3.1206753644        6.3146115204       10.1361803763
  O         8.8411459371        7.7567853360        8.0512261128
  O         6.8034721198        5.9538210207        6.4693847720
  O         4.5570992112        6.4300905933        7.7589942743
  O         7.8715382210        5.1442859951        8.7756689486
  F         2.5851650212        1.7650649797        6.8484747366
  F         5.7954500017        9.6760934959        6.9236427776
  O         5.6679706670        5.1056386908       10.0009908291
  H         4.6981024199        5.0421271617       10.1244875147
  H         6.0720827476        5.5345751376       10.8535195542
  C         3.8283348256        1.4257968474        1.7147205516
  H         2.9683159737        1.1299734181        1.1036615137
  H         4.5367770904        2.0014142580        1.1090407304
  H         4.3219111994        0.5225811548        2.0922070490
  H         3.4744407951        2.0404959583        2.5502278865
      68
 i =      159, E =      -435.8629804377
 Al         6.2059988510        5.6926504059        8.1985596177
 Al         9.4768312698        5.9334899792        8.2525203180
  H         4.6418770010        7.3959869143        7.9045166216
  H         8.0129220085        4.1820270568        8.8624773599
  H         8.6242541611        7.4737164316       12.5086668049
  H         8.6970624011        7.1982951939       15.0211505628
  H         6.1658144352        5.9834954145       14.7298741492
  H         5.6662872707        4.6304133348        1.8537209365
  H         3.1562131897        5.7909755760        1.6353983487
  H         3.1975989243        6.0305177877        4.1384763770
  H         9.2318619741        8.8125584017       10.3664815250
  H        10.9053604205       10.0851958131       11.6546650643
  H         6.4015442314        3.0841680734        9.8238250989
  H         7.9473101288        1.9403366770       11.3431421157
  H         6.5237067281        7.3065293819       11.4897691097
  H         7.2482688692        6.2550206531       12.5942689722
  H         5.3123604233        5.3966210411        5.3994423795
  H         4.5521375569        4.7339135798        3.9629291140
  C         7.7058643241        8.2195904103        8.3889127671
  C         7.9013452317        5.7059665430        5.8405510614
  C         4.5138071948        3.3982280670        8.0967082401
  C         3.9739369424        7.0872236693       10.7623469577
  C         4.0138630848        6.8852984754       12.2363114554
  C         9.5163440460        7.1017459762       13.0172207513
  C         9.5462275214        6.9516072010       14.3912048686
  C         4.0931456853        6.4906250529       14.9874299215
  C         5.2557467477        6.3056065552       14.2286079675
  C         5.2358821426        6.5689248752       12.8644366233
  C         6.5719363865        4.9407596195        2.3713712893
  C         7.7351950712        5.1278178313        1.6365747252
  C         2.2965514940        5.5495565972        2.2499428430
  C         8.9395016262        5.6931781383        3.6160035531
  C         7.7857676726        5.5157472870        4.3962413410
  C         6.5397961511        5.2165214884        3.7568827662
  C         7.5883141450        9.7190303304        8.4701001643
  C         8.4891204068       10.4891503644        9.2718750307
  C         6.6621423213       10.3766236236        7.6892570544
  C         9.3270288961        9.8796513267       10.2266268338
  C        10.2454598869       10.5991699186       10.9583247906
  C         4.4813428318        1.9145832016        8.2569541650
  C         3.5224134370        1.1607568221        7.6127282381
  C         5.4269192375        1.2814433573        9.1226132040
  C         6.3768452326        2.0025397794        9.8924096521
  C         7.2203163472        1.3603559325       10.7756582044
  N         4.2358517814        6.3414596182       16.3736901641
  N         7.5948358166        5.0126907379        0.2415060063
  N         6.4004590905        6.4620941380       12.0625996731
  N         5.3434146436        5.2005211773        4.3996036785
  O         6.6811982347        7.5219494219        8.6428993213
  O         9.0548833659        5.6414020401        6.3921017627
  O         3.4863919981        4.0418370171        8.4835250756
  O         4.7408871017        7.9203382083       10.2689256297
  O         5.5960067472        3.9091911289        7.6702707228
  O         3.1303086733        6.3032850177       10.1335818686
  O         8.8401500536        7.7559883313        8.0525707063
  O         6.8030557498        5.9530312525        6.4666196202
  O         4.5539423152        6.4309332728        7.7602437956
  O         7.8720547482        5.1412455454        8.7750240813
  F         2.5858498476        1.7644480452        6.8469740813
  F         5.7970416183        9.6790607848        6.9216239252
  O         5.6652656253        5.1025216077        9.9950467587
  H         4.6969020234        5.0393764706       10.1296470535
  H         6.0680074608        5.5378490660       10.8448134148
  C         3.8267546676        1.4315656826        1.7113344244
  H         2.9623197316        1.1475481184        1.1033384905
  H         4.5393564852        2.0109161073        1.1170698385
  H         4.3197231752        0.5319358625        2.0940007298
  H         3.4781793397        2.0430628005        2.5530157491
      68
 i =      160, E =      -435.8632035715
 Al         6.2045392307        5.6948694767        8.1959605491
 Al         9.4749497843        5.9313363453        8.2497139562
  H         4.6377648258        7.3956933684        7.9085377399
  H         8.0122154624        4.1787297622        8.8591397564
  H         8.6237201877        7.4698121539       12.5095526079
  H         8.6985586634        7.1954471746       15.0225616913
  H         6.1696989592        5.9852497976       14.7293889303
  H         5.6736899482        4.6251925830        1.8510081475
  H         3.1645556996        5.7852475968        1.6379675117
  H         3.2014770164        6.0273991260        4.1413667686
  H         9.2208811072        8.8103688279       10.3768419983
  H        10.8939199485       10.0855059103       11.6662370162
  H         6.4052762540        3.0824579068        9.8182609265
  H         7.9440973634        1.9405573268       11.3478868269
  H         6.5217161142        7.3138101202       11.4843268546
  H         7.2527090657        6.2618262277       12.5884080637
  H         5.3130621893        5.3865638044        5.3978256965
  H         4.5547847635        4.7261961379        3.9565594644
  C         7.7037176030        8.2169320737        8.3875360666
  C         7.9014940321        5.7027694704        5.8399967664
  C         4.5127143989        3.3969063703        8.0975463250
  C         3.9773368146        7.0873920388       10.7638951810
  C         4.0141408714        6.8835008590       12.2384698625
  C         9.5170699731        7.1008642034       13.0179411317
  C         9.5476264099        6.9490385359       14.3923202567
  C         4.0967635487        6.4909495282       14.9865086519
  C         5.2588125878        6.3042266464       14.2281093291
  C         5.2394674271        6.5733733339       12.8643180626
  C         6.5777100889        4.9358146712        2.3707396736
  C         7.7417052123        5.1230409156        1.6371027893
  C         2.3032457742        5.5445629230        2.2506100428
  C         8.9443755337        5.6896946610        3.6171152841
  C         7.7882458976        5.5143115778        4.3958994181
  C         6.5445512323        5.2078812224        3.7564249288
  C         7.5844005932        9.7162699937        8.4705695808
  C         8.4858984845       10.4859972928        9.2735358892
  C         6.6587727953       10.3752206814        7.6893184918
  C         9.3191026877        9.8778782741       10.2347552328
  C        10.2386712498       10.6000066417       10.9650701302
  C         4.4808378221        1.9129188508        8.2555058504
  C         3.5216793622        1.1591157544        7.6125213963
  C         5.4263330538        1.2781603898        9.1207020760
  C         6.3769236825        2.0009048883        9.8890266339
  C         7.2153011876        1.3608587450       10.7791268128
  N         4.2409418260        6.3380726409       16.3725716525
  N         7.6009374288        5.0083522711        0.2425132251
  N         6.4025272588        6.4710661430       12.0620099240
  N         5.3464580410        5.1901913144        4.3986677023
  O         6.6767539754        7.5198464074        8.6405442296
  O         9.0548973155        5.6404904106        6.3921381312
  O         3.4861256627        4.0441738848        8.4829359057
  O         4.7391623455        7.9274061082       10.2713551030
  O         5.5923068362        3.9132507551        7.6697869216
  O         3.1432651643        6.2968567296       10.1295413921
  O         8.8413339338        7.7582222428        8.0545976270
  O         6.8035629943        5.9534134072        6.4649326732
  O         4.5512564215        6.4287600915        7.7566340882
  O         7.8721088533        5.1385553397        8.7756010107
  F         2.5874167991        1.7652644136        6.8464743431
  F         5.7925019596        9.6790148265        6.9218379907
  O         5.6644690585        5.1031523949        9.9930741600
  H         4.6936668832        5.0460590812       10.1345635241
  H         6.0718282977        5.5435132859       10.8391318043
  C         3.8245711870        1.4407371390        1.7114032155
  H         2.9587090622        1.1584120810        1.1059916020
  H         4.5398980165        2.0214912231        1.1180276103
  H         4.3202686828        0.5422299660        2.0991663038
  H         3.4794203906        2.0535295538        2.5544183822
      68
 i =      161, E =      -435.8633929690
 Al         6.2050540817        5.6967418947        8.1927898966
 Al         9.4770820510        5.9269746703        8.2466451575
  H         4.6337934183        7.3935165361        7.9077084576
  H         8.0108525570        4.1763663539        8.8546298526
  H         8.6243504303        7.4692641034       12.5119553351
  H         8.6975402189        7.1930613925       15.0246837465
  H         6.1705021491        5.9878486462       14.7321958309
  H         5.6803989243        4.6190163355        1.8501716849
  H         3.1740462756        5.7753459808        1.6415848915
  H         3.2044575884        6.0262784638        4.1451149427
  H         9.2073292303        8.8087146782       10.3858100818
  H        10.8824371050       10.0851315416       11.6753725409
  H         6.4085842847        3.0809614373        9.8119253458
  H         7.9429146273        1.9397784226       11.3479279454
  H         6.5221859079        7.3252535698       11.4812799251
  H         7.2585552704        6.2746241636       12.5898284519
  H         5.3106145014        5.3720657948        5.3974180565
  H         4.5578016512        4.7197481007        3.9512734806
  C         7.7051692515        8.2157564850        8.3863779891
  C         7.9019311373        5.7038456719        5.8387754499
  C         4.5104034092        3.3992321308        8.0997358462
  C         3.9818216926        7.0910375073       10.7629332888
  C         4.0171138740        6.8872734372       12.2394424778
  C         9.5185558704        7.1002815285       13.0194895119
  C         9.5474836024        6.9488927565       14.3941149451
  C         4.0962365744        6.4882745201       14.9886217251
  C         5.2605130884        6.3097449797       14.2294291435
  C         5.2409221442        6.5759499658       12.8673442690
  C         6.5839669295        4.9277112907        2.3717325930
  C         7.7488926918        5.1154849929        1.6395966033
  C         2.3109387592        5.5364832628        2.2528136847
  C         8.9484563936        5.6884488788        3.6188791478
  C         7.7908948070        5.5109797284        4.3960575738
  C         6.5467831419        5.2058644451        3.7564934532
  C         7.5832077842        9.7146228001        8.4690585273
  C         8.4825068861       10.4853183788        9.2741641067
  C         6.6575109841       10.3755965426        7.6889125087
  C         9.3112488737        9.8763525525       10.2389943569
  C        10.2298630476       10.5993202671       10.9714373010
  C         4.4772278647        1.9142170481        8.2552086613
  C         3.5184655381        1.1592713731        7.6136284598
  C         5.4239014732        1.2773720707        9.1187440070
  C         6.3762315690        1.9994229764        9.8861906017
  C         7.2142210856        1.3600341175       10.7768716426
  N         4.2448674362        6.3327061659       16.3737631881
  N         7.6057683966        5.0006765385        0.2459956198
  N         6.4058930578        6.4835600417       12.0639120758
  N         5.3470861797        5.1866624269        4.3971762869
  O         6.6767405561        7.5184218019        8.6366343001
  O         9.0538621124        5.6400400703        6.3945459639
  O         3.4840419905        4.0467307725        8.4858954967
  O         4.7376201049        7.9362499179       10.2701986036
  O         5.5899344864        3.9162448704        7.6705297612
  O         3.1547501558        6.2969664918       10.1274325572
  O         8.8435267980        7.7563725313        8.0561820503
  O         6.8041461733        5.9515121850        6.4628130572
  O         4.5510511679        6.4295606402        7.7567570694
  O         7.8734674243        5.1369391815        8.7743296156
  F         2.5841951203        1.7669300616        6.8482490813
  F         5.7935872494        9.6797709009        6.9204275052
  O         5.6678545778        5.1049839051        9.9909655708
  H         4.6946096611        5.0549407949       10.1382140035
  H         6.0802402037        5.5498040700       10.8345315905
  C         3.8233738787        1.4508814242        1.7134468187
  H         2.9585929775        1.1639806997        1.1078779078
  H         4.5362882801        2.0312954537        1.1154539101
  H         4.3186657856        0.5548659368        2.1059133458
  H         3.4827410016        2.0669131055        2.5566052124
      68
 i =      162, E =      -435.8635457498
 Al         6.2065989388        5.6988111488        8.1924701100
 Al         9.4816994491        5.9234678267        8.2452800718
  H         4.6320160829        7.3940518541        7.9043103298
  H         8.0093165890        4.1762741711        8.8523888307
  H         8.6269219451        7.4687039482       12.5131841184
  H         8.6981979269        7.1910303161       15.0254226201
  H         6.1712890890        5.9883230232       14.7359740540
  H         5.6855233237        4.6160772739        1.8503731088
  H         3.1792320881        5.7738306634        1.6448741983
  H         3.2048616689        6.0307322893        4.1482630475
  H         9.1998996833        8.8096350093       10.3880138143
  H        10.8724027549       10.0842936008       11.6833105030
  H         6.4075062377        3.0807295027        9.8111153783
  H         7.9384099586        1.9378144214       11.3487043475
  H         6.5257273679        7.3253674856       11.4821362170
  H         7.2613215041        6.2784178209       12.5920478522
  H         5.3083666696        5.3592725957        5.3977553563
  H         4.5603459429        4.7184460140        3.9478994630
  C         7.7091074703        8.2170744403        8.3867106708
  C         7.9027499114        5.7023722728        5.8398273514
  C         4.5099726945        3.4021462496        8.0987941666
  C         3.9830730799        7.0925371164       10.7610935868
  C         4.0198558756        6.8888326920       12.2390968466
  C         9.5210805748        7.0995398857       13.0205250765
  C         9.5484203391        6.9459526424       14.3957828476
  C         4.0979536277        6.4873628252       14.9907402416
  C         5.2613373296        6.3072629582       14.2311133515
  C         5.2436162590        6.5804715942       12.8677104014
  C         6.5875628606        4.9267175576        2.3737320990
  C         7.7540436314        5.1113463589        1.6424732610
  C         2.3149641225        5.5365881945        2.2552927504
  C         8.9511402804        5.6884829392        3.6211225705
  C         7.7918316430        5.5134977426        4.3975259998
  C         6.5489667662        5.2050476982        3.7581226082
  C         7.5835522835        9.7152458345        8.4672898622
  C         8.4827125623       10.4861530237        9.2710737882
  C         6.6577960077       10.3755370999        7.6865246921
  C         9.3048901408        9.8765458730       10.2413790254
  C        10.2253765225       10.5975797045       10.9735934607
  C         4.4744035422        1.9164735038        8.2584973748
  C         3.5181433277        1.1596076999        7.6159337740
  C         5.4213200295        1.2780282890        9.1210258284
  C         6.3759157449        1.9995269160        9.8860025670
  C         7.2094006900        1.3573215437       10.7787871924
  N         4.2475938005        6.3304390306       16.3754976960
  N         7.6092819417        4.9965502249        0.2493967742
  N         6.4082600428        6.4861242653       12.0647891328
  N         5.3471040087        5.1861198417        4.3955008213
  O         6.6806465183        7.5206488609        8.6367894122
  O         9.0550913491        5.6401908955        6.3959842392
  O         3.4835040080        4.0473178395        8.4861607378
  O         4.7388662653        7.9366465299       10.2689997208
  O         5.5914525221        3.9163279554        7.6712885256
  O         3.1550717076        6.2978659424       10.1297874406
  O         8.8457453190        7.7531080001        8.0562345283
  O         6.8056145920        5.9521404852        6.4633893692
  O         4.5527275024        6.4305465150        7.7528696278
  O         7.8749924174        5.1376839156        8.7741908360
  F         2.5841107686        1.7663695118        6.8493816869
  F         5.7920583309        9.6783279785        6.9224081868
  O         5.6695228516        5.1053893334        9.9884997676
  H         4.6980267156        5.0566103670       10.1373020249
  H         6.0829496991        5.5509313164       10.8313356497
  C         3.8221600608        1.4558879136        1.7149217477
  H         2.9592218990        1.1654690527        1.1078817151
  H         4.5339825241        2.0356969021        1.1129570225
  H         4.3182637894        0.5603933261        2.1099195153
  H         3.4844006745        2.0738312991        2.5581868500
      68
 i =      163, E =      -435.8636901105
 Al         6.2087011392        5.7010641082        8.1928338107
 Al         9.4844137807        5.9219565531        8.2437884875
  H         4.6317933997        7.3957018985        7.9058957666
  H         8.0073864799        4.1763035448        8.8495847944
  H         8.6299911456        7.4678159249       12.5145486692
  H         8.7006606077        7.1864071951       15.0259125805
  H         6.1746957016        5.9910802334       14.7364772417
  H         5.6925662299        4.6096893437        1.8503644615
  H         3.1852519652        5.7672242943        1.6485685668
  H         3.2066056288        6.0302379070        4.1509994880
  H         9.1874060094        8.8114451915       10.3948687747
  H        10.8579483035       10.0846082244       11.6942396481
  H         6.4091245354        3.0795156675        9.8086862239
  H         7.9351284502        1.9354952428       11.3494470498
  H         6.5254562387        7.3306997207       11.4778882801
  H         7.2658187249        6.2915392837       12.5930965724
  H         5.3076951950        5.3451294392        5.3970438189
  H         4.5648962641        4.7146792642        3.9429341110
  C         7.7106005937        8.2178797799        8.3881345330
  C         7.9042620412        5.7029094651        5.8412240252
  C         4.5109751279        3.4029319727        8.0991493885
  C         3.9822787725        7.0950273104       10.7604630373
  C         4.0233712436        6.8927095114       12.2393604261
  C         9.5241102820        7.0988799656       13.0214931343
  C         9.5520250299        6.9436818352       14.3967824756
  C         4.1019357990        6.4836357215       14.9910013858
  C         5.2662661834        6.3117644822       14.2292544287
  C         5.2479893182        6.5836694151       12.8658554840
  C         6.5935336828        4.9211633975        2.3752543523
  C         7.7601750180        5.1056221045        1.6440704876
  C         2.3207713781        5.5293256349        2.2585952564
  C         8.9538967711        5.6855574384        3.6236436172
  C         7.7944462715        5.5091097263        4.3995674608
  C         6.5522356816        5.2020898064        3.7589744317
  C         7.5856157582        9.7156325533        8.4657787729
  C         8.4802866528       10.4864456695        9.2727606885
  C         6.6584211251       10.3752062919        7.6861852780
  C         9.2984869122        9.8771415888       10.2452948404
  C        10.2161205795       10.5971689054       10.9798637961
  C         4.4753382595        1.9162128893        8.2588793452
  C         3.5172995007        1.1600949136        7.6173111265
  C         5.4203164588        1.2780835307        9.1234562421
  C         6.3749840089        1.9986539450        9.8874905714
  C         7.2068697761        1.3555171152       10.7804908243
  N         4.2531178757        6.3280341829       16.3753694042
  N         7.6159780433        4.9886231670        0.2510317650
  N         6.4129844969        6.4919282935       12.0626613627
  N         5.3484652957        5.1837066392        4.3924093880
  O         6.6832414567        7.5226398644        8.6448230946
  O         9.0578839187        5.6382425047        6.3949158282
  O         3.4861358427        4.0490664820        8.4841687325
  O         4.7357898638        7.9402804358       10.2678715428
  O         5.5929685040        3.9150726685        7.6704015289
  O         3.1563498628        6.2937445574       10.1315073510
  O         8.8471076158        7.7530673224        8.0564562304
  O         6.8067531722        5.9524507558        6.4645262332
  O         4.5544429693        6.4310869100        7.7500519024
  O         7.8764075310        5.1386081060        8.7750700590
  F         2.5843658860        1.7668964226        6.8485687945
  F         5.7938633935        9.6773121009        6.9221523484
  O         5.6719494453        5.1046682017        9.9875412489
  H         4.7023772973        5.0608720800       10.1392920269
  H         6.0870141307        5.5516067367       10.8270414412
  C         3.8207256196        1.4662595418        1.7170314844
  H         2.9589485622        1.1743315853        1.1092584525
  H         4.5316661285        2.0458824320        1.1135103824
  H         4.3185418626        0.5713936194        2.1134983294
  H         3.4848967212        2.0850216008        2.5608023001
      68
 i =      164, E =      -435.8638369720
 Al         6.2105619108        5.7016380408        8.1938319648
 Al         9.4860295701        5.9206263881        8.2434783792
  H         4.6326340154        7.3956915177        7.9046368638
  H         8.0055202275        4.1766196730        8.8449434702
  H         8.6353295767        7.4635004487       12.5176500529
  H         8.7053867848        7.1793231710       15.0274983789
  H         6.1814417280        5.9906191775       14.7368032005
  H         5.7029242014        4.6033075414        1.8504117295
  H         3.1935765716        5.7668775326        1.6554837405
  H         3.2083852511        6.0353515933        4.1570770397
  H         9.1737885361        8.8123836537       10.4022247577
  H        10.8355641335       10.0851415073       11.7118387000
  H         6.4087670734        3.0768687503        9.8107903269
  H         7.9264348492        1.9322904572       11.3580610807
  H         6.5283145481        7.3303495373       11.4763281695
  H         7.2699994328        6.2967365052       12.5947382311
  H         5.3080236262        5.3250512102        5.3973009485
  H         4.5723496497        4.7080376762        3.9351024072
  C         7.7118371480        8.2186973367        8.3862785046
  C         7.9050121298        5.7027269755        5.8426780113
  C         4.5114141614        3.4027986874        8.0969919589
  C         3.9820101545        7.0954053109       10.7615854107
  C         4.0275643224        6.8913990189       12.2411773779
  C         9.5305564782        7.0975651153       13.0239338811
  C         9.5575550248        6.9380315745       14.3989729782
  C         4.1097341624        6.4822089494       14.9911912970
  C         5.2733932788        6.3123202448       14.2290949284
  C         5.2536516151        6.5832806455       12.8656851587
  C         6.6027579945        4.9182462150        2.3754608994
  C         7.7703917843        5.1025520129        1.6458748726
  C         2.3285557540        5.5274883537        2.2641493353
  C         8.9580327396        5.6861369194        3.6285292781
  C         7.7967367729        5.5085876362        4.4011932516
  C         6.5578951580        5.1970614934        3.7587263551
  C         7.5890213125        9.7162860852        8.4630180108
  C         8.4780391335       10.4864024783        9.2748267982
  C         6.6603005448       10.3754419868        7.6860174912
  C         9.2899793174        9.8768224359       10.2511417515
  C        10.2017877883       10.5970002674       10.9903943899
  C         4.4771966887        1.9161294691        8.2585417617
  C         3.5175522405        1.1609943309        7.6173747515
  C         5.4184025524        1.2780704129        9.1261399088
  C         6.3716178941        1.9965558663        9.8918931195
  C         7.1989915996        1.3537871320       10.7892019365
  N         4.2624937372        6.3251514837       16.3758559700
  N         7.6265484438        4.9816131372        0.2528393175
  N         6.4180459229        6.4914952416       12.0617670330
  N         5.3514057272        5.1808425050        4.3896047063
  O         6.6845446204        7.5247456387        8.6433609364
  O         9.0588915411        5.6391703677        6.3954190442
  O         3.4877942237        4.0509752834        8.4853656203
  O         4.7365991916        7.9402080678       10.2688916279
  O         5.5948441997        3.9120093870        7.6699640982
  O         3.1568883472        6.2975464695       10.1348015356
  O         8.8496008084        7.7552067876        8.0563493895
  O         6.8067568043        5.9524556813        6.4652953746
  O         4.5562931352        6.4309484489        7.7532339747
  O         7.8774096231        5.1395602033        8.7752614627
  F         2.5842856251        1.7667788546        6.8480238858
  F         5.7956906537        9.6782168624        6.9220383814
  O         5.6736483160        5.1032760552        9.9846829487
  H         4.7061042143        5.0616607479       10.1421348626
  H         6.0891867543        5.5528878345       10.8218864642
  C         3.8200508000        1.4771943094        1.7191297711
  H         2.9583882082        1.1886269536        1.1088811269
  H         4.5301895145        2.0565409711        1.1180634704
  H         4.3186083165        0.5836462628        2.1138952308
  H         3.4836477677        2.0938083008        2.5652944423
      68
 i =      165, E =      -435.8640047246
 Al         6.2129206422        5.7040069209        8.1969038784
 Al         9.4884661097        5.9178017081        8.2450906431
  H         4.6363754713        7.3967685443        7.9081115321
  H         8.0045845094        4.1759113079        8.8402093675
  H         8.6409545443        7.4606060719       12.5228735097
  H         8.7125419960        7.1678379746       15.0306204814
  H         6.1932200942        5.9939553373       14.7319974414
  H         5.7171751485        4.5908322577        1.8488835213
  H         3.2072106365        5.7597480290        1.6633917516
  H         3.2131592038        6.0341786905        4.1632427308
  H         9.1536058989        8.8132943557       10.4179578535
  H        10.8068976177       10.0849289289       11.7382456648
  H         6.4126544934        3.0739532119        9.8102577104
  H         7.9183088192        1.9272617978       11.3681025540
  H         6.5282305709        7.3399707157       11.4719361391
  H         7.2766601331        6.3132863368       12.5897924492
  H         5.3115873429        5.3015510905        5.3941987653
  H         4.5830908336        4.6964380871        3.9249493355
  C         7.7127644233        8.2186798258        8.3860470522
  C         7.9062830466        5.7013761982        5.8440723485
  C         4.5132178254        3.4005446632        8.0964941703
  C         3.9814800404        7.0998030436       10.7638643659
  C         4.0321516437        6.8966951867       12.2426491191
  C         9.5361205511        7.0937511222       13.0285146960
  C         9.5668232603        6.9331109674       14.4022028163
  C         4.1207498450        6.4797119694       14.9920510722
  C         5.2826357335        6.3130208202       14.2278564890
  C         5.2602157929        6.5897273635       12.8644604429
  C         6.6155127167        4.9078397090        2.3747790787
  C         7.7845357527        5.0905683271        1.6469422304
  C         2.3395034603        5.5208490607        2.2680989768
  C         8.9654963345        5.6816273268        3.6323611430
  C         7.8027560474        5.5026363164        4.4023730951
  C         6.5657208006        5.1923171246        3.7573256049
  C         7.5886992195        9.7165856951        8.4619896640
  C         8.4743213468       10.4857442746        9.2778461302
  C         6.6608455078       10.3743573712        7.6834148777
  C         9.2755701576        9.8765301326       10.2632506919
  C        10.1830144162       10.5961428674       11.0078299790
  C         4.4781451833        1.9146400170        8.2582335023
  C         3.5201061342        1.1602158365        7.6140743620
  C         5.4187173342        1.2777182849        9.1262588227
  C         6.3701338806        1.9945403688        9.8947687028
  C         7.1881285473        1.3511257308       10.8011236541
  N         4.2767690840        6.3207529570       16.3769502873
  N         7.6410698429        4.9712433045        0.2530727944
  N         6.4231885791        6.5013309185       12.0586563537
  N         5.3579353064        5.1725443700        4.3847518246
  O         6.6859293765        7.5241509709        8.6446754379
  O         9.0586434388        5.6398625771        6.3981476546
  O         3.4884651781        4.0481817251        8.4849339858
  O         4.7325644301        7.9471738111       10.2725498879
  O         5.5953804231        3.9104402085        7.6685580939
  O         3.1609798547        6.2935019926       10.1368201688
  O         8.8504533315        7.7555315597        8.0561256674
  O         6.8073205445        5.9518057304        6.4661459839
  O         4.5584163203        6.4309134359        7.7569040057
  O         7.8783144171        5.1396894993        8.7761862557
  F         2.5849876917        1.7668644439        6.8474630742
  F         5.7944921059        9.6782507196        6.9197832018
  O         5.6742266882        5.1005581354        9.9852032177
  H         4.7071696240        5.0673977670       10.1507794996
  H         6.0937900292        5.5549474269       10.8166290168
  C         3.8175051737        1.4974237631        1.7225981792
  H         2.9559269624        1.2136314106        1.1109855949
  H         4.5306039117        2.0757426684        1.1247243290
  H         4.3185246553        0.6058445191        2.1159822657
  H         3.4814075867        2.1110025574        2.5713097048
      68
 i =      166, E =      -435.8641883697
 Al         6.2157117949        5.7058854870        8.1987988805
 Al         9.4896739925        5.9181315303        8.2480667623
  H         4.6415858795        7.3972993444        7.9101203672
  H         8.0062494923        4.1753460125        8.8371474258
  H         8.6461295367        7.4588059630       12.5294677518
  H         8.7213900779        7.1556262499       15.0356653955
  H         6.2076618709        6.0002054115       14.7245140713
  H         5.7296564078        4.5765030895        1.8465758754
  H         3.2206701718        5.7504848086        1.6708852071
  H         3.2179244655        6.0289211859        4.1685706360
  H         9.1329364532        8.8143129182       10.4353878170
  H        10.7794982170       10.0847212977       11.7655935376
  H         6.4175202418        3.0727025689        9.8127662161
  H         7.9126746273        1.9222183813       11.3783249370
  H         6.5277334236        7.3501314569       11.4663294838
  H         7.2852718520        6.3334598523       12.5848216108
  H         5.3182237328        5.2826245113        5.3892426774
  H         4.5928887277        4.6843644154        3.9167165979
  C         7.7130480736        8.2178007596        8.3861090728
  C         7.9083192579        5.7008234062        5.8460019768
  C         4.5141917854        3.3990770385        8.0977114666
  C         3.9776668624        7.1042557290       10.7657441399
  C         4.0355960642        6.8999427332       12.2436227042
  C         9.5427253788        7.0925912406       13.0336225765
  C         9.5764583306        6.9273705743       14.4062103986
  C         4.1332449416        6.4777175959       14.9930092617
  C         5.2942379121        6.3185876561       14.2253765334
  C         5.2660504034        6.5953264530       12.8628073439
  C         6.6255559851        4.8963099920        2.3742942939
  C         7.7964404747        5.0784495293        1.6495859293
  C         2.3507144348        5.5105091548        2.2717898878
  C         8.9718982028        5.6746637035        3.6360250506
  C         7.8069870078        5.4986666311        4.4038860516
  C         6.5736271972        5.1825851650        3.7564726521
  C         7.5869559264        9.7161262064        8.4626385422
  C         8.4699486480       10.4852063897        9.2816570369
  C         6.6630080074       10.3750536513        7.6813367368
  C         9.2605644194        9.8769805949       10.2768442743
  C        10.1650524068       10.5958992951       11.0269029706
  C         4.4787828681        1.9142426173        8.2572511996
  C         3.5220006629        1.1601894765        7.6111253330
  C         5.4188657025        1.2774957069        9.1258892797
  C         6.3678975478        1.9935816943        9.8986287257
  C         7.1788707291        1.3495371845       10.8117515754
  N         4.2909201775        6.3188724983       16.3780759547
  N         7.6562328232        4.9598863256        0.2545849280
  N         6.4285130590        6.5120281237       12.0549970035
  N         5.3636054576        5.1627723583        4.3798702912
  O         6.6856553431        7.5235657334        8.6448750279
  O         9.0595891465        5.6400738775        6.4011311888
  O         3.4876103570        4.0468594243        8.4821107674
  O         4.7244765405        7.9541235455       10.2719059459
  O         5.5939611337        3.9111269723        7.6679722202
  O         3.1589334098        6.2957340457       10.1390620993
  O         8.8509874386        7.7566811284        8.0578320508
  O         6.8070926535        5.9492326968        6.4648311493
  O         4.5599264003        6.4314036529        7.7606961458
  O         7.8786913283        5.1394224463        8.7774324278
  F         2.5852794775        1.7666352971        6.8469284575
  F         5.7937768311        9.6788212480        6.9207979253
  O         5.6761176592        5.0987012271        9.9848407549
  H         4.7095242914        5.0746467035       10.1577960395
  H         6.0984631138        5.5567446939       10.8092658781
  C         3.8159731601        1.5198811116        1.7272457932
  H         2.9540917000        1.2408845043        1.1140938834
  H         4.5312771168        2.0976502014        1.1326470769
  H         4.3186486106        0.6289738517        2.1167209688
  H         3.4766960070        2.1298878598        2.5772764079
      68
 i =      167, E =      -435.8644175508
 Al         6.2175330918        5.7090868432        8.2003475069
 Al         9.4897120067        5.9203109159        8.2532229863
  H         4.6474930840        7.3988337042        7.9131650302
  H         8.0098260561        4.1747279799        8.8334539578
  H         8.6519905415        7.4561368429       12.5435531680
  H         8.7387114850        7.1354089286       15.0484936849
  H         6.2333939942        6.0128536247       14.7093149493
  H         5.7519596070        4.5514567673        1.8421004101
  H         3.2421988877        5.7331912260        1.6806516785
  H         3.2301295662        6.0160917149        4.1765028806
  H         9.0980174555        8.8143908569       10.4673479197
  H        10.7333038799       10.0859749796       11.8131526549
  H         6.4258614113        3.0691489353        9.8153541789
  H         7.9003440219        1.9159941215       11.3994401765
  H         6.5258270448        7.3686280686       11.4551432164
  H         7.2981302682        6.3652330703       12.5732119243
  H         5.3304867560        5.2543749479        5.3798518653
  H         4.6085901911        4.6616844621        3.9043848483
  C         7.7116270865        8.2169915956        8.3876976716
  C         7.9106089771        5.6956477115        5.8469145022
  C         4.5154254875        3.3977869910        8.0983622801
  C         3.9702699107        7.1110370524       10.7701144108
  C         4.0407729551        6.9036349381       12.2459806540
  C         9.5521194057        7.0888271428       13.0426094131
  C         9.5924966298        6.9183920237       14.4134416897
  C         4.1544854070        6.4747385012       14.9942176513
  C         5.3132782399        6.3265994869       14.2203861649
  C         5.2778032819        6.6081243353       12.8588748792
  C         6.6458259097        4.8737811292        2.3714628491
  C         7.8178865034        5.0612969171        1.6511846635
  C         2.3701121684        5.4919832775        2.2781197813
  C         8.9847075280        5.6631295875        3.6421529855
  C         7.8159204824        5.4882882189        4.4039270536
  C         6.5864405675        5.1650492168        3.7528934590
  C         7.5834338937        9.7154540980        8.4652972811
  C         8.4623232928       10.4844239028        9.2900722052
  C         6.6638451668       10.3745397890        7.6792670318
  C         9.2341053845        9.8763252081       10.3014351648
  C        10.1344065838       10.5950291807       11.0592609970
  C         4.4826847642        1.9137800138        8.2524665569
  C         3.5240612875        1.1585552759        7.6091755482
  C         5.4167849551        1.2762279917        9.1283649986
  C         6.3668345701        1.9903903405        9.9051412855
  C         7.1639586317        1.3461118939       10.8316947983
  N         4.3150754225        6.3170942514       16.3792583931
  N         7.6820599977        4.9402921180        0.2552401209
  N         6.4366825173        6.5316464214       12.0468353459
  N         5.3755155975        5.1378544155        4.3725829990
  O         6.6833192875        7.5209839054        8.6430893109
  O         9.0609096231        5.6428415048        6.4032813911
  O         3.4863206251        4.0449736950        8.4838571062
  O         4.7060720946        7.9690932025       10.2711486732
  O         5.5933686430        3.9116154933        7.6686632779
  O         3.1567089349        6.2951587159       10.1403516716
  O         8.8488487899        7.7578413045        8.0615299643
  O         6.8079046154        5.9490447049        6.4616595758
  O         4.5594266799        6.4334823004        7.7654906959
  O         7.8774402606        5.1387997401        8.7776989964
  F         2.5850931667        1.7654767776        6.8492437487
  F         5.7927666673        9.6778548394        6.9199424073
  O         5.6751929981        5.0971620674        9.9850776991
  H         4.7102947249        5.0892415444       10.1716821083
  H         6.1037733152        5.5633976666       10.7963128155
  C         3.8143431359        1.5597285856        1.7349491283
  H         2.9506025300        1.2873245042        1.1206108720
  H         4.5301381877        2.1393453188        1.1442606659
  H         4.3179124220        0.6693022687        2.1217005065
  H         3.4703833118        2.1659087262        2.5865980084
      68
 i =      168, E =      -435.8645951446
 Al         6.2171623787        5.7119844516        8.2006114604
 Al         9.4895548154        5.9233576675        8.2581497621
  H         4.6463362027        7.4008860980        7.9163611611
  H         8.0103608891        4.1756935833        8.8341604437
  H         8.6533726029        7.4581520904       12.5536910881
  H         8.7487131855        7.1264773074       15.0583666496
  H         6.2461153521        6.0229462687       14.7019527326
  H         5.7637032216        4.5354108855        1.8400518634
  H         3.2537775996        5.7199189035        1.6834321366
  H         3.2376306141        6.0068534149        4.1791877377
  H         9.0786400700        8.8140820294       10.4831640376
  H        10.7100869782       10.0873166880       11.8357044014
  H         6.4306101122        3.0662921855        9.8150307316
  H         7.8925470562        1.9137341388       11.4114113386
  H         6.5255471663        7.3823001506       11.4506494108
  H         7.3033219219        6.3822655790       12.5678569685
  H         5.3365670297        5.2419806026        5.3770209703
  H         4.6159143030        4.6457732963        3.9008540074
  C         7.7098514635        8.2174204695        8.3904256267
  C         7.9121452281        5.6967790050        5.8465062608
  C         4.5161657931        3.3984327203        8.0997784508
  C         3.9663374779        7.1182841248       10.7713359434
  C         4.0421331948        6.9069602921       12.2465757827
  C         9.5554710535        7.0887726667       13.0480944537
  C         9.5998458421        6.9141120128       14.4186075322
  C         4.1650106902        6.4737832344       14.9955276551
  C         5.3225655987        6.3329810135       14.2176489070
  C         5.2818543527        6.6154529329       12.8569048232
  C         6.6557991680        4.8634522690        2.3693529825
  C         7.8303903837        5.0480407274        1.6519622389
  C         2.3796153247        5.4840849891        2.2801960387
  C         8.9925515470        5.6541399849        3.6443050706
  C         7.8213530568        5.4826446177        4.4036888608
  C         6.5946946084        5.1520090654        3.7504501720
  C         7.5796310619        9.7152366138        8.4685024296
  C         8.4569736072       10.4838245410        9.2957842343
  C         6.6623292604       10.3756564058        7.6803385942
  C         9.2198095652        9.8757376268       10.3138828586
  C        10.1179967798       10.5943328914       11.0751429512
  C         4.4809799103        1.9136607793        8.2543786961
  C         3.5244373413        1.1591511172        7.6075645871
  C         5.4164293475        1.2747420543        9.1298353080
  C         6.3666568941        1.9876228163        9.9094317284
  C         7.1573829011        1.3436635091       10.8411907966
  N         4.3274495501        6.3150076050       16.3803085083
  N         7.6951470081        4.9294602327        0.2558761249
  N         6.4399482815        6.5452258721       12.0426709255
  N         5.3815539733        5.1267002646        4.3693466818
  O         6.6808347384        7.5195958550        8.6436368322
  O         9.0610454008        5.6414052665        6.4053399291
  O         3.4866426031        4.0452171250        8.4844835821
  O         4.6928180652        7.9827954115       10.2692482731
  O         5.5938860497        3.9128535847        7.6695910347
  O         3.1539169046        6.3010888018       10.1412906244
  O         8.8456060375        7.7570391529        8.0636649997
  O         6.8086266872        5.9479135149        6.4593734482
  O         4.5575456710        6.4350907507        7.7657576634
  O         7.8755933679        5.1392875965        8.7773326130
  F         2.5859012399        1.7669549447        6.8476973497
  F         5.7927853913        9.6781420249        6.9203675387
  O         5.6724105946        5.0991084924        9.9867084198
  H         4.7077756469        5.1007980508       10.1790987711
  H         6.1069088102        5.5700555284       10.7903448812
  C         3.8136500549        1.5835294717        1.7407153257
  H         2.9504310514        1.3098338664        1.1257706187
  H         4.5270874768        2.1647675593        1.1470636121
  H         4.3175967076        0.6915321158        2.1271026235
  H         3.4668075162        2.1897123597        2.5905178312
      68
 i =      169, E =      -435.8648273698
 Al         6.2150512372        5.7147907066        8.1993647506
 Al         9.4883418772        5.9294141400        8.2622619774
  H         4.6377883428        7.4024832896        7.9137362567
  H         8.0074481431        4.1798756012        8.8380408360
  H         8.6529650594        7.4610527021       12.5653631644
  H         8.7588161268        7.1223572202       15.0695092884
  H         6.2545807837        6.0315485639       14.6995996322
  H         5.7743729458        4.5234238808        1.8379366551
  H         3.2623532510        5.7138427928        1.6838060646
  H         3.2436135795        6.0022526472        4.1808951288
  H         9.0646934857        8.8145480613       10.4909192076
  H        10.6918554980       10.0880922717       11.8518344545
  H         6.4307079040        3.0636366076        9.8169186366
  H         7.8777729373        1.9120318942       11.4272410272
  H         6.5298711883        7.3891315650       11.4518969153
  H         7.3027491877        6.3818186216       12.5659886023
  H         5.3408178139        5.2335537885        5.3775348883
  H         4.6206338661        4.6307768072        3.9017081224
  C         7.7062354055        8.2189399113        8.3919646122
  C         7.9124239241        5.6944759087        5.8465499759
  C         4.5151042313        3.4021167224        8.1022369716
  C         3.9688721765        7.1272427384       10.7710991663
  C         4.0425195343        6.9091254645       12.2464669810
  C         9.5569973311        7.0891557101       13.0532649073
  C         9.6057455585        6.9110557457       14.4244592953
  C         4.1740689199        6.4742026609       14.9974093431
  C         5.3289360870        6.3350982104       14.2161676169
  C         5.2831105584        6.6192972424       12.8552034977
  C         6.6647103788        4.8534820951        2.3690391854
  C         7.8388002009        5.0458969359        1.6526303205
  C         2.3878929918        5.4798011199        2.2809815404
  C         8.9983074698        5.6525701672        3.6446392437
  C         7.8268101830        5.4802525754        4.4039618380
  C         6.6009708424        5.1469009520        3.7490435906
  C         7.5757934462        9.7148610003        8.4719029160
  C         8.4513431735       10.4829107895        9.3012987760
  C         6.6600796993       10.3769650420        7.6826898133
  C         9.2098170200        9.8759482831       10.3217903325
  C        10.1048906450       10.5935582154       11.0871059580
  C         4.4797662722        1.9148826482        8.2585553045
  C         3.5220822684        1.1606832499        7.6122890055
  C         5.4133240435        1.2722712539        9.1357767155
  C         6.3646625924        1.9854712217        9.9145976210
  C         7.1476940011        1.3408323599       10.8509017709
  N         4.3392614324        6.3128884773       16.3818881502
  N         7.7075469748        4.9217585090        0.2579530880
  N         6.4404974104        6.5513070693       12.0403613827
  N         5.3864980716        5.1187531595        4.3676502743
  O         6.6761653172        7.5200438428        8.6426719044
  O         9.0616279799        5.6423558686        6.4058556880
  O         3.4867222704        4.0491573421        8.4853433899
  O         4.6879196718        7.9977485710       10.2683508370
  O         5.5948565952        3.9144183958        7.6723813191
  O         3.1520457405        6.3091424069       10.1418924417
  O         8.8420188690        7.7572970494        8.0660308017
  O         6.8085912911        5.9501057796        6.4560917224
  O         4.5544499220        6.4381288576        7.7658943602
  O         7.8735711252        5.1426285125        8.7768930136
  F         2.5857829297        1.7668460905        6.8484584057
  F         5.7942828945        9.6786065757        6.9207970325
  O         5.6674990940        5.1046082697        9.9868408198
  H         4.7033145346        5.1100908582       10.1824368842
  H         6.1094632273        5.5795240444       10.7854710345
  C         3.8144095352        1.6021438924        1.7465597065
  H         2.9540152832        1.3242513505        1.1303287212
  H         4.5219644174        2.1865500125        1.1468356489
  H         4.3155163629        0.7065871165        2.1325574964
  H         3.4631587051        2.2090073651        2.5921248216
      68
 i =      170, E =      -435.8649857450
 Al         6.2132567335        5.7128945839        8.1961303168
 Al         9.4885845743        5.9320214217        8.2617038367
  H         4.6325684897        7.4041523967        7.9122722427
  H         8.0072635103        4.1836533570        8.8385461125
  H         8.6516854387        7.4586891303       12.5743922087
  H         8.7684963291        7.1177734829       15.0766926526
  H         6.2632783168        6.0364865962       14.6948814231
  H         5.7842757020        4.5143303849        1.8340227387
  H         3.2690696617        5.7095408658        1.6863758278
  H         3.2476748015        5.9966604942        4.1841220695
  H         9.0522975309        8.8159135462       10.5007438654
  H        10.6745413690       10.0893104450       11.8674223975
  H         6.4309093912        3.0613214246        9.8186922827
  H         7.8657064925        1.9111198362       11.4413703012
  H         6.5274745579        7.3955173747       11.4471612439
  H         7.3028867781        6.3828052126       12.5597371128
  H         5.3450424266        5.2290266949        5.3771247365
  H         4.6248679743        4.6200320916        3.9036775298
  C         7.7050409306        8.2207610269        8.3951627645
  C         7.9134040101        5.6938744132        5.8449118210
  C         4.5150371406        3.4041397488        8.1032354983
  C         3.9727366046        7.1304025036       10.7698743862
  C         4.0447450653        6.9114949142       12.2460044940
  C         9.5599345858        7.0888968511       13.0552908211
  C         9.6129653461        6.9095280085       14.4267688638
  C         4.1826757905        6.4728822373       14.9967084319
  C         5.3354777265        6.3368923502       14.2128360873
  C         5.2860478546        6.6209131453       12.8515129628
  C         6.6723304809        4.8480355342        2.3671253522
  C         7.8488751653        5.0380753561        1.6517344608
  C         2.3940410805        5.4767562055        2.2832762355
  C         9.0031651496        5.6463855799        3.6469034295
  C         7.8291726883        5.4748006925        4.4030629610
  C         6.6049737818        5.1384248041        3.7469493427
  C         7.5743020128        9.7159882606        8.4754508279
  C         8.4477088836       10.4838013079        9.3070203994
  C         6.6579576711       10.3769444553        7.6859313478
  C         9.2002717087        9.8760943150       10.3316966558
  C        10.0942041850       10.5941941002       11.0967658611
  C         4.4797879557        1.9153188690        8.2615133664
  C         3.5196895412        1.1620345030        7.6165100306
  C         5.4119903374        1.2723111136        9.1401310137
  C         6.3617920095        1.9836916509        9.9201318295
  C         7.1400942315        1.3399627483       10.8603625330
  N         4.3513965825        6.3119735125       16.3809164623
  N         7.7198026417        4.9170982821        0.2571140524
  N         6.4405653551        6.5548919340       12.0340315430
  N         5.3913649922        5.1073750306        4.3672615059
  O         6.6763722048        7.5202927215        8.6443191758
  O         9.0623312951        5.6433295522        6.4051059665
  O         3.4875543674        4.0501756986        8.4870962842
  O         4.6859686802        8.0047543825       10.2660744988
  O         5.5964252429        3.9146365484        7.6723278372
  O         3.1560343460        6.3083002445       10.1420897561
  O         8.8413882182        7.7589932598        8.0677301524
  O         6.8091322355        5.9488258900        6.4545889112
  O         4.5537669148        6.4391777817        7.7635391075
  O         7.8740505826        5.1461406865        8.7759209461
  F         2.5847716131        1.7670077031        6.8488714361
  F         5.7943605305        9.6791802142        6.9210258676
  O         5.6675651938        5.1052192556        9.9842748845
  H         4.7043240353        5.1148966753       10.1848208787
  H         6.1141720170        5.5836929881       10.7788176761
  C         3.8136577566        1.6187607967        1.7504295405
  H         2.9545627134        1.3387986246        1.1336912978
  H         4.5192354875        2.2048045319        1.1479422411
  H         4.3133828017        0.7223641780        2.1376564356
  H         3.4622455076        2.2259783216        2.5946168720
      68
 i =      171, E =      -435.8651355587
 Al         6.2112339888        5.7089907657        8.1952586390
 Al         9.4892714568        5.9341798030        8.2598263858
  H         4.6303779313        7.4065465686        7.9075254463
  H         8.0081228822        4.1881229553        8.8395757667
  H         8.6519508250        7.4546048963       12.5842441953
  H         8.7806966033        7.1130492054       15.0825368458
  H         6.2744356295        6.0377820989       14.6881077482
  H         5.7957477958        4.5057885586        1.8281250473
  H         3.2777036282        5.7114032392        1.6910263165
  H         3.2510603832        5.9932480446        4.1894653886
  H         9.0397801484        8.8173468033       10.5115751456
  H        10.6538248173       10.0901077576       11.8866187593
  H         6.4290627853        3.0595771361        9.8251606162
  H         7.8488775362        1.9099588896       11.4618146731
  H         6.5275455209        7.4003257100       11.4433486661
  H         7.3019865362        6.3770401303       12.5482946229
  H         5.3515788439        5.2254333721        5.3755895618
  H         4.6310100425        4.6075386369        3.9068182519
  C         7.7052538462        8.2220779869        8.3978228486
  C         7.9141631455        5.6912000931        5.8440195693
  C         4.5149865934        3.4042321331        8.1040075300
  C         3.9759873334        7.1310763596       10.7680336765
  C         4.0477398675        6.9139395417       12.2455154817
  C         9.5647462409        7.0882700219       13.0580998471
  C         9.6230955091        6.9067955042       14.4294903193
  C         4.1948311215        6.4726223734       14.9959617031
  C         5.3440209381        6.3367603486       14.2089178827
  C         5.2890255895        6.6191350187       12.8472705955
  C         6.6819121626        4.8393714871        2.3644867158
  C         7.8594951964        5.0361017320        1.6509873734
  C         2.4031465668        5.4727956550        2.2861231076
  C         9.0079940763        5.6442361924        3.6493040020
  C         7.8329568596        5.4686350546        4.4025562461
  C         6.6101825187        5.1320009264        3.7443783073
  C         7.5727838282        9.7171182250        8.4790364160
  C         8.4433546818       10.4849295516        9.3130916362
  C         6.6557291374       10.3766060690        7.6898767059
  C         9.1913623828        9.8764416590       10.3404985251
  C        10.0786008790       10.5940908711       11.1119063793
  C         4.4794887882        1.9149490964        8.2656577479
  C         3.5196967773        1.1630612167        7.6188967159
  C         5.4095212154        1.2733451547        9.1465832790
  C         6.3579896512        1.9829197505        9.9274492431
  C         7.1279898635        1.3392649446       10.8756999442
  N         4.3651946101        6.3114004431       16.3803857696
  N         7.7340060416        4.9122892348        0.2567059815
  N         6.4401014484        6.5556227015       12.0245604380
  N         5.3984461785        5.0953581754        4.3665172864
  O         6.6782498555        7.5213336501        8.6456951533
  O         9.0627886981        5.6446707789        6.4045903624
  O         3.4883167723        4.0493395734        8.4865065337
  O         4.6860774177        8.0061938408       10.2658455734
  O         5.5965020949        3.9149880712        7.6712237891
  O         3.1590361458        6.3076714987       10.1424433483
  O         8.8433520200        7.7615062092        8.0710539671
  O         6.8096296844        5.9483112976        6.4545506045
  O         4.5547223739        6.4400113889        7.7594323513
  O         7.8751698370        5.1507560191        8.7777249400
  F         2.5861008600        1.7673699103        6.8476536432
  F         5.7947360363        9.6793754936        6.9209772799
  O         5.6669308917        5.1032816789        9.9823228912
  H         4.7051728411        5.1154108267       10.1872926859
  H         6.1171104041        5.5844767899       10.7740343401
  C         3.8124516082        1.6373062077        1.7547705579
  H         2.9541256063        1.3559992257        1.1359295591
  H         4.5174634048        2.2235441785        1.1498831959
  H         4.3104256675        0.7407319624        2.1423833466
  H         3.4614163710        2.2438299686        2.5986391656
      68
 i =      172, E =      -435.8652942514
 Al         6.2071773476        5.7045769029        8.1951353803
 Al         9.4871637136        5.9372274450        8.2592377808
  H         4.6297852351        7.4087202045        7.9008614704
  H         8.0085971397        4.1924947827        8.8414233083
  H         8.6562751156        7.4500170416       12.5961348378
  H         8.7979705773        7.1056321034       15.0886668958
  H         6.2929773334        6.0419373830       14.6773094459
  H         5.8140260203        4.4900239739        1.8203424505
  H         3.2940009855        5.7082889711        1.6995646496
  H         3.2565369231        5.9869404972        4.1971346948
  H         9.0186778459        8.8190863849       10.5306569158
  H        10.6210833902       10.0910895710       11.9181927223
  H         6.4280064938        3.0585197310        9.8331851483
  H         7.8247291853        1.9083726800       11.4904871166
  H         6.5303015070        7.4059817180       11.4362047456
  H         7.3061001252        6.3743824657       12.5317530145
  H         5.3626702385        5.2174057599        5.3698207344
  H         4.6420605032        4.5865474948        3.9066829055
  C         7.7020766751        8.2217173997        8.4027803658
  C         7.9151610604        5.6895205958        5.8444245857
  C         4.5137333461        3.4032734730        8.1044601212
  C         3.9777903095        7.1320097350       10.7673611701
  C         4.0519857032        6.9154146958       12.2458536257
  C         9.5725598089        7.0853345770       13.0637674860
  C         9.6400772508        6.9048801625       14.4338235192
  C         4.2132810991        6.4693744157       14.9957793692
  C         5.3593384514        6.3394074064       14.2026967823
  C         5.2971347020        6.6221388956       12.8406948661
  C         6.6964208664        4.8266940062        2.3607229120
  C         7.8771795866        5.0245518341        1.6508317678
  C         2.4167575489        5.4670374375        2.2897506365
  C         9.0165855529        5.6364080998        3.6532385906
  C         7.8387093540        5.4612033032        4.4027984244
  C         6.6205123473        5.1186748521        3.7409684651
  C         7.5685396686        9.7170074890        8.4852476481
  C         8.4339629597       10.4853978779        9.3242238242
  C         6.6542562929       10.3756129350        7.6932608719
  C         9.1744806744        9.8771119694       10.3573128248
  C        10.0538891691       10.5945651804       11.1373988956
  C         4.4806068794        1.9145683790        8.2671179534
  C         3.5178942188        1.1628620802        7.6238381509
  C         5.4033637782        1.2742249111        9.1557483496
  C         6.3491555260        1.9826776400        9.9395779999
  C         7.1083049078        1.3390834965       10.8980489251
  N         4.3848994153        6.3121423826       16.3804203077
  N         7.7540942407        4.9038238127        0.2557474240
  N         6.4430982690        6.5588340683       12.0126689576
  N         5.4094231445        5.0758856443        4.3626597351
  O         6.6757663800        7.5218503535        8.6456280520
  O         9.0623695764        5.6444451168        6.4059127422
  O         3.4875726624        4.0486912842        8.4861583063
  O         4.6841443310        8.0116252653       10.2675586320
  O         5.5955377931        3.9145553244        7.6717440162
  O         3.1615685789        6.3048579852       10.1437459306
  O         8.8433377091        7.7649153727        8.0789135386
  O         6.8085996792        5.9468444725        6.4533752335
  O         4.5541676253        6.4419418468        7.7578123388
  O         7.8749221575        5.1553196289        8.7798856015
  F         2.5859489636        1.7661132799        6.8490594261
  F         5.7950485599        9.6789427531        6.9208370523
  O         5.6676620170        5.1035563352        9.9810218413
  H         4.7079655463        5.1210350682       10.1941456193
  H         6.1241724743        5.5897058559       10.7666080751
  C         3.8115204353        1.6687948314        1.7620352086
  H         2.9544424493        1.3892253859        1.1400444440
  H         4.5146388641        2.2559767745        1.1582422386
  H         4.3080016835        0.7708981093        2.1454598288
  H         3.4553729156        2.2718652524        2.6056592768
      68
 i =      173, E =      -435.8654898026
 Al         6.1993572803        5.6972980919        8.1949601133
 Al         9.4827065341        5.9406753061        8.2600741008
  H         4.6320784803        7.4128528311        7.8907159637
  H         8.0105412456        4.1972192266        8.8463855613
  H         8.6663828900        7.4425142141       12.6170603518
  H         8.8306833353        7.0919645819       15.1014228301
  H         6.3308506380        6.0510024516       14.6555351788
  H         5.8502121053        4.4580582426        1.8073075433
  H         3.3264515362        5.6982108983        1.7166940575
  H         3.2694893977        5.9741260229        4.2113388926
  H         8.9764611471        8.8203419287       10.5689109273
  H        10.5547200881       10.0932949497       11.9821844261
  H         6.4260180881        3.0562863613        9.8486306821
  H         7.7797889734        1.9064293980       11.5444296156
  H         6.5365672605        7.4232981611       11.4210437429
  H         7.3190064429        6.3750723011       12.4973003107
  H         5.3848671605        5.1992724136        5.3574404711
  H         4.6643827341        4.5436365450        3.9029256073
  C         7.6962152614        8.2214532960        8.4135978225
  C         7.9174547540        5.6837775436        5.8454507980
  C         4.5121046617        3.4009271536        8.1068400683
  C         3.9781982693        7.1347854945       10.7669439824
  C         4.0625918421        6.9175829199       12.2467684367
  C         9.5903699857        7.0824057531       13.0733660905
  C         9.6696019600        6.8971122057       14.4413692857
  C         4.2492411089        6.4693682990       14.9943149706
  C         5.3898209354        6.3452461717       14.1924205852
  C         5.3137827458        6.6256907516       12.8308545775
  C         6.7272210260        4.7972010411        2.3543301147
  C         7.9106783303        5.0051691872        1.6506136900
  C         2.4447656730        5.4505214270        2.2981308674
  C         9.0336049128        5.6223680340        3.6618817187
  C         7.8504138028        5.4454009188        4.4032515204
  C         6.6400544241        5.0917702322        3.7346755167
  C         7.5592049783        9.7174286630        8.4973837735
  C         8.4163304064       10.4858566604        9.3453980952
  C         6.6506276414       10.3748038066        7.6991190501
  C         9.1370896421        9.8770372893       10.3945335225
  C        10.0070014664       10.5960470638       11.1851464444
  C         4.4775282247        1.9139193495        8.2721219169
  C         3.5161932760        1.1621947144        7.6275207711
  C         5.3927612898        1.2754803931        9.1698628075
  C         6.3306151576        1.9815931567        9.9648712331
  C         7.0697638837        1.3390280498       10.9418075824
  N         4.4241297251        6.3086987872       16.3801421497
  N         7.7943136640        4.8844791682        0.2539220213
  N         6.4520875944        6.5698666660       11.9893110290
  N         5.4306165171        5.0342212159        4.3545816002
  O         6.6716997460        7.5197772108        8.6474742552
  O         9.0623265814        5.6453431001        6.4096427742
  O         3.4855995168        4.0468935400        8.4852557137
  O         4.6761369264        8.0215208173       10.2692651633
  O         5.5939722146        3.9129674201        7.6720879326
  O         3.1657485276        6.3031697250       10.1458352779
  O         8.8426629815        7.7681999025        8.1050090815
  O         6.8075698971        5.9445884868        6.4498491647
  O         4.5516694780        6.4446863811        7.7553487204
  O         7.8724292177        5.1598121303        8.7829120951
  F         2.5859668178        1.7662189801        6.8500259439
  F         5.7942834624        9.6790472255        6.9208305038
  O         5.6679506392        5.1033392807        9.9780700503
  H         4.7113974678        5.1333513519       10.2062004578
  H         6.1369388011        5.5984213500       10.7505945529
  C         3.8080870197        1.7332467632        1.7768138854
  H         2.9540151993        1.4562026843        1.1490833103
  H         4.5103283921        2.3213598566        1.1742189913
  H         4.3044542400        0.8321430076        2.1524924800
  H         3.4427995988        2.3300048571        2.6196053385
      68
 i =      174, E =      -435.8657087339
 Al         6.1976913651        5.6957886955        8.1965192646
 Al         9.4799962671        5.9405426726        8.2610189639
  H         4.6374939552        7.4113514267        7.8900663445
  H         8.0104046664        4.1944845032        8.8510221767
  H         8.6693745442        7.4473076222       12.6133069311
  H         8.8285785187        7.0975763965       15.0989437308
  H         6.3288491851        6.0501429576       14.6564389376
  H         5.8479281375        4.4582896640        1.8095282413
  H         3.3253837643        5.6958139603        1.7170087659
  H         3.2689409724        5.9758338490        4.2100401598
  H         8.9804471623        8.8193836465       10.5651927945
  H        10.5596827855       10.0937977350       11.9755954205
  H         6.4209811134        3.0578466605        9.8534115399
  H         7.7796525324        1.9093092173       11.5422706468
  H         6.5407910847        7.4246935490       11.4256155110
  H         7.3232416934        6.3730231727       12.4973822513
  H         5.3843786781        5.2059574362        5.3569389248
  H         4.6644874613        4.5420729561        3.9040199377
  C         7.6963053761        8.2209840125        8.4181107944
  C         7.9167733030        5.6847654800        5.8455348205
  C         4.5105348071        3.4002381208        8.1078215534
  C         3.9745995104        7.1337494651       10.7671229129
  C         4.0641758516        6.9184679175       12.2467771745
  C         9.5915842414        7.0851901581       13.0722480012
  C         9.6686012013        6.9017635163       14.4398706619
  C         4.2463984748        6.4699323673       14.9943529022
  C         5.3889626615        6.3458163833       14.1935738614
  C         5.3154579846        6.6284394624       12.8320425560
  C         6.7261093352        4.7973959742        2.3546118596
  C         7.9089019021        5.0034997703        1.6508976087
  C         2.4430445554        5.4497603243        2.2981154376
  C         9.0324841158        5.6239816184        3.6616808244
  C         7.8500326630        5.4462819975        4.4032522889
  C         6.6398334418        5.0918387650        3.7347407046
  C         7.5572638159        9.7173365088        8.4983421729
  C         8.4144559127       10.4856109749        9.3459512873
  C         6.6502370763       10.3754012776        7.6987151351
  C         9.1384771818        9.8774102975       10.3918370413
  C        10.0076718790       10.5965976469       11.1834170064
  C         4.4740714680        1.9141979132        8.2740792047
  C         3.5163985413        1.1617139344        7.6257745124
  C         5.3890259374        1.2756493247        9.1724807716
  C         6.3271995980        1.9834632500        9.9677521866
  C         7.0687476132        1.3408373466       10.9412873351
  N         4.4221902190        6.3079418386       16.3799479688
  N         7.7924667772        4.8849447278        0.2535205644
  N         6.4553645417        6.5696108136       11.9914553653
  N         5.4275026483        5.0450382051        4.3528758369
  O         6.6708385961        7.5188880033        8.6455432669
  O         9.0616375937        5.6458695660        6.4108468921
  O         3.4845567390        4.0483425472        8.4861509700
  O         4.6743443735        8.0184278542       10.2685303077
  O         5.5920348413        3.9118333935        7.6716384383
  O         3.1603419399        6.3039261082       10.1476196179
  O         8.8449227759        7.7683223504        8.1195578223
  O         6.8066243397        5.9427345995        6.4491412784
  O         4.5506011872        6.4434513887        7.7572286040
  O         7.8692332457        5.1563236802        8.7818284090
  F         2.5859094597        1.7664709185        6.8496540064
  F         5.7942409655        9.6789906225        6.9206735298
  O         5.6680793564        5.1048170022        9.9804726546
  H         4.7107363241        5.1334561278       10.2034176425
  H         6.1371130744        5.5970339356       10.7553445286
  C         3.8083004518        1.7349675234        1.7789251171
  H         2.9551464687        1.4536554409        1.1490413503
  H         4.5102031485        2.3202615630        1.1730471862
  H         4.3049693261        0.8326172658        2.1510156852
  H         3.4401146086        2.3321521532        2.6199304676
      68
 i =      175, E =      -435.8657703657
 Al         6.2022441655        5.6998874248        8.1954941523
 Al         9.4804442557        5.9374057521        8.2640638284
  H         4.6428847892        7.4052009174        7.8970472034
  H         8.0074124240        4.1860366381        8.8536786538
  H         8.6697383225        7.4558766163       12.5931127118
  H         8.8077621420        7.1128634547       15.0884758475
  H         6.3061491091        6.0440946887       14.6704885349
  H         5.8255288763        4.4746625440        1.8188131957
  H         3.3077806753        5.6947038890        1.7067645116
  H         3.2625270777        5.9835274441        4.1993656066
  H         9.0075914249        8.8165741296       10.5430481453
  H        10.6003974395       10.0940763760       11.9360487773
  H         6.4138096035        3.0606617394        9.8483394483
  H         7.8046173138        1.9147985844       11.5076260093
  H         6.5448036925        7.4173449517       11.4364589667
  H         7.3241705687        6.3774462645       12.5160145398
  H         5.3700324160        5.2193472849        5.3598664650
  H         4.6530164988        4.5653631251        3.9022456542
  C         7.6990710316        8.2201947522        8.4159767011
  C         7.9152185852        5.6865159088        5.8446870522
  C         4.5093069838        3.4003917859        8.1054577076
  C         3.9702546614        7.1302106065       10.7696035447
  C         4.0609943205        6.9160070943       12.2469531227
  C         9.5845737004        7.0911615958       13.0654067538
  C         9.6499386760        6.9080988804       14.4348976140
  C         4.2253178144        6.4738538170       14.9945140167
  C         5.3732696925        6.3451337625       14.2002169178
  C         5.3093341139        6.6276056143       12.8395300891
  C         6.7089475996        4.8104664928        2.3578742259
  C         7.8890103457        5.0111587387        1.6517951116
  C         2.4274330813        5.4552063826        2.2930844907
  C         9.0234098390        5.6301327450        3.6561376119
  C         7.8444212308        5.4545095808        4.4027963054
  C         6.6294829318        5.1062915273        3.7373623243
  C         7.5593890778        9.7161152349        8.4954054855
  C         8.4217400484       10.4847818221        9.3360936168
  C         6.6525553302       10.3757290533        7.6948674968
  C         9.1572787775        9.8772858310       10.3729226799
  C        10.0348566838       10.5970872772       11.1546621977
  C         4.4700163131        1.9145329305        8.2739622588
  C         3.5175658439        1.1601916470        7.6208376564
  C         5.3906903327        1.2740961377        9.1658580503
  C         6.3317054872        1.9856106832        9.9573439071
  C         7.0878123898        1.3431564911       10.9163101419
  N         4.3982657530        6.3075527776       16.3792933426
  N         7.7686141926        4.8946751610        0.2543993257
  N         6.4573334371        6.5675392559       12.0070097949
  N         5.4126158384        5.0771805252        4.3521350874
  O         6.6712130169        7.5171155629        8.6447121379
  O         9.0612485959        5.6465790990        6.4118152368
  O         3.4843826505        4.0511836956        8.4865604646
  O         4.6727835492        8.0103317815       10.2653540521
  O         5.5903092024        3.9100661381        7.6706412618
  O         3.1566165979        6.3019958426       10.1497255879
  O         8.8447547582        7.7654150017        8.1082445428
  O         6.8066043911        5.9432449620        6.4473454810
  O         4.5511703164        6.4391689512        7.7615174623
  O         7.8661841516        5.1469703222        8.7787672068
  F         2.5867809631        1.7664607470        6.8484520540
  F         5.7945673627        9.6781246164        6.9216426825
  O         5.6663458572        5.1058200694        9.9828616526
  H         4.7050156712        5.1282970740       10.1915453645
  H         6.1286179876        5.5903807274       10.7657562612
  C         3.8096763422        1.7039001289        1.7723641840
  H         2.9555078361        1.4192944040        1.1456839716
  H         4.5129270506        2.2873208044        1.1658135292
  H         4.3071638204        0.8016767740        2.1456245464
  H         3.4443679777        2.3039653549        2.6119774674
      68
 i =      176, E =      -435.8659717146
 Al         6.2012010822        5.6977456373        8.1920367510
 Al         9.4805727063        5.9383542660        8.2659904594
  H         4.6428696944        7.4046978508        7.8956789136
  H         8.0066706530        4.1868751826        8.8551481467
  H         8.6762317911        7.4527061884       12.6031107828
  H         8.8251195385        7.1051362881       15.0974697566
  H         6.3257957393        6.0505652369       14.6604810725
  H         5.8460675895        4.4543858582        1.8114040435
  H         3.3267985785        5.6825358520        1.7141569560
  H         3.2712846890        5.9740479040        4.2058654820
  H         8.9819774579        8.8180141679       10.5672948453
  H        10.5640273548       10.0965639625       11.9726093036
  H         6.4101270652        3.0583858345        9.8546724590
  H         7.7816008562        1.9136500125       11.5328957120
  H         6.5476602650        7.4310307017       11.4272501471
  H         7.3331007832        6.3885846099       12.5005686207
  H         5.3787235009        5.2037625468        5.3513990202
  H         4.6659200414        4.5430229355        3.8962160582
  C         7.6962249397        8.2204355415        8.4218021945
  C         7.9168896745        5.6829067620        5.8436211795
  C         4.5085277838        3.4000694149        8.1071027894
  C         3.9692478821        7.1341100463       10.7702047870
  C         4.0672657042        6.9185499448       12.2471908743
  C         9.5939561958        7.0891662150       13.0712822845
  C         9.6659520815        6.9051417137       14.4404008014
  C         4.2447849841        6.4728700664       14.9945090405
  C         5.3897776472        6.3492396306       14.1947088797
  C         5.3195450361        6.6344839066       12.8341858137
  C         6.7267509852        4.7922912608        2.3538876781
  C         7.9090073281        4.9965717290        1.6517049339
  C         2.4445095011        5.4421244099        2.2971823407
  C         9.0348288225        5.6184921069        3.6598431264
  C         7.8526764083        5.4440291650        4.4023425234
  C         6.6412802902        5.0909426119        3.7327418795
  C         7.5543352088        9.7157299189        8.5016475787
  C         8.4108045219       10.4841782367        9.3483455875
  C         6.6501363636       10.3753244745        7.6978887051
  C         9.1362639217        9.8782319778       10.3939527396
  C        10.0080227541       10.5978938288       11.1821133610
  C         4.4695815511        1.9136885208        8.2765828623
  C         3.5157431760        1.1600451358        7.6239004922
  C         5.3839869582        1.2726140774        9.1748436999
  C         6.3231200226        1.9841565250        9.9683684410
  C         7.0678334306        1.3423340888       10.9377138593
  N         4.4210178197        6.3047371178       16.3789840400
  N         7.7921262316        4.8814019275        0.2538066189
  N         6.4637710194        6.5797683674       11.9960361396
  N         5.4236322705        5.0564381115        4.3444866225
  O         6.6681758268        7.5155692955        8.6433753071
  O         9.0619918988        5.6471778652        6.4132902372
  O         3.4835062038        4.0505151891        8.4860731338
  O         4.6613630279        8.0208886093       10.2628999629
  O         5.5897229919        3.9083957557        7.6704498949
  O         3.1605710627        6.2988521419       10.1529777900
  O         8.8445800829        7.7669966348        8.1236852527
  O         6.8064580599        5.9423749417        6.4419995560
  O         4.5513303140        6.4381367948        7.7600754336
  O         7.8648564432        5.1475386911        8.7793124681
  F         2.5873283909        1.7661596746        6.8484537172
  F         5.7946413381        9.6781733796        6.9216371707
  O         5.6653250412        5.1063684378        9.9807686630
  H         4.7048312003        5.1393564967       10.1978480719
  H         6.1346605026        5.5974525376       10.7554916787
  C         3.8077126106        1.7422571460        1.7803279782
  H         2.9544779838        1.4581298910        1.1521589213
  H         4.5096666271        2.3271568684        1.1740491575
  H         4.3046666938        0.8391561562        2.1522305606
  H         3.4384726532        2.3407079033        2.6196586496
      68
 i =      177, E =      -435.8660785976
 Al         6.2009755063        5.6948816202        8.1874607587
 Al         9.4807292256        5.9396164220        8.2679173631
  H         4.6437758205        7.4023062938        7.8941585006
  H         8.0058341501        4.1904449572        8.8579624225
  H         8.6831177717        7.4502921104       12.6146808976
  H         8.8454038113        7.0992050613       15.1076480542
  H         6.3464740480        6.0566307130       14.6489499752
  H         5.8675036490        4.4341111726        1.8031325603
  H         3.3450301082        5.6701574608        1.7206099159
  H         3.2807847125        5.9623651371        4.2118274083
  H         8.9586249620        8.8203551327       10.5906606404
  H        10.5283448258       10.1005635534       12.0079747254
  H         6.4023323527        3.0565412431        9.8653818951
  H         7.7571301752        1.9138137603       11.5613034420
  H         6.5492410333        7.4449444841       11.4177820979
  H         7.3408991648        6.3975391533       12.4855822816
  H         5.3875586052        5.1922131357        5.3411833237
  H         4.6790408161        4.5196350689        3.8903380476
  C         7.6945476435        8.2208348864        8.4258489834
  C         7.9182118968        5.6797046656        5.8402817261
  C         4.5086487285        3.3998507001        8.1106011859
  C         3.9647338687        7.1382045270       10.7703067847
  C         4.0752269826        6.9238845878       12.2463572046
  C         9.6045035733        7.0871547940       13.0769957254
  C         9.6843616852        6.9053057148       14.4453506142
  C         4.2653611662        6.4732144950       14.9941541515
  C         5.4063056663        6.3530063112       14.1884777788
  C         5.3305307142        6.6413148110       12.8275937477
  C         6.7454091357        4.7738596427        2.3489641476
  C         7.9294636363        4.9818018076        1.6492001816
  C         2.4616582455        5.4265214227        2.3005470099
  C         9.0465858483        5.6061885859        3.6626683103
  C         7.8609125731        5.4320708361        4.3999661985
  C         6.6527711524        5.0748640145        3.7268265615
  C         7.5496485875        9.7152759671        8.5090520533
  C         8.3991302909       10.4841230987        9.3627947764
  C         6.6464788301       10.3740422094        7.7026012317
  C         9.1147755987        9.8797014666       10.4172003168
  C         9.9821229512       10.6005038355       11.2087142913
  C         4.4680116689        1.9124924906        8.2809050641
  C         3.5125436919        1.1597765697        7.6281286200
  C         5.3765716645        1.2716643803        9.1851802238
  C         6.3106876919        1.9825223098        9.9836974141
  C         7.0468040015        1.3432406426       10.9617559313
  N         4.4451852115        6.3020879411       16.3782685803
  N         7.8162553873        4.8688247410        0.2507630526
  N         6.4693046487        6.5892987169       11.9831092305
  N         5.4342878356        5.0369378944        4.3353809469
  O         6.6666634883        7.5155394419        8.6433931900
  O         9.0615462837        5.6478249294        6.4132591393
  O         3.4836032241        4.0496934274        8.4886386342
  O         4.6445178651        8.0287084659       10.2573391117
  O         5.5898391424        3.9068831057        7.6701513552
  O         3.1587007288        6.2954443510       10.1590021277
  O         8.8445247249        7.7686411496        8.1293503632
  O         6.8046223514        5.9405728837        6.4330624961
  O         4.5518585593        6.4353956976        7.7592595680
  O         7.8630598857        5.1507910246        8.7801335602
  F         2.5862204233        1.7657301003        6.8491257469
  F         5.7948533349        9.6781541196        6.9203532299
  O         5.6636343557        5.1080046561        9.9792205984
  H         4.7058771367        5.1507078942       10.2017682351
  H         6.1381413174        5.6046248708       10.7469590339
  C         3.8052763339        1.7837427400        1.7892348221
  H         2.9531486692        1.4982590869        1.1591869886
  H         4.5062387851        2.3693049714        1.1821859034
  H         4.3017436214        0.8794571542        2.1594321660
  H         3.4321596278        2.3809837990        2.6277877034
      68
 i =      178, E =      -435.8662121488
 Al         6.2008771132        5.6927856031        8.1839746553
 Al         9.4811784968        5.9378174673        8.2677394792
  H         4.6428850534        7.3994376112        7.8912546844
  H         8.0030585701        4.1919396107        8.8622513434
  H         8.6845561008        7.4490618545       12.6112471146
  H         8.8469657638        7.1088171433       15.1053478972
  H         6.3432220898        6.0490854047       14.6516068715
  H         5.8659643368        4.4399205193        1.8010053655
  H         3.3420530587        5.6777271072        1.7170901953
  H         3.2798896044        5.9659907819        4.2092323928
  H         8.9702840743        8.8196141344       10.5841357138
  H        10.5377457130       10.1024418489       12.0001572686
  H         6.3887479614        3.0589803791        9.8735354659
  H         7.7498391208        1.9184665155       11.5665088000
  H         6.5542496932        7.4355257620       11.4223287431
  H         7.3380687027        6.3791514130       12.4856119232
  H         5.3844543019        5.2007324721        5.3378083828
  H         4.6781590602        4.5236864855        3.8886199594
  C         7.6953431850        8.2210335502        8.4235030924
  C         7.9179630013        5.6800319925        5.8367537047
  C         4.5073484028        3.3992694771        8.1110349728
  C         3.9663416444        7.1337846610       10.7718956276
  C         4.0762441467        6.9195603732       12.2472461626
  C         9.6059189698        7.0891623842       13.0751230035
  C         9.6849041939        6.9094473191       14.4441872321
  C         4.2643817512        6.4751396961       14.9936562472
  C         5.4049351751        6.3493602323       14.1891450049
  C         5.3305863046        6.6346344431       12.8282570586
  C         6.7436676547        4.7792939419        2.3471592959
  C         7.9277911784        4.9866522922        1.6468391665
  C         2.4594943765        5.4330542113        2.2976440288
  C         9.0459904392        5.6090529038        3.6599844967
  C         7.8603910265        5.4338814867        4.3970343099
  C         6.6513125171        5.0785111961        3.7247520580
  C         7.5501789118        9.7150658582        8.5093024965
  C         8.3985177126       10.4843143555        9.3643603879
  C         6.6445298073       10.3737211881        7.7048606381
  C         9.1199130199        9.8798734980       10.4142932651
  C         9.9849995326       10.6020452386       11.2066280277
  C         4.4661940810        1.9117692693        8.2831979226
  C         3.5099345057        1.1598357832        7.6305944685
  C         5.3720221382        1.2719204962        9.1901712358
  C         6.3033815994        1.9844121141        9.9894409563
  C         7.0432416018        1.3462013307       10.9646084272
  N         4.4415707254        6.3042844536       16.3774341259
  N         7.8117989004        4.8768444994        0.2488478338
  N         6.4683246279        6.5779471160       11.9836928019
  N         5.4332723334        5.0400524126        4.3329574140
  O         6.6679878189        7.5146960907        8.6408058889
  O         9.0602374399        5.6461928046        6.4116535830
  O         3.4821658055        4.0489671267        8.4883229500
  O         4.6466147601        8.0216547295       10.2568517377
  O         5.5891586284        3.9049119830        7.6708000169
  O         3.1591391977        6.2931324726       10.1625260949
  O         8.8452481872        7.7672999091        8.1278199769
  O         6.8026197222        5.9403474803        6.4265862838
  O         4.5517122481        6.4318078781        7.7560844563
  O         7.8617110119        5.1522004389        8.7799124242
  F         2.5859671992        1.7658965343        6.8486211875
  F         5.7946064178        9.6785475029        6.9204102718
  O         5.6595371056        5.1090371601        9.9774997412
  H         4.7018062597        5.1451451408       10.1936240402
  H         6.1311937224        5.6031678143       10.7497994470
  C         3.8055977900        1.7798391321        1.7878005646
  H         2.9534063652        1.4944425496        1.1586650235
  H         4.5069062823        2.3664136836        1.1825065312
  H         4.3002812087        0.8743807006        2.1584740858
  H         3.4310981764        2.3773491305        2.6261565339
      68
 i =      179, E =      -435.8663582315
 Al         6.2041094875        5.6921305951        8.1780593373
 Al         9.4822959671        5.9340892981        8.2703112548
  H         4.6424215682        7.3931201258        7.8932311767
  H         7.9971213424        4.1904682500        8.8674954424
  H         8.6891276965        7.4517531810       12.6075281133
  H         8.8510898841        7.1224334211       15.1044609570
  H         6.3442280850        6.0437219530       14.6528985772
  H         5.8683768894        4.4382402376        1.7960366784
  H         3.3468849648        5.6695996966        1.7118076948
  H         3.2832103331        5.9608073363        4.2041786564
  H         8.9753599906        8.8188465850       10.5869514172
  H        10.5431800239       10.1064811259       11.9984080145
  H         6.3674556960        3.0634994394        9.8839273085
  H         7.7403632863        1.9257769686       11.5705371633
  H         6.5599193395        7.4357722305       11.4245017712
  H         7.3420971752        6.3800577168       12.4853506806
  H         5.3796582551        5.2052044627        5.3277882798
  H         4.6822503952        4.5212299445        3.8774799693
  C         7.6963356747        8.2195847853        8.4220482958
  C         7.9181382355        5.6785973647        5.8298705857
  C         4.5056306250        3.3988177423        8.1117905482
  C         3.9643470797        7.1320648724       10.7748171316
  C         4.0796159534        6.9217541682       12.2481145924
  C         9.6096869491        7.0950713324       13.0743794716
  C         9.6875752025        6.9171563972       14.4439486774
  C         4.2667350926        6.4794963537       14.9912436047
  C         5.4080343788        6.3495485796       14.1890858048
  C         5.3330522714        6.6350021270       12.8287604108
  C         6.7460179657        4.7761911132        2.3427183060
  C         7.9307426466        4.9822619842        1.6437038739
  C         2.4640917832        5.4264472159        2.2927844745
  C         9.0496411830        5.6028358888        3.6549542357
  C         7.8630291378        5.4308108384        4.3912484419
  C         6.6540651943        5.0763862212        3.7188559888
  C         7.5493093031        9.7129013227        8.5112246813
  C         8.3939252288       10.4840739816        9.3691473118
  C         6.6423628974       10.3728495168        7.7081546815
  C         9.1190453429        9.8806730090       10.4173940043
  C         9.9831430562       10.6047818656       11.2093360304
  C         4.4604186489        1.9113577333        8.2897169700
  C         3.5076789872        1.1590100009        7.6339553570
  C         5.3634340025        1.2718645460        9.1984028296
  C         6.2917379359        1.9880488819        9.9973801463
  C         7.0347554783        1.3504321154       10.9703518755
  N         4.4412376309        6.3039791600       16.3736572832
  N         7.8116530697        4.8761958186        0.2463750843
  N         6.4712242572        6.5793070210       11.9848616436
  N         5.4315948071        5.0495463961        4.3221372519
  O         6.6683260439        7.5129334812        8.6399187559
  O         9.0579310089        5.6458490433        6.4101792016
  O         3.4806100053        4.0495632794        8.4870950913
  O         4.6367708549        8.0210908475       10.2522182442
  O         5.5874623124        3.9031055876        7.6707746188
  O         3.1598433183        6.2849942862       10.1730761013
  O         8.8456397391        7.7657503340        8.1217212157
  O         6.7981800254        5.9395179782        6.4114511311
  O         4.5517600903        6.4268365153        7.7569249485
  O         7.8596312804        5.1506356199        8.7775135976
  F         2.5869928875        1.7660920087        6.8490233073
  F         5.7949884116        9.6785144120        6.9217216839
  O         5.6580543862        5.1119016028        9.9782783372
  H         4.6962483360        5.1496510645       10.1855066974
  H         6.1282802074        5.6039289260       10.7540735449
  C         3.8038308769        1.7925758256        1.7895281133
  H         2.9519124167        1.5035592866        1.1621960871
  H         4.5046217644        2.3785281263        1.1849571132
  H         4.2975835860        0.8876868641        2.1613725324
  H         3.4303612389        2.3915260221        2.6269854846
      68
 i =      180, E =      -435.8664390414
 Al         6.2044228084        5.6931533778        8.1802706235
 Al         9.4824267907        5.9339794019        8.2699408041
  H         4.6406999782        7.3961044730        7.8924732587
  H         7.9968873441        4.1908290259        8.8676269247
  H         8.6891475287        7.4533723056       12.6069611303
  H         8.8506633441        7.1248382338       15.1030891433
  H         6.3419970965        6.0413048506       14.6538108264
  H         5.8671870597        4.4420085271        1.7959893608
  H         3.3460796204        5.6720309866        1.7111355345
  H         3.2823570005        5.9627045241        4.2031957686
  H         8.9785988832        8.8181373425       10.5828018500
  H        10.5452412249       10.1057369907       11.9962539685
  H         6.3632479772        3.0655088491        9.8892935582
  H         7.7401305793        1.9265514421       11.5718287451
  H         6.5596802017        7.4322525187       11.4272007608
  H         7.3416623586        6.3762002365       12.4875006684
  H         5.3787250458        5.2049234202        5.3272378150
  H         4.6821694788        4.5248846615        3.8746197179
  C         7.6972589958        8.2196372196        8.4204772624
  C         7.9178502808        5.6791893436        5.8305304089
  C         4.5051651591        3.3995264322        8.1121417243
  C         3.9652450228        7.1311850584       10.7755708529
  C         4.0794392355        6.9222836516       12.2491527972
  C         9.6090852910        7.0962036395       13.0744471328
  C         9.6874601544        6.9186781667       14.4435349531
  C         4.2649725818        6.4792055711       14.9924407555
  C         5.4060586004        6.3473535750       14.1899017146
  C         5.3326748771        6.6331085537       12.8294523289
  C         6.7451616160        4.7785015993        2.3428488421
  C         7.9290207031        4.9847709641        1.6427772720
  C         2.4628155191        5.4287136116        2.2916103666
  C         9.0484765338        5.6049843729        3.6541084811
  C         7.8622673650        5.4332230310        4.3913156466
  C         6.6529008433        5.0810318018        3.7188866552
  C         7.5505560932        9.7134456584        8.5097463181
  C         8.3967285503       10.4840918777        9.3665511031
  C         6.6446459622       10.3732811026        7.7060232175
  C         9.1225494751        9.8800887125       10.4141641285
  C         9.9859534326       10.6053728569       11.2063700447
  C         4.4595314407        1.9125295816        8.2897093158
  C         3.5074831145        1.1595530902        7.6340191504
  C         5.3637345118        1.2730906703        9.1970054899
  C         6.2885809813        1.9891772709        9.9997206551
  C         7.0350946435        1.3518859663       10.9703593018
  N         4.4408084756        6.3040362691       16.3747675438
  N         7.8101854678        4.8777057828        0.2456286279
  N         6.4709849084        6.5752085329       11.9863525694
  N         5.4298750092        5.0538549767        4.3211671286
  O         6.6689995537        7.5146432030        8.6408127050
  O         9.0574837138        5.6463283815        6.4102291574
  O         3.4799279411        4.0518052652        8.4871159351
  O         4.6410632771        8.0170191657       10.2522896930
  O         5.5872059998        3.9044514728        7.6719512474
  O         3.1577330726        6.2849971251       10.1761223678
  O         8.8458635019        7.7665289098        8.1165085103
  O         6.7990162582        5.9408491093        6.4152417770
  O         4.5510565315        6.4297372558        7.7582701746
  O         7.8605199761        5.1512995668        8.7772340117
  F         2.5862705785        1.7659016554        6.8490099044
  F         5.7954774127        9.6789718437        6.9212584114
  O         5.6597573516        5.1111168378        9.9782595613
  H         4.6967671925        5.1467835212       10.1816907936
  H         6.1276843657        5.5997934622       10.7566432880
  C         3.8022025681        1.7904262729        1.7890784926
  H         2.9509733285        1.4996375942        1.1614542533
  H         4.5047068196        2.3745610663        1.1831013120
  H         4.2980663054        0.8862945851        2.1620309849
  H         3.4317283892        2.3902286814        2.6267468038
      68
 i =      181, E =      -435.8665279895
 Al         6.2036905795        5.6937682768        8.1810265980
 Al         9.4817748483        5.9338843403        8.2710063754
  H         4.6386376829        7.4006666038        7.8927768734
  H         7.9956430703        4.1926527454        8.8685812484
  H         8.6927963038        7.4553556601       12.6139110892
  H         8.8591648246        7.1249672089       15.1079158710
  H         6.3504866084        6.0417747836       14.6501179323
  H         5.8768756357        4.4353517951        1.7912402839
  H         3.3552113608        5.6666412740        1.7135465596
  H         3.2872131400        5.9583958678        4.2043278097
  H         8.9693648905        8.8188457448       10.5902489635
  H        10.5289774644       10.1068744371       12.0121881873
  H         6.3537329675        3.0674772311        9.9018831697
  H         7.7258611898        1.9275974668       11.5878598044
  H         6.5620232318        7.4349899098       11.4262191405
  H         7.3453035252        6.3778391056       12.4847043629
  H         5.3818351314        5.1947962032        5.3207245545
  H         4.6893739596        4.5184223960        3.8648683985
  C         7.6963267215        8.2200806891        8.4200047610
  C         7.9190307815        5.6786510824        5.8308125263
  C         4.5042119118        3.4001158804        8.1133563117
  C         3.9653585384        7.1331972025       10.7783128054
  C         4.0831717051        6.9249798093       12.2519120167
  C         9.6142273338        7.0981510595       13.0789393270
  C         9.6948448282        6.9190164992       14.4470334765
  C         4.2737322378        6.4789992160       14.9928402196
  C         5.4138183033        6.3480829405       14.1885441318
  C         5.3380702184        6.6342721520       12.8288581419
  C         6.7533044476        4.7730519690        2.3399479186
  C         7.9379654836        4.9792181876        1.6417415096
  C         2.4704086236        5.4240889861        2.2924819018
  C         9.0530191256        5.6019880171        3.6550129519
  C         7.8653946677        5.4314846834        4.3906057861
  C         6.6581275787        5.0782399730        3.7154937511
  C         7.5499916789        9.7145424223        8.5099673164
  C         8.3941814544       10.4842934125        9.3696197239
  C         6.6448951612       10.3736946085        7.7055316211
  C         9.1154364711        9.8803577773       10.4205367857
  C         9.9738237381       10.6060587424       11.2186020726
  C         4.4577124214        1.9137111794        8.2914535368
  C         3.5076424300        1.1601713996        7.6336475937
  C         5.3596106112        1.2745888687        9.2017129139
  C         6.2803739611        1.9907670049       10.0093048671
  C         7.0235647984        1.3528983886       10.9832053929
  N         4.4519906542        6.3032737463       16.3744887500
  N         7.8218259936        4.8717687297        0.2447620732
  N         6.4748689462        6.5766983932       11.9838717365
  N         5.4331483780        5.0490021958        4.3142704609
  O         6.6684984770        7.5145790154        8.6400502022
  O         9.0581355931        5.6467273303        6.4102052002
  O         3.4781922844        4.0539701771        8.4870753009
  O         4.6389525830        8.0203851130       10.2520230852
  O         5.5869209541        3.9044817977        7.6731075711
  O         3.1558969537        6.2842726896       10.1829722595
  O         8.8440886068        7.7669731356        8.1161404142
  O         6.7996608927        5.9397276030        6.4163718024
  O         4.5489246908        6.4334758427        7.7595321754
  O         7.8603398253        5.1533267423        8.7772414628
  F         2.5860210888        1.7660330796        6.8484384895
  F         5.7950676646        9.6785797171        6.9213450520
  O         5.6602474863        5.1115213309        9.9782048046
  H         4.6970275735        5.1501146717       10.1805300074
  H         6.1292080270        5.5997667582       10.7555788253
  C         3.7997874053        1.8096134146        1.7929023661
  H         2.9489803688        1.5182751083        1.1646002766
  H         4.5029852753        2.3930972813        1.1868284620
  H         4.2966787710        0.9060154897        2.1657460491
  H         3.4291291935        2.4092204723        2.6306271880
      68
 i =      182, E =      -435.8666048797
 Al         6.2031907197        5.6941306623        8.1809222974
 Al         9.4800913834        5.9334612494        8.2715726488
  H         4.6342413849        7.4040620920        7.8924554972
  H         7.9929807354        4.1934635114        8.8706893309
  H         8.6975075402        7.4585291642       12.6223691171
  H         8.8712892916        7.1272658743       15.1155459295
  H         6.3608419712        6.0390457408       14.6455929719
  H         5.8887234232        4.4293440000        1.7837134761
  H         3.3658055610        5.6615686184        1.7159251572
  H         3.2936494996        5.9531043563        4.2057612092
  H         8.9620279067        8.8193337918       10.5966649655
  H        10.5103681276       10.1085763281       12.0299203128
  H         6.3385104584        3.0704748421        9.9199553553
  H         7.7035648664        1.9305685495       11.6114603243
  H         6.5661654378        7.4357464273       11.4251144218
  H         7.3492947160        6.3744265586       12.4785561199
  H         5.3844917560        5.1852826382        5.3130254410
  H         4.6981391584        4.5108167073        3.8536255866
  C         7.6956279034        8.2198610594        8.4218351076
  C         7.9198797805        5.6779040460        5.8303440451
  C         4.5029592577        3.4013859008        8.1149766672
  C         3.9666047400        7.1347060144       10.7809252973
  C         4.0879181606        6.9280066265       12.2543676333
  C         9.6205399410        7.1004207409       13.0844083589
  C         9.7052677188        6.9212671267       14.4517848772
  C         4.2852579993        6.4789588067       14.9940050155
  C         5.4230862138        6.3462439971       14.1871902533
  C         5.3435711582        6.6350121106       12.8281516936
  C         6.7632189538        4.7688934268        2.3348074263
  C         7.9493314145        4.9753472626        1.6400716011
  C         2.4798953053        5.4199530503        2.2937649332
  C         9.0591637449        5.5989877908        3.6560074097
  C         7.8693842094        5.4301190703        4.3890265935
  C         6.6650963767        5.0742344321        3.7100441009
  C         7.5495402562        9.7148919887        8.5111568195
  C         8.3905855901       10.4844394721        9.3738580187
  C         6.6455950390       10.3741311773        7.7060352044
  C         9.1066487371        9.8806245204       10.4289573948
  C         9.9605135754       10.6072716685       11.2316846664
  C         4.4551676537        1.9151402462        8.2947143394
  C         3.5073567635        1.1605923379        7.6350661938
  C         5.3542686464        1.2759146335        9.2082341156
  C         6.2667865214        1.9927796314       10.0242890310
  C         7.0068602090        1.3549065440       11.0008635733
  N         4.4657986262        6.3026099907       16.3746704655
  N         7.8359188896        4.8658641325        0.2437588955
  N         6.4782536087        6.5764371802       11.9799523804
  N         5.4379516952        5.0448884622        4.3060971870
  O         6.6674414387        7.5150608605        8.6402926210
  O         9.0585160545        5.6468357695        6.4098362705
  O         3.4767647992        4.0561644222        8.4867066982
  O         4.6378668517        8.0216743685       10.2513425955
  O         5.5857098617        3.9049076286        7.6726123998
  O         3.1566267090        6.2834397105       10.1895869150
  O         8.8435237874        7.7674922885        8.1194568273
  O         6.7994053955        5.9376804643        6.4155838938
  O         4.5464407663        6.4360167626        7.7605042502
  O         7.8607823863        5.1541869059        8.7782172197
  F         2.5863031024        1.7657433678        6.8487499161
  F         5.7956931113        9.6786185645        6.9216739685
  O         5.6611118189        5.1121300239        9.9775413430
  H         4.6968591422        5.1529528463       10.1767399842
  H         6.1300019656        5.5991530530       10.7558234694
  C         3.7961166765        1.8335902650        1.7971335180
  H         2.9456439011        1.5414109529        1.1681202389
  H         4.5002442735        2.4158845644        1.1916685217
  H         4.2946681738        0.9314703541        2.1709270112
  H         3.4267488610        2.4333815719        2.6357892504
      68
 i =      183, E =      -435.8666814608
 Al         6.2023263665        5.6953121374        8.1807663939
 Al         9.4784047031        5.9334392120        8.2710139190
  H         4.6298648128        7.4064822856        7.8934311907
  H         7.9913467828        4.1938094150        8.8721860487
  H         8.7019375052        7.4630261759       12.6336439391
  H         8.8846171990        7.1275675999       15.1261332658
  H         6.3717738956        6.0369251903       14.6405901744
  H         5.9018706662        4.4231214771        1.7764198948
  H         3.3772893089        5.6546502305        1.7197130547
  H         3.3007589196        5.9474145857        4.2088993861
  H         8.9523814921        8.8196336276       10.6035868772
  H        10.4895039511       10.1095731304       12.0484931673
  H         6.3237637275        3.0733390542        9.9384197428
  H         7.6794265473        1.9326831408       11.6365623364
  H         6.5698395425        7.4382077455       11.4235994052
  H         7.3540489582        6.3739223469       12.4738425729
  H         5.3876523236        5.1725024476        5.3067703847
  H         4.7065884893        4.5038211956        3.8428483612
  C         7.6956246956        8.2201160796        8.4228065742
  C         7.9202522775        5.6771861178        5.8301056339
  C         4.5018703440        3.4027061928        8.1161335425
  C         3.9678805071        7.1383618477       10.7825540070
  C         4.0923216103        6.9315519825       12.2565006930
  C         9.6275654117        7.1045083129       13.0910207422
  C         9.7159284143        6.9215878994       14.4582812423
  C         4.2982263158        6.4785349910       14.9958365684
  C         5.4332848546        6.3464482569       14.1851581033
  C         5.3489077563        6.6369682533       12.8273038588
  C         6.7733524631        4.7653635318        2.3310929536
  C         7.9616137033        4.9698785560        1.6400390663
  C         2.4897981559        5.4158604339        2.2961485688
  C         9.0664969510        5.5957513564        3.6579201452
  C         7.8741902788        5.4288845172        4.3877924700
  C         6.6719150738        5.0712762936        3.7059281304
  C         7.5492427550        9.7156388280        8.5119616385
  C         8.3865908452       10.4848715111        9.3784968599
  C         6.6455348170       10.3747752679        7.7063223361
  C         9.0984866882        9.8812180969       10.4359428340
  C         9.9446715409       10.6077134181       11.2471138488
  C         4.4537209013        1.9161187383        8.2974885684
  C         3.5077417868        1.1612674575        7.6351612770
  C         5.3491062093        1.2768861920        9.2157272374
  C         6.2557634515        1.9950915304       10.0375190457
  C         6.9891232037        1.3561058657       11.0190324538
  N         4.4821865018        6.3007213063       16.3754383386
  N         7.8532013101        4.8577135147        0.2444025625
  N         6.4822595197        6.5773753486       11.9769581358
  N         5.4433281929        5.0393338469        4.2990692841
  O         6.6672188798        7.5149985490        8.6401597014
  O         9.0584845493        5.6469099695        6.4101044309
  O         3.4760099206        4.0580387833        8.4868991976
  O         4.6369373094        8.0263632256       10.2514244028
  O         5.5850512246        3.9046885851        7.6733459793
  O         3.1588671593        6.2854205484       10.1910942378
  O         8.8437233202        7.7676955418        8.1224059523
  O         6.7996764868        5.9361220570        6.4155233772
  O         4.5442849879        6.4380429677        7.7616101301
  O         7.8611599621        5.1545273684        8.7779775974
  F         2.5866577929        1.7659811750        6.8486446908
  F         5.7956651327        9.6788036229        6.9215489094
  O         5.6616384648        5.1129812180        9.9771312090
  H         4.6967501445        5.1570595932       10.1743672347
  H         6.1312760297        5.5999429938       10.7558426468
  C         3.7922760586        1.8593402941        1.8015185639
  H         2.9420030026        1.5674316766        1.1722203483
  H         4.4971582562        2.4410397679        1.1973257774
  H         4.2925428214        0.9590483454        2.1765318868
  H         3.4240634016        2.4591937340        2.6412718021
      68
 i =      184, E =      -435.8667531621
 Al         6.2015429454        5.6970557870        8.1796387958
 Al         9.4770650381        5.9345232110        8.2708549692
  H         4.6262018670        7.4077620296        7.8959110834
  H         7.9900690275        4.1947697544        8.8755691698
  H         8.7077299927        7.4705789312       12.6464860773
  H         8.9002087520        7.1296363375       15.1374754610
  H         6.3834721559        6.0345830058       14.6353362547
  H         5.9147309274        4.4190845527        1.7699364533
  H         3.3890697397        5.6475208485        1.7237824383
  H         3.3077125497        5.9418518619        4.2127145679
  H         8.9459007881        8.8192227553       10.6071889917
  H        10.4686290928       10.1107569854       12.0646668064
  H         6.3043593061        3.0768449713        9.9604939233
  H         7.6502510549        1.9363970365       11.6659851405
  H         6.5775272537        7.4384865355       11.4221212045
  H         7.3581845458        6.3708956942       12.4703136446
  H         5.3904389446        5.1607117552        5.3006499083
  H         4.7148514968        4.4994690312        3.8322566352
  C         7.6954099989        8.2206611745        8.4242396210
  C         7.9210253518        5.6768428729        5.8298804135
  C         4.5007375821        3.4040229753        8.1174736884
  C         3.9696480938        7.1436641757       10.7835661041
  C         4.0967740348        6.9352184471       12.2586405451
  C         9.6349586343        7.1090322009       13.0985484409
  C         9.7291559627        6.9255103955       14.4654513758
  C         4.3122163845        6.4783215162       14.9983805732
  C         5.4436596489        6.3463804393       14.1834799842
  C         5.3546334066        6.6391277737       12.8265872434
  C         6.7842939746        4.7624723925        2.3270081902
  C         7.9751243386        4.9655873173        1.6403483256
  C         2.5008338213        5.4112175418        2.2996536708
  C         9.0731198729        5.5934082004        3.6606478836
  C         7.8781885035        5.4280806363        4.3868295661
  C         6.6785756408        5.0697883566        3.7011317159
  C         7.5491389539        9.7164398574        8.5135303150
  C         8.3827405492       10.4863044381        9.3833291954
  C         6.6448918667       10.3749972500        7.7074019683
  C         9.0896122395        9.8815094782       10.4434271526
  C         9.9286449407       10.6087272029       11.2608650053
  C         4.4514793284        1.9170122884        8.3008838121
  C         3.5072252857        1.1615818245        7.6358899915
  C         5.3431719168        1.2785056706        9.2236429540
  C         6.2407034605        1.9975088846       10.0549025448
  C         6.9692596050        1.3585060088       11.0392187705
  N         4.4988401492        6.2978611638       16.3768596105
  N         7.8707597301        4.8482822616        0.2454723285
  N         6.4868872400        6.5774450866       11.9741222880
  N         5.4489572543        5.0360184782        4.2918925137
  O         6.6671123324        7.5144378982        8.6405811036
  O         9.0586996768        5.6465286223        6.4112630737
  O         3.4753716406        4.0598730276        8.4877298920
  O         4.6368442403        8.0330534987       10.2523965082
  O         5.5843355620        3.9040388130        7.6738172280
  O         3.1613075186        6.2913798441       10.1904551332
  O         8.8437177812        7.7678757701        8.1242870429
  O         6.7994626819        5.9351935083        6.4131228888
  O         4.5429148505        6.4391763934        7.7626217858
  O         7.8611019669        5.1553497522        8.7782452777
  F         2.5871109199        1.7661393484        6.8484720881
  F         5.7954804433        9.6788808198        6.9215505053
  O         5.6604581148        5.1141324845        9.9769592306
  H         4.6950182614        5.1604850035       10.1694745391
  H         6.1307541120        5.6003174888       10.7568199782
  C         3.7886721579        1.8870576994        1.8060354539
  H         2.9382159012        1.5962326753        1.1777394738
  H         4.4938551464        2.4699823731        1.2040210292
  H         4.2889729244        0.9879521747        2.1827395356
  H         3.4199850982        2.4872659364        2.6460839561
      68
 i =      185, E =      -435.8668207427
 Al         6.2014551785        5.6983375100        8.1789005779
 Al         9.4770167093        5.9355094126        8.2704434759
  H         4.6265302440        7.4061020650        7.9005467833
  H         7.9913750852        4.1944218769        8.8766084740
  H         8.7083239010        7.4769562975       12.6497110137
  H         8.9027377820        7.1338412634       15.1394920176
  H         6.3831948561        6.0331869638       14.6344783020
  H         5.9127024770        4.4250643133        1.7708103054
  H         3.3892691886        5.6443296533        1.7249127593
  H         3.3071704926        5.9406572350        4.2145143996
  H         8.9522111382        8.8190652028       10.6005929698
  H        10.4734662977       10.1100431468       12.0580434283
  H         6.2964438470        3.0793366741        9.9666506481
  H         7.6439530372        1.9386877862       11.6696451868
  H         6.5796592721        7.4360856632       11.4202965999
  H         7.3578752963        6.3712586996       12.4738088137
  H         5.3896730801        5.1633554876        5.3012045976
  H         4.7122362329        4.5067884215        3.8320358856
  C         7.6953166261        8.2208457475        8.4237916619
  C         7.9203175590        5.6776070699        5.8298998684
  C         4.5012895261        3.4044486039        8.1178560992
  C         3.9705256125        7.1470357679       10.7825418592
  C         4.0965092767        6.9374006453       12.2584369205
  C         9.6358160577        7.1140007673       13.0994935474
  C         9.7302018401        6.9281590915       14.4667851007
  C         4.3125791560        6.4791114205       14.9988410776
  C         5.4432843813        6.3471443669       14.1835354463
  C         5.3540110270        6.6393991112       12.8269261333
  C         6.7826942523        4.7664148614        2.3279284740
  C         7.9745378791        4.9650384846        1.6413474361
  C         2.5004069992        5.4102885430        2.3003860173
  C         9.0728761622        5.5933199710        3.6611789052
  C         7.8777288678        5.4292816783        4.3869843433
  C         6.6771996019        5.0737940400        3.7018298898
  C         7.5493924265        9.7164365108        8.5136046310
  C         8.3831715452       10.4871102031        9.3825795697
  C         6.6446369915       10.3752719580        7.7079252497
  C         9.0933365889        9.8823600266       10.4396150167
  C         9.9309723175       10.6090417698       11.2576515318
  C         4.4514180171        1.9173574877        8.3015770544
  C         3.5073541799        1.1618062478        7.6360430252
  C         5.3423156324        1.2789938678        9.2244195400
  C         6.2377547996        1.9994303564       10.0568185324
  C         6.9659602502        1.3601716241       11.0406704858
  N         4.4964367586        6.2970221903       16.3772579954
  N         7.8686012250        4.8468021901        0.2462490700
  N         6.4873349589        6.5764055583       11.9752570729
  N         5.4478331425        5.0405594143        4.2922133364
  O         6.6670693512        7.5148417861        8.6407296638
  O         9.0581119132        5.6469467488        6.4119365169
  O         3.4760841875        4.0598173245        8.4885767041
  O         4.6393833888        8.0365251451       10.2536875165
  O         5.5845878725        3.9045234153        7.6732371269
  O         3.1622868667        6.2963793360       10.1866703731
  O         8.8434284389        7.7675339245        8.1225076754
  O         6.7991178502        5.9363174891        6.4127111873
  O         4.5438304077        6.4383400501        7.7635951878
  O         7.8614867768        5.1547213047        8.7779422154
  F         2.5871905121        1.7661655482        6.8489198489
  F         5.7958616489        9.6791522000        6.9216212714
  O         5.6613140713        5.1149957313        9.9784713010
  H         4.6951773252        5.1606711644       10.1662389042
  H         6.1300745371        5.5995435968       10.7610728250
  C         3.7878493519        1.8889010706        1.8055071257
  H         2.9356482647        1.5989906582        1.1797423696
  H         4.4929890609        2.4732597342        1.2050941927
  H         4.2883107512        0.9904894987        2.1841023533
  H         3.4195475932        2.4904711721        2.6452905936
      68
 i =      186, E =      -435.8668778864
 Al         6.2015274365        5.6984271540        8.1770090121
 Al         9.4786118970        5.9369900262        8.2721524066
  H         4.6302482528        7.4035520904        7.9059641230
  H         7.9935763732        4.1941357554        8.8775326918
  H         8.7101628122        7.4839714801       12.6527859468
  H         8.9076830529        7.1382268531       15.1410416838
  H         6.3847358320        6.0314469143       14.6314023937
  H         5.9116716616        4.4313922770        1.7716368799
  H         3.3927735054        5.6404302445        1.7283481162
  H         3.3059627409        5.9400372708        4.2182446186
  H         8.9585766497        8.8179992485       10.5948962962
  H        10.4760426246       10.1093726047       12.0553527548
  H         6.2863939534        3.0816735303        9.9733878093
  H         7.6340896508        1.9415924152       11.6773923810
  H         6.5815159590        7.4332900091       11.4167861163
  H         7.3592432621        6.3735883443       12.4744874262
  H         5.3898113964        5.1661600743        5.3020458080
  H         4.7099384913        4.5135042247        3.8312726821
  C         7.6958628962        8.2215412137        8.4226680433
  C         7.9209466095        5.6781122311        5.8299431439
  C         4.5016661867        3.4035270039        8.1175362117
  C         3.9717394128        7.1497559603       10.7821978113
  C         4.0971541947        6.9402527670       12.2583934720
  C         9.6378160761        7.1190808758       13.0999543277
  C         9.7334925727        6.9317249251       14.4672768958
  C         4.3137508611        6.4785465305       14.9993404513
  C         5.4441287538        6.3476454785       14.1830472234
  C         5.3551187982        6.6416318708       12.8263097959
  C         6.7827589182        4.7683321352        2.3290751589
  C         7.9751583399        4.9642588096        1.6423272297
  C         2.5023414448        5.4069750011        2.3014717386
  C         9.0735333133        5.5913418738        3.6622490023
  C         7.8780617324        5.4295456732        4.3877876622
  C         6.6774123504        5.0749720393        3.7028752206
  C         7.5489131611        9.7166454700        8.5135350117
  C         8.3836173566       10.4874653930        9.3815785477
  C         6.6440073905       10.3755598935        7.7079022438
  C         9.0957503411        9.8825497470       10.4375150577
  C         9.9305740504       10.6094544048       11.2574888590
  C         4.4515999672        1.9168341112        8.3013870602
  C         3.5067251504        1.1620619398        7.6359339137
  C         5.3404940783        1.2791166914        9.2254443920
  C         6.2319577303        2.0009219894       10.0612083619
  C         6.9610519769        1.3624715912       11.0443280336
  N         4.4971605239        6.2949690314       16.3780886712
  N         7.8690096049        4.8455972242        0.2463699966
  N         6.4883743370        6.5760949917       11.9753091565
  N         5.4470601300        5.0457170631        4.2926160679
  O         6.6680926591        7.5145336880        8.6399581149
  O         9.0583393809        5.6465138432        6.4139383076
  O         3.4769123143        4.0593546563        8.4888237399
  O         4.6413564921        8.0403192759       10.2550454803
  O         5.5849656103        3.9035719940        7.6740725526
  O         3.1633079581        6.2984899729       10.1869452828
  O         8.8440223928        7.7682260494        8.1197257091
  O         6.7992217761        5.9375172028        6.4107615079
  O         4.5461326182        6.4370545011        7.7645913018
  O         7.8616229477        5.1541530308        8.7774002531
  F         2.5867226702        1.7663073293        6.8484854051
  F         5.7956590598        9.6793662646        6.9215919377
  O         5.6617290923        5.1145213045        9.9796098053
  H         4.6951365601        5.1605215876       10.1628940473
  H         6.1287282904        5.5981486417       10.7649877761
  C         3.7858825233        1.8948432156        1.8052578181
  H         2.9318608574        1.6059408929        1.1828362988
  H         4.4917038001        2.4811169050        1.2066244075
  H         4.2863829695        0.9979107266        2.1876073170
  H         3.4199439285        2.4982569675        2.6450449350
      68
 i =      187, E =      -435.8669117320
 Al         6.2012215882        5.6980424039        8.1767444682
 Al         9.4790700566        5.9382350447        8.2728733817
  H         4.6342248912        7.4034155666        7.9100841840
  H         7.9953018689        4.1948458780        8.8767963040
  H         8.7125059312        7.4886989007       12.6546799440
  H         8.9101208327        7.1394469257       15.1411208922
  H         6.3874382970        6.0324811158       14.6289644389
  H         5.9111571768        4.4344292342        1.7734785233
  H         3.3961708875        5.6363091657        1.7327420753
  H         3.3049866752        5.9401810268        4.2220040573
  H         8.9605814670        8.8170829943       10.5920263486
  H        10.4751304682       10.1089018344       12.0561588983
  H         6.2833772694        3.0817590431        9.9749773394
  H         7.6283730775        1.9426447518       11.6823472050
  H         6.5811122340        7.4319627323       11.4120528754
  H         7.3613011800        6.3780467493       12.4742329615
  H         5.3909474491        5.1681520391        5.3038401515
  H         4.7083777641        4.5175790756        3.8334940292
  C         7.6956153937        8.2219708148        8.4227293935
  C         7.9212263313        5.6780627603        5.8314017578
  C         4.5022953276        3.4032392307        8.1173901258
  C         3.9723760816        7.1519799405       10.7820414261
  C         4.0980738580        6.9431019741       12.2582760393
  C         9.6395611112        7.1214676910       13.1006197697
  C         9.7353845436        6.9324595543       14.4674940341
  C         4.3158027092        6.4785116752       14.9983478707
  C         5.4463309410        6.3483079704       14.1823185136
  C         5.3563698047        6.6432470775       12.8253932491
  C         6.7835873504        4.7681149865        2.3306601316
  C         7.9769959399        4.9612561132        1.6442435774
  C         2.5041928047        5.4041778147        2.3043413582
  C         9.0737906335        5.5891014755        3.6651783670
  C         7.8781850510        5.4278285661        4.3900981691
  C         6.6773325030        5.0757055759        3.7045967919
  C         7.5486694250        9.7166357192        8.5132790421
  C         8.3829682921       10.4876417375        9.3814394150
  C         6.6438752223       10.3754577704        7.7079906101
  C         9.0956981385        9.8820471278       10.4368688199
  C         9.9293456040       10.6094219177       11.2577113884
  C         4.4511182007        1.9169431119        8.3009052050
  C         3.5063794885        1.1618704991        7.6361200605
  C         5.3395641956        1.2793460179        9.2247664964
  C         6.2290102492        2.0009386578       10.0630069091
  C         6.9570042999        1.3631862748       11.0477654736
  N         4.4983942461        6.2930920576       16.3779754383
  N         7.8705384584        4.8450285036        0.2470768371
  N         6.4895872553        6.5769616493       11.9745369813
  N         5.4474380848        5.0467516115        4.2947223813
  O         6.6680659228        7.5153925437        8.6402165776
  O         9.0593706219        5.6475944255        6.4139068490
  O         3.4778641915        4.0590084576        8.4893857739
  O         4.6428908649        8.0430108803       10.2562719626
  O         5.5851887704        3.9039742270        7.6730264296
  O         3.1636677211        6.3001055528       10.1868115244
  O         8.8439263332        7.7687124219        8.1197989469
  O         6.7996422094        5.9380567574        6.4123624594
  O         4.5477726534        6.4375108830        7.7655277946
  O         7.8618837045        5.1547471793        8.7785272117
  F         2.5864431228        1.7660875621        6.8485285123
  F         5.7958363948        9.6790067466        6.9218721685
  O         5.6637154650        5.1137686300        9.9805162265
  H         4.6972765075        5.1608881731       10.1626986357
  H         6.1297171417        5.5973054835       10.7665912215
  C         3.7846328345        1.9002724547        1.8058213098
  H         2.9296888389        1.6119246518        1.1850029579
  H         4.4900855919        2.4878943647        1.2078384352
  H         4.2853838646        1.0042617275        2.1899572709
  H         3.4199913002        2.5047070745        2.6454378427
      68
 i =      188, E =      -435.8669354428
 Al         6.2009891569        5.6971797293        8.1761837941
 Al         9.4796176415        5.9393233161        8.2747679094
  H         4.6378129079        7.4044443791        7.9131508471
  H         7.9956472739        4.1958845985        8.8763037594
  H         8.7155391297        7.4923827841       12.6566011972
  H         8.9135060022        7.1390459593       15.1418869740
  H         6.3909933661        6.0340024432       14.6263982170
  H         5.9139437613        4.4338719944        1.7742603628
  H         3.4009232389        5.6321937329        1.7375054817
  H         3.3056966427        5.9404023242        4.2257354572
  H         8.9590729752        8.8160335238       10.5919948957
  H        10.4697237631       10.1086646647       12.0616913258
  H         6.2812011631        3.0812948575        9.9761541839
  H         7.6204370592        1.9428312299       11.6893978779
  H         6.5809003769        7.4323156137       11.4076140527
  H         7.3640076263        6.3824835297       12.4720756789
  H         5.3927724695        5.1680180739        5.3045942562
  H         4.7087390719        4.5185087061        3.8350716411
  C         7.6954233366        8.2221513790        8.4224298480
  C         7.9221337842        5.6774822195        5.8321492975
  C         4.5020171294        3.4029428787        8.1174758309
  C         3.9737677368        7.1544104629       10.7831553836
  C         4.1003164412        6.9451943205       12.2590534787
  C         9.6422690228        7.1229579140       13.1017699175
  C         9.7389287393        6.9325144046       14.4681938330
  C         4.3189029831        6.4777354091       14.9991851567
  C         5.4489806593        6.3489126677       14.1817641832
  C         5.3590679381        6.6453018274       12.8249837094
  C         6.7867619954        4.7665211427        2.3316305959
  C         7.9807104233        4.9589487273        1.6455293764
  C         2.5078857169        5.3998514082        2.3075920310
  C         9.0757933782        5.5872382135        3.6681950348
  C         7.8795833449        5.4259962182        4.3917050150
  C         6.6794821397        5.0729404197        3.7057253229
  C         7.5480318325        9.7163761504        8.5127903477
  C         8.3814135723       10.4868998861        9.3821012588
  C         6.6435730528       10.3754353977        7.7076733537
  C         9.0933187575        9.8812552628       10.4383895058
  C         9.9240862157       10.6090817511       11.2625171040
  C         4.4505999368        1.9167220833        8.3009914914
  C         3.5061115900        1.1618360056        7.6363007323
  C         5.3378073309        1.2787822186        9.2259868625
  C         6.2254715297        2.0008290164       10.0656751156
  C         6.9510044820        1.3630201737       11.0526503739
  N         4.5027079521        6.2915610912       16.3794017093
  N         7.8742868631        4.8436984626        0.2477822719
  N         6.4914699238        6.5790769807       11.9729543948
  N         5.4491766639        5.0454844568        4.2957225346
  O         6.6680571746        7.5154880923        8.6402501134
  O         9.0598674626        5.6479375259        6.4146695158
  O         3.4779122128        4.0590018100        8.4894039881
  O         4.6432268340        8.0465047808       10.2570566812
  O         5.5848744298        3.9039275459        7.6727266219
  O         3.1647265915        6.3010028885       10.1890859187
  O         8.8438856090        7.7689001682        8.1203898920
  O         6.8004828105        5.9374796114        6.4132444986
  O         4.5485868683        6.4388363280        7.7662366743
  O         7.8616274500        5.1557910643        8.7792176627
  F         2.5863828188        1.7662380469        6.8484692955
  F         5.7958062635        9.6791865490        6.9214613935
  O         5.6647065488        5.1129588947        9.9808248554
  H         4.6982290247        5.1620248751       10.1634858361
  H         6.1308453216        5.5974852477       10.7665932510
  C         3.7832332694        1.9092960586        1.8075617038
  H         2.9278407568        1.6208415251        1.1873631943
  H         4.4879324998        2.4979052324        1.2091057300
  H         4.2845819461        1.0137986524        2.1929368588
  H         3.4192693660        2.5145501368        2.6468467832
      68
 i =      189, E =      -435.8669527123
 Al         6.2008937698        5.6961520454        8.1756507756
 Al         9.4795890335        5.9406635978        8.2766911833
  H         4.6401629362        7.4061030762        7.9157087493
  H         7.9949689062        4.1968310471        8.8763593319
  H         8.7187700775        7.4957440397       12.6579514894
  H         8.9152044577        7.1390074953       15.1428628949
  H         6.3940625566        6.0348148617       14.6260056402
  H         5.9167437707        4.4325669214        1.7745242769
  H         3.4051117996        5.6287743109        1.7411107990
  H         3.3065523311        5.9410516986        4.2280666624
  H         8.9579185001        8.8143560364       10.5915347420
  H        10.4640500612       10.1086720531       12.0663170983
  H         6.2797634049        3.0800192895        9.9767423423
  H         7.6130884910        1.9429569394       11.6959030550
  H         6.5803491322        7.4330717495       11.4049991676
  H         7.3666505269        6.3851788666       12.4700516806
  H         5.3946962407        5.1690398457        5.3053240441
  H         4.7096469117        4.5185670406        3.8367918439
  C         7.6951735157        8.2221600865        8.4220091746
  C         7.9231836658        5.6768649691        5.8331576487
  C         4.5009156929        3.4030678749        8.1179878329
  C         3.9755255275        7.1571716992       10.7844999995
  C         4.1030849623        6.9476743585       12.2598233679
  C         9.6449407731        7.1242777530       13.1031961568
  C         9.7412024388        6.9325057307       14.4692859610
  C         4.3216659629        6.4773011422       14.9996845328
  C         5.4518236954        6.3491608746       14.1819805950
  C         5.3614140042        6.6469897236       12.8254106012
  C         6.7892605386        4.7645587020        2.3328204479
  C         7.9837290833        4.9573038326        1.6476675162
  C         2.5110599423        5.3975537443        2.3100927044
  C         9.0778926691        5.5854124049        3.6703950805
  C         7.8812968648        5.4247263498        4.3933128694
  C         6.6813979240        5.0718950946        3.7069034636
  C         7.5480361195        9.7161522111        8.5120180659
  C         8.3801624436       10.4862340285        9.3827977408
  C         6.6431817541       10.3750458064        7.7073529343
  C         9.0906413933        9.8798934810       10.4398430498
  C         9.9190381805       10.6087076797       11.2661892748
  C         4.4495139509        1.9165179405        8.3011254335
  C         3.5057154237        1.1615652369        7.6360400745
  C         5.3360795697        1.2783503483        9.2271706336
  C         6.2220101633        1.9999957901       10.0685849596
  C         6.9457310813        1.3625714913       11.0571341393
  N         4.5057888401        6.2906470448       16.3801232323
  N         7.8777277898        4.8438766956        0.2498285656
  N         6.4930311916        6.5807660791       11.9724735528
  N         5.4512648732        5.0444903929        4.2967199246
  O         6.6678731394        7.5152098105        8.6400700928
  O         9.0605597833        5.6475599169        6.4152561516
  O         3.4772058950        4.0597440758        8.4896600490
  O         4.6434400278        8.0502628246       10.2576021573
  O         5.5843616358        3.9034631779        7.6737256919
  O         3.1658483209        6.3025963329       10.1916106850
  O         8.8439119862        7.7692579992        8.1210726085
  O         6.8010261430        5.9370477781        6.4138084903
  O         4.5485627864        6.4408311834        7.7674413357
  O         7.8610379073        5.1568349793        8.7796694775
  F         2.5862588004        1.7663826996        6.8481156140
  F         5.7953565392        9.6788727499        6.9213386310
  O         5.6649673383        5.1125785546        9.9812108376
  H         4.6983563127        5.1630498829       10.1644152087
  H         6.1314702888        5.5982610572       10.7667527843
  C         3.7821079142        1.9176080681        1.8096729000
  H         2.9271412291        1.6281329962        1.1893196933
  H         4.4855410990        2.5068135929        1.2096794214
  H         4.2832891929        1.0224782221        2.1956238782
  H         3.4182153424        2.5236319320        2.6482770714
      68
 i =      190, E =      -435.8669660459
 Al         6.2012455247        5.6962172303        8.1753352895
 Al         9.4792801309        5.9415557882        8.2781316128
  H         4.6404782919        7.4078489179        7.9184219800
  H         7.9938976820        4.1973856593        8.8766750772
  H         8.7214860699        7.4981119517       12.6590939431
  H         8.9168232329        7.1385278133       15.1440709229
  H         6.3965713695        6.0350413685       14.6266660151
  H         5.9200951382        4.4309434379        1.7744973872
  H         3.4079853573        5.6260241439        1.7433584739
  H         3.3081745790        5.9404728414        4.2295245885
  H         8.9564479040        8.8132579676       10.5915882636
  H        10.4581364753       10.1084699394       12.0707074271
  H         6.2785317295        3.0788812400        9.9778309900
  H         7.6061536979        1.9425370203       11.7014839353
  H         6.5800437271        7.4331107944       11.4030826871
  H         7.3691756280        6.3874817553       12.4679959634
  H         5.3965567792        5.1702029484        5.3058745404
  H         4.7110556971        4.5182878986        3.8376711660
  C         7.6951287571        8.2219630317        8.4220525379
  C         7.9240800028        5.6764542664        5.8339627904
  C         4.5002417889        3.4037936977        8.1184565492
  C         3.9774004747        7.1602494592       10.7857817932
  C         4.1054558183        6.9492197999       12.2608627439
  C         9.6474508276        7.1260673252       13.1045958392
  C         9.7433578937        6.9322660438       14.4706126423
  C         4.3241235308        6.4770430388       15.0010403758
  C         5.4542275965        6.3496805898       14.1827189073
  C         5.3634422396        6.6481086504       12.8264064538
  C         6.7920376786        4.7636324212        2.3333026793
  C         7.9865978222        4.9568477624        1.6485151463
  C         2.5136754994        5.3956395231        2.3120520887
  C         9.0796356367        5.5847369509        3.6719575911
  C         7.8826854593        5.4239088549        4.3942700516
  C         6.6834452621        5.0699955935        3.7073960278
  C         7.5477640328        9.7158656741        8.5118678792
  C         8.3790575349       10.4856661695        9.3833614624
  C         6.6434485650       10.3749817357        7.7068252249
  C         9.0882384759        9.8791833817       10.4410082443
  C         9.9141340574       10.6081896196       11.2699110330
  C         4.4485280533        1.9167437117        8.3018705847
  C         3.5056048662        1.1616003040        7.6359903390
  C         5.3345810816        1.2779011057        9.2284843927
  C         6.2195907552        1.9993428461       10.0704811996
  C         6.9405389024        1.3618449117       11.0611422044
  N         4.5087861786        6.2903896055       16.3813891725
  N         7.8804407255        4.8440391391        0.2509841292
  N         6.4942942050        6.5820362175       11.9725378736
  N         5.4535049604        5.0434285878        4.2974706311
  O         6.6676369944        7.5154390587        8.6402776941
  O         9.0610209842        5.6475638272        6.4159672383
  O         3.4765990035        4.0606279345        8.4898803051
  O         4.6436774562        8.0547207832       10.2582082967
  O         5.5839560515        3.9039554919        7.6737811942
  O         3.1677532625        6.3045249178       10.1927825597
  O         8.8436664309        7.7688635039        8.1212564543
  O         6.8014076246        5.9367120150        6.4142948673
  O         4.5479418873        6.4428103550        7.7689695000
  O         7.8606777439        5.1575084053        8.7800707419
  F         2.5862241184        1.7662722671        6.8480947197
  F         5.7953941083        9.6788054600        6.9212605155
  O         5.6649026237        5.1128243770        9.9815368655
  H         4.6981872045        5.1644394625       10.1652826149
  H         6.1316464958        5.5995081674       10.7666064047
  C         3.7811461055        1.9252647261        1.8116856247
  H         2.9263549814        1.6355995180        1.1911095693
  H         4.4835196633        2.5150353644        1.2108454730
  H         4.2826062992        1.0301873036        2.1974125707
  H         3.4164126939        2.5315083104        2.6497283525
      68
 i =      191, E =      -435.8669790238
 Al         6.2019778310        5.6962108213        8.1749508433
 Al         9.4790179727        5.9427359992        8.2793615523
  H         4.6400601641        7.4094065808        7.9223031249
  H         7.9931487750        4.1976374599        8.8777480402
  H         8.7240200905        7.5009037011       12.6600661329
  H         8.9183075793        7.1389334717       15.1450448580
  H         6.3981165586        6.0344752141       14.6284094908
  H         5.9225292776        4.4299166982        1.7741044690
  H         3.4101958005        5.6234046105        1.7443409287
  H         3.3101760401        5.9387751165        4.2303044673
  H         8.9560212344        8.8125296290       10.5907975491
  H        10.4529901275       10.1080413799       12.0736645316
  H         6.2761198206        3.0786561571        9.9804480208
  H         7.5994631615        1.9423502239       11.7064648685
  H         6.5797071780        7.4332223290       11.4014161060
  H         7.3718532346        6.3897425903       12.4663022952
  H         5.3985521706        5.1735138971        5.3058237760
  H         4.7121909210        4.5190197869        3.8383958460
  C         7.6949897824        8.2218740291        8.4219005677
  C         7.9247542183        5.6763448449        5.8342088328
  C         4.4994410263        3.4047457589        8.1193206496
  C         3.9790139923        7.1637500358       10.7864733075
  C         4.1081605420        6.9515594066       12.2617417631
  C         9.6498894914        7.1282618012       13.1056697700
  C         9.7453651696        6.9335333881       14.4715236653
  C         4.3261699924        6.4781806253       15.0021315260
  C         5.4560963983        6.3500805986       14.1837808662
  C         5.3657312469        6.6492283237       12.8275988638
  C         6.7937666716        4.7628498626        2.3336909266
  C         7.9884580121        4.9564368950        1.6493827358
  C         2.5155308744        5.3947927260        2.3128904010
  C         9.0817171707        5.5833800036        3.6726010843
  C         7.8842092095        5.4233122304        4.3943965475
  C         6.6848659716        5.0695900477        3.7076718243
  C         7.5480436289        9.7159102096        8.5112787845
  C         8.3782540736       10.4854857285        9.3837790058
  C         6.6435386557       10.3751842120        7.7066315697
  C         9.0863063857        9.8790118001       10.4418546329
  C         9.9102197729       10.6078520190       11.2725177949
  C         4.4480318999        1.9172279686        8.3027756929
  C         3.5056962384        1.1619318393        7.6360153065
  C         5.3333237166        1.2778556866        9.2300051679
  C         6.2167403712        1.9992878270       10.0730782060
  C         6.9360233004        1.3615637209       11.0643919111
  N         4.5105552393        6.2900180632       16.3821643609
  N         7.8822414567        4.8449115713        0.2522378325
  N         6.4957308946        6.5831327658       11.9728707099
  N         5.4555009698        5.0431760912        4.2977485502
  O         6.6677320169        7.5152636443        8.6408060523
  O         9.0608669521        5.6476663283        6.4172212033
  O         3.4758319683        4.0622107825        8.4900428832
  O         4.6435832481        8.0596465823       10.2584618769
  O         5.5836287908        3.9042022410        7.6743902610
  O         3.1691790310        6.3066544481       10.1940629158
  O         8.8434995190        7.7688283556        8.1212198479
  O         6.8015215876        5.9368014144        6.4141522174
  O         4.5473548821        6.4447628939        7.7717490634
  O         7.8605044683        5.1577641708        8.7802292936
  F         2.5864232805        1.7664043920        6.8482661588
  F         5.7954206907        9.6790048720        6.9211689785
  O         5.6647747818        5.1131100007        9.9822710374
  H         4.6979617169        5.1656366800       10.1655203994
  H         6.1311703831        5.6002705297       10.7672550567
  C         3.7799821501        1.9331201645        1.8139025753
  H         2.9252863475        1.6430472977        1.1930984923
  H         4.4812638286        2.5231766685        1.2121669813
  H         4.2819991847        1.0380486889        2.1989629683
  H         3.4142199274        2.5395001605        2.6512088516
      68
 i =      192, E =      -435.8669937746
 Al         6.2026047060        5.6968109540        8.1753873225
 Al         9.4787802869        5.9432332993        8.2796410918
  H         4.6386276440        7.4109926050        7.9271818618
  H         7.9931467486        4.1974199637        8.8786419666
  H         8.7257186024        7.5022324236       12.6599568326
  H         8.9185556998        7.1392137290       15.1448812272
  H         6.3978599670        6.0329826820       14.6313472415
  H         5.9235204688        4.4298784024        1.7742606917
  H         3.4105650377        5.6233650330        1.7437988434
  H         3.3119351808        5.9369242902        4.2304820911
  H         8.9559650688        8.8119642828       10.5894881352
  H        10.4489118323       10.1072143486       12.0752563039
  H         6.2750632023        3.0785989890        9.9823731728
  H         7.5960611692        1.9418212081       11.7091784149
  H         6.5791070953        7.4326410382       11.4004650156
  H         7.3740012177        6.3910774383       12.4650397715
  H         5.4002662241        5.1778675288        5.3060607933
  H         4.7128016235        4.5204822530        3.8394414250
  C         7.6950961405        8.2221227403        8.4219944007
  C         7.9252728214        5.6765932451        5.8348730985
  C         4.4992916559        3.4055983058        8.1198483855
  C         3.9802755288        7.1662940408       10.7863804098
  C         4.1099589024        6.9534729985       12.2621538471
  C         9.6515672116        7.1303413750       13.1060588774
  C         9.7461086084        6.9346711171       14.4719311428
  C         4.3267466464        6.4789510969       15.0028187088
  C         5.4570696396        6.3504025933       14.1848691945
  C         5.3673721393        6.6498958211       12.8285150780
  C         6.7943604041        4.7634420146        2.3339540222
  C         7.9888059640        4.9576590913        1.6495529435
  C         2.5162194474        5.3952050869        2.3128454231
  C         9.0827562725        5.5835555367        3.6726079222
  C         7.8852614871        5.4238275406        4.3947460224
  C         6.6861776929        5.0695328471        3.7079915518
  C         7.5482923469        9.7164425626        8.5108720701
  C         8.3783133288       10.4858964196        9.3834243090
  C         6.6439787903       10.3755714316        7.7058846405
  C         9.0853992979        9.8789385616       10.4415694778
  C         9.9078834085       10.6073520662       11.2734019207
  C         4.4476806189        1.9178105677        8.3031848750
  C         3.5055754945        1.1624412764        7.6355543365
  C         5.3332218546        1.2783523744        9.2300158463
  C         6.2160857447        1.9991571797       10.0740135701
  C         6.9335967121        1.3612091795       11.0664574592
  N         4.5104555357        6.2905797954       16.3824143151
  N         7.8820070354        4.8466495859        0.2527384065
  N         6.4966939977        6.5835969611       11.9736802679
  N         5.4572162960        5.0437567074        4.2982943592
  O         6.6680367611        7.5154975885        8.6410215314
  O         9.0612582478        5.6478053019        6.4180901961
  O         3.4755952039        4.0635824022        8.4902453127
  O         4.6441418493        8.0635850712       10.2592426320
  O         5.5837154047        3.9045688572        7.6748917626
  O         3.1709084159        6.3081308041       10.1937892651
  O         8.8434120167        7.7687535266        8.1209074939
  O         6.8015119800        5.9370994398        6.4144680950
  O         4.5466718914        6.4465767665        7.7761417331
  O         7.8605694186        5.1575080851        8.7799264108
  F         2.5860368309        1.7665060283        6.8481158524
  F         5.7953612966        9.6789759921        6.9210669230
  O         5.6644265473        5.1132963272        9.9831137414
  H         4.6977922553        5.1660531060       10.1660827136
  H         6.1299793313        5.6005979454       10.7681052607
  C         3.7787832344        1.9380055675        1.8156131663
  H         2.9244568642        1.6477823765        1.1942427844
  H         4.4795796642        2.5277810541        1.2131403784
  H         4.2814940237        1.0431835284        2.1996641137
  H         3.4123644938        2.5441294828        2.6525730511
      68
 i =      193, E =      -435.8670366658
 Al         6.2041077016        5.6981943822        8.1765086438
 Al         9.4781332603        5.9441642581        8.2812089527
  H         4.6358241174        7.4145106285        7.9411284532
  H         7.9936168796        4.1974046730        8.8809795258
  H         8.7297421150        7.5054906907       12.6588130129
  H         8.9196419018        7.1411560332       15.1436950789
  H         6.3973481714        6.0297673635       14.6369762060
  H         5.9247181119        4.4308078668        1.7752107111
  H         3.4110990301        5.6236435719        1.7421231254
  H         3.3158014072        5.9327545377        4.2306146272
  H         8.9558139693        8.8114529462       10.5862495817
  H        10.4406263462       10.1055583972       12.0787288353
  H         6.2711299105        3.0797821883        9.9884422427
  H         7.5889465547        1.9410848855       11.7153841620
  H         6.5786014150        7.4304889253       11.3977613565
  H         7.3788778826        6.3943376834       12.4631075027
  H         5.4036108263        5.1885727498        5.3058002358
  H         4.7140645236        4.5243879096        3.8411818275
  C         7.6950341640        8.2228174958        8.4220244274
  C         7.9263396735        5.6773594629        5.8354725716
  C         4.4991332725        3.4074836196        8.1208880464
  C         3.9823203118        7.1709193314       10.7862674425
  C         4.1141115135        6.9572791101       12.2629551167
  C         9.6554523921        7.1349218769       13.1059834369
  C         9.7479595280        6.9384811034       14.4717765021
  C         4.3277384968        6.4819306504       15.0034052281
  C         5.4589707180        6.3510417679       14.1870449072
  C         5.3714158358        6.6509485790       12.8302090870
  C         6.7957406928        4.7642586899        2.3343376333
  C         7.9893356767        4.9596570360        1.6491585242
  C         2.5171379490        5.3967271796        2.3121841796
  C         9.0852986007        5.5827142910        3.6724736639
  C         7.8874192492        5.4247059243        4.3948447583
  C         6.6880185494        5.0713984350        3.7082383880
  C         7.5486949988        9.7175918425        8.5098836068
  C         8.3783048987       10.4869715212        9.3824116305
  C         6.6444880419       10.3767985921        7.7051847067
  C         9.0837203513        9.8793882822       10.4408889766
  C         9.9028526613       10.6067705883       11.2758680069
  C         4.4471394440        1.9195537295        8.3041868796
  C         3.5055489758        1.1637316898        7.6351731782
  C         5.3321999548        1.2796275849        9.2306980682
  C         6.2134775735        1.9997594427       10.0770630890
  C         6.9287864767        1.3612712737       11.0704098216
  N         4.5101217865        6.2916494267       16.3822877456
  N         7.8811235856        4.8509495265        0.2525200268
  N         6.4993483331        6.5841012578       11.9750688483
  N         5.4603533818        5.0456691051        4.2990146333
  O         6.6685051171        7.5162587672        8.6418404068
  O         9.0616816228        5.6488284186        6.4203249574
  O         3.4752714568        4.0668231723        8.4902894682
  O         4.6447702782        8.0707299544       10.2604219937
  O         5.5836414743        3.9055610730        7.6753583292
  O         3.1729737573        6.3105202243       10.1955950166
  O         8.8431648550        7.7691305297        8.1202536813
  O         6.8015079927        5.9379751074        6.4144137917
  O         4.5453533531        6.4505277384        7.7903342869
  O         7.8607571262        5.1572070316        8.7799328993
  F         2.5857711816        1.7667611488        6.8481009175
  F         5.7954635674        9.6791788690        6.9212696939
  O         5.6641454149        5.1134976019        9.9848291631
  H         4.6976390576        5.1665704203       10.1660647635
  H         6.1268696762        5.6000995485       10.7700719467
  C         3.7757645864        1.9495977075        1.8196607390
  H         2.9223124052        1.6587373627        1.1969529018
  H         4.4756174601        2.5384350973        1.2156913633
  H         4.2804868560        1.0552702008        2.2011031372
  H         3.4078104285        2.5551145076        2.6558749804
      68
 i =      194, E =      -435.8533775545
 Al         6.2285362566        5.7214613127        8.1978224782
 Al         9.4655490043        5.9589099117        8.3083284760
  H         4.5896738416        7.4747250381        8.1819395103
  H         8.0023487455        4.1969843428        8.9186549736
  H         8.7951834652        7.5594574682       12.6356721656
  H         8.9325171605        7.1733960593       15.1208103265
  H         6.3843235252        5.9763945941       14.7323251327
  H         5.9390229868        4.4497364578        1.7940736607
  H         3.4152872301        5.6335186822        1.7125734752
  H         3.3779611266        5.8661679564        4.2312240476
  H         8.9564167605        8.8029553959       10.5281103311
  H        10.3086357404       10.0770235624       12.1311959191
  H         6.2110055139        3.0992287377       10.0845084092
  H         7.4788139404        1.9274545957       11.8109837585
  H         6.5687390823        7.3927350053       11.3535227606
  H         7.4581915283        6.4476086203       12.4343496756
  H         5.4582679972        5.3698857591        5.3042280632
  H         4.7323099911        4.5940729729        3.8730353166
  C         7.6940079775        8.2350618871        8.4221060663
  C         7.9437744462        5.6915952537        5.8470644682
  C         4.4968431222        3.4385421263        8.1374265782
  C         4.0160259302        7.2457593220       10.7846423049
  C         4.1816144442        7.0194606426       12.2758091945
  C         9.7170873682        7.2092279992       13.1027609808
  C         9.7745806433        7.0015576089       14.4673012332
  C         4.3393697840        6.5311695508       15.0125650428
  C         5.4867142737        6.3609800193       14.2238172225
  C         5.4368210315        6.6676233364       12.8588104321
  C         6.8135856775        4.7825357317        2.3424443698
  C         7.9925124557        4.9979872872        1.6438374682
  C         2.5289542965        5.4246632718        2.3004443521
  C         9.1245209339        5.5725473165        3.6695678785
  C         7.9218289152        5.4424905386        4.3979826139
  C         6.7173559440        5.1038596392        3.7145407554
  C         7.5561313670        9.7374115154        8.4918344528
  C         8.3802469032       10.5052813606        9.3629846130
  C         6.6532083019       10.3974409291        7.6922974682
  C         9.0591386103        9.8865102158       10.4257293159
  C         9.8255328556       10.5961597969       11.3106609963
  C         4.4393413764        1.9484373121        8.3187301209
  C         3.5052049734        1.1853220236        7.6277509839
  C         5.3186244737        1.3012568416        9.2383474750
  C         6.1750394467        2.0095978539       10.1234323949
  C         6.8542991081        1.3609700495       11.1309970123
  N         4.4989442262        6.3110271052       16.3800509220
  N         7.8612172150        4.9254906672        0.2499753864
  N         6.5424281587        6.5909789265       12.0000243702
  N         5.5105974013        5.0811707474        4.3136907932
  O         6.6769300426        7.5285380018        8.6556402631
  O         9.0691421940        5.6657159203        6.4576815625
  O         3.4703582002        4.1203348267        8.4913694594
  O         4.6576291870        8.1857648966       10.2815740958
  O         5.5827980658        3.9216997822        7.6833985424
  O         3.2065847461        6.3500456224       10.2242664799
  O         8.8384677375        7.7753175040        8.1096259154
  O         6.8016313219        5.9526864122        6.4165803550
  O         4.5224761760        6.5177617347        8.0403342869
  O         7.8636102181        5.1518364939        8.7798652404
  F         2.5806132774        1.7714595952        6.8479984717
  F         5.7968796667        9.6822790069        6.9241181002
  O         5.6599821951        5.1157249546       10.0140869723
  H         4.6957364017        5.1721200541       10.1670119451
  H         6.0741845489        5.5898846242       10.8041048549
  C         3.7258824094        2.1334033461        1.8857950116
  H         2.8874409682        1.8312498350        1.2398219487
  H         4.4096134909        2.7057119984        1.2557555166
  H         4.2642631377        1.2477411202        2.2235349641
  H         3.3336310821        2.7288753028        2.7100162341
      68
 i =      195, E =      -435.8670689227
 Al         6.2049469239        5.6991691831        8.1779584612
 Al         9.4786594190        5.9437743136        8.2812517573
  H         4.6342131907        7.4155245085        7.9489600673
  H         7.9947557928        4.1971401843        8.8819491834
  H         8.7300154896        7.5056589561       12.6564519331
  H         8.9182807834        7.1425861188       15.1415682699
  H         6.3945678514        6.0277733059       14.6399381753
  H         5.9225086194        4.4329561786        1.7765180257
  H         3.4086609146        5.6269083994        1.7393514272
  H         3.3166198616        5.9313916689        4.2295308428
  H         8.9564209071        8.8119982934       10.5838924350
  H        10.4400632184       10.1045279775       12.0775444463
  H         6.2708417148        3.0811232905        9.9903101580
  H         7.5909314002        1.9404636149       11.7142563311
  H         6.5786196874        7.4290442890       11.3975259728
  H         7.3797325919        6.3948834140       12.4636981505
  H         5.4041461499        5.1948828237        5.3058793226
  H         4.7135402827        4.5273915841        3.8424254842
  C         7.6953841477        8.2234948478        8.4216205466
  C         7.9266105805        5.6783055805        5.8354167084
  C         4.4996145220        3.4081503047        8.1208667178
  C         3.9823838771        7.1711826191       10.7855597080
  C         4.1146222726        6.9579994416       12.2629232564
  C         9.6555152150        7.1361543480       13.1044911500
  C         9.7468716320        6.9410263835       14.4703463013
  C         4.3256874716        6.4838079545       15.0027552340
  C         5.4577518596        6.3510484371       14.1879944067
  C         5.3721251216        6.6509261665       12.8307017104
  C         6.7943176487        4.7660055545        2.3345784478
  C         7.9870478864        4.9619448247        1.6481991281
  C         2.5153002808        5.3996232559        2.3104355514
  C         9.0851308096        5.5833961582        3.6713610142
  C         7.8876166475        5.4260353457        4.3945872421
  C         6.6874085957        5.0741013514        3.7084170271
  C         7.5493466457        9.7184978609        8.5090238277
  C         8.3792525327       10.4880904936        9.3810127170
  C         6.6448382932       10.3776321798        7.7048347122
  C         9.0847154204        9.8800868425       10.4391270708
  C         9.9036357862       10.6066470630       11.2743628725
  C         4.4476024581        1.9205130244        8.3039925392
  C         3.5056354431        1.1644519069        7.6351510962
  C         5.3328833524        1.2807406289        9.2297819123
  C         6.2144252779        2.0004638669       10.0767775336
  C         6.9302486378        1.3615320997       11.0693187290
  N         4.5072362409        6.2928143297       16.3813764276
  N         7.8779278806        4.8540500700        0.2513957072
  N         6.4998835310        6.5837068903       11.9759341880
  N         5.4603423848        5.0483195643        4.2996966713
  O         6.6690806692        7.5169204583        8.6420217172
  O         9.0619375082        5.6495623223        6.4213877054
  O         3.4754614061        4.0675980741        8.4899878797
  O         4.6450926494        8.0715267841       10.2608865074
  O         5.5837583764        3.9062121843        7.6753197773
  O         3.1730657187        6.3113374540       10.1959898018
  O         8.8434929448        7.7694019124        8.1198831455
  O         6.8017232419        5.9386699617        6.4144909788
  O         4.5456649412        6.4511509264        7.7977912448
  O         7.8613807478        5.1567199478        8.7802470436
  F         2.5858007751        1.7668354316        6.8480082491
  F         5.7956761800        9.6795417940        6.9213293491
  O         5.6638790938        5.1132208622        9.9857758589
  H         4.6974592015        5.1655151195       10.1658407781
  H         6.1244822095        5.5986768049       10.7715477527
  C         3.7743552924        1.9503947681        1.8207953711
  H         2.9216654464        1.6590708447        1.1970497959
  H         4.4745283629        2.5378138478        1.2161120505
  H         4.2807639290        1.0563024819        2.2004299731
  H         3.4061255601        2.5552401233        2.6570076259
      68
 i =      196, E =      -435.8670846493
 Al         6.2048662049        5.6993274900        8.1779178850
 Al         9.4785571796        5.9442093421        8.2818682307
  H         4.6342392492        7.4163517642        7.9536630290
  H         7.9952267325        4.1976161298        8.8823785771
  H         8.7314052593        7.5068815501       12.6566186888
  H         8.9197777747        7.1433134999       15.1415348630
  H         6.3956738000        6.0280063849       14.6398312925
  H         5.9231921870        4.4330449688        1.7766999510
  H         3.4098179541        5.6263441777        1.7397744538
  H         3.3175873869        5.9300293743        4.2301384040
  H         8.9550983276        8.8120962770       10.5839489387
  H        10.4366776872       10.1044979579       12.0800616426
  H         6.2695913373        3.0814667505        9.9921318807
  H         7.5877371570        1.9405158518       11.7176419227
  H         6.5785099018        7.4286151666       11.3954350864
  H         7.3812930774        6.3966537727       12.4629595428
  H         5.4052598699        5.1972665235        5.3057671158
  H         4.7139315192        4.5281074994        3.8431369470
  C         7.6952305319        8.2237513605        8.4219261426
  C         7.9269900376        5.6782285959        5.8356502750
  C         4.4996349286        3.4084276965        8.1209456223
  C         3.9831644263        7.1725408878       10.7856075220
  C         4.1159194229        6.9594093730       12.2628950235
  C         9.6569153260        7.1374219617       13.1045703978
  C         9.7482349123        6.9416673957       14.4704566824
  C         4.3270651898        6.4847956436       15.0027335203
  C         5.4590838989        6.3518892060       14.1878087534
  C         5.3734075185        6.6516541260       12.8305127637
  C         6.7952324179        4.7657283519        2.3345846521
  C         7.9880031036        4.9618158885        1.6482411668
  C         2.5163566961        5.3989876003        2.3107557500
  C         9.0860833112        5.5823380058        3.6718076129
  C         7.8884384049        5.4256268326        4.3949697364
  C         6.6884626301        5.0737140302        3.7084437400
  C         7.5490347480        9.7186954131        8.5090819050
  C         8.3786889211       10.4883947716        9.3811850922
  C         6.6444292018       10.3778120590        7.7050847290
  C         9.0832563486        9.8802492374       10.4399613414
  C         9.9010864246       10.6067033803       11.2764071975
  C         4.4472500698        1.9208287674        8.3042728149
  C         3.5055347199        1.1646579917        7.6351519041
  C         5.3321512711        1.2810720865        9.2304415860
  C         6.2130108191        2.0007253049       10.0783936236
  C         6.9279713248        1.3616936756       11.0715072858
  N         4.5083474640        6.2928762723       16.3814453614
  N         7.8788162592        4.8547861909        0.2512036503
  N         6.5008072938        6.5843377515       11.9757201860
  N         5.4615623410        5.0480652566        4.2999262530
  O         6.6690625168        7.5170895372        8.6422775784
  O         9.0622294269        5.6497224337        6.4218040383
  O         3.4756124315        4.0681804697        8.4902053757
  O         4.6450075001        8.0738800979       10.2612928290
  O         5.5838506428        3.9063471547        7.6753110680
  O         3.1737362717        6.3114354863       10.1968715945
  O         8.8433889044        7.7697578820        8.1200638853
  O         6.8018872954        5.9387650910        6.4145071701
  O         4.5456056288        6.4522974356        7.8018242908
  O         7.8614222677        5.1570896876        8.7801440712
  F         2.5856058952        1.7670018576        6.8480620579
  F         5.7955254126        9.6794117148        6.9214957647
  O         5.6641764715        5.1131900075        9.9859938550
  H         4.6978684438        5.1660999867       10.1660704659
  H         6.1242117747        5.5987630714       10.7714037258
  C         3.7733910576        1.9557406523        1.8222815960
  H         2.9207640682        1.6642949486        1.1984082938
  H         4.4729632524        2.5433949759        1.2173111382
  H         4.2799418124        1.0618915986        2.2015879600
  H         3.4047507960        2.5605781096        2.6582692222
      68
 i =      197, E =      -435.8670842485
 Al         6.2047449583        5.6998046026        8.1785195222
 Al         9.4779035909        5.9446191364        8.2823560299
  H         4.6333994826        7.4198758215        7.9710178205
  H         7.9969659335        4.1982567049        8.8844440414
  H         8.7340671380        7.5084731413       12.6532481044
  H         8.9200604721        7.1472179212       15.1390961519
  H         6.3952347688        6.0269644428       14.6416201314
  H         5.9210586370        4.4367635653        1.7781559754
  H         3.4078845874        5.6308392363        1.7376466817
  H         3.3196149903        5.9275530225        4.2293885327
  H         8.9535765725        8.8128140944       10.5819573970
  H        10.4317354778       10.1041569089       12.0831390244
  H         6.2672950625        3.0834450556        9.9968694442
  H         7.5844597545        1.9404946559       11.7223132541
  H         6.5781378893        7.4245787661       11.3909531003
  H         7.3840864520        6.3979530878       12.4626340224
  H         5.4074071763        5.2091004398        5.3061619596
  H         4.7129795740        4.5329176937        3.8464563275
  C         7.6954351111        8.2248376619        8.4218505798
  C         7.9279452966        5.6787017893        5.8356210050
  C         4.4995396455        3.4094896320        8.1209686517
  C         3.9850058003        7.1732693675       10.7850632181
  C         4.1187306765        6.9610035089       12.2622248101
  C         9.6591561960        7.1396256297       13.1025286882
  C         9.7489089718        6.9461727686       14.4685387485
  C         4.3267447146        6.4884291746       15.0015215471
  C         5.4597630698        6.3527131255       14.1884260588
  C         5.3759278508        6.6526341357       12.8306724567
  C         6.7943642056        4.7682842912        2.3346817374
  C         7.9861991693        4.9658788973        1.6472654411
  C         2.5152198336        5.4020376607        2.3095868570
  C         9.0869558479        5.5819097668        3.6714670014
  C         7.8895984900        5.4263111543        4.3952323326
  C         6.6890089856        5.0757337278        3.7087199166
  C         7.5491346036        9.7197474456        8.5085544419
  C         8.3784969081       10.4897986133        9.3806462340
  C         6.6443592780       10.3787439718        7.7049043585
  C         9.0825401602        9.8810596709       10.4393481933
  C         9.8982985792       10.6069697149       11.2783217300
  C         4.4468779448        1.9221930009        8.3045495769
  C         3.5054069508        1.1655087216        7.6354808263
  C         5.3316980196        1.2826058077        9.2307830082
  C         6.2114952000        2.0022179060       10.0808168340
  C         6.9250831232        1.3622633850       11.0746667872
  N         4.5071683975        6.2954281976       16.3803885263
  N         7.8767541475        4.8619545539        0.2495564788
  N         6.5024881513        6.5834869713       11.9762291574
  N         5.4634311485        5.0492382416        4.3016845800
  O         6.6697772825        7.5174672332        8.6424183953
  O         9.0632687736        5.6502783126        6.4222600718
  O         3.4760027448        4.0706632076        8.4897020522
  O         4.6457132031        8.0764828930       10.2622173130
  O         5.5839303362        3.9065621065        7.6749242497
  O         3.1751161335        6.3108163148       10.1982482269
  O         8.8435066329        7.7706793302        8.1199750788
  O         6.8025353736        5.9388470668        6.4145773190
  O         4.5452849235        6.4561902130        7.8166649260
  O         7.8617844345        5.1573032900        8.7802125835
  F         2.5853417409        1.7672243987        6.8481934946
  F         5.7955860956        9.6794364892        6.9217928857
  O         5.6640888874        5.1121812554        9.9859253201
  H         4.6977635376        5.1644803070       10.1652676464
  H         6.1206308657        5.5967028921       10.7711204350
  C         3.7702498016        1.9649082919        1.8258820710
  H         2.9184189517        1.6729336128        1.2009619251
  H         4.4688677573        2.5521479045        1.2199002018
  H         4.2783291765        1.0714700669        2.2030691289
  H         3.4006027181        2.5690001471        2.6614295438
      68
 i =      198, E =      -435.8671273566
 Al         6.2033692703        5.6992587986        8.1778707519
 Al         9.4777597562        5.9442458139        8.2814050408
  H         4.6342432655        7.4188229572        7.9628025255
  H         7.9961943969        4.1983771157        8.8832248454
  H         8.7317693438        7.5063579177       12.6536489321
  H         8.9196694287        7.1463523971       15.1395381536
  H         6.3955411314        6.0290796130       14.6386963507
  H         5.9206406302        4.4358697500        1.7773482483
  H         3.4076543858        5.6306893651        1.7383632817
  H         3.3175908976        5.9298720682        4.2291101878
  H         8.9532653618        8.8131966411       10.5843036237
  H        10.4361072963       10.1052551165       12.0814458485
  H         6.2696698360        3.0826474772        9.9932598494
  H         7.5882981385        1.9409564557       11.7188800217
  H         6.5788311954        7.4257076981       11.3925416184
  H         7.3815273210        6.3957539254       12.4638539972
  H         5.4053630125        5.2027323206        5.3062614901
  H         4.7124909644        4.5299414047        3.8452911061
  C         7.6952303450        8.2243557725        8.4221574241
  C         7.9270806752        5.6782208741        5.8351759275
  C         4.4993119543        3.4087292896        8.1204112068
  C         3.9837819433        7.1704192039       10.7851255534
  C         4.1162650375        6.9585703586       12.2617384222
  C         9.6569089293        7.1371796304       13.1025543229
  C         9.7479819501        6.9434386414       14.4687596984
  C         4.3265417662        6.4870562259       15.0014378746
  C         5.4588388758        6.3527484869       14.1870498352
  C         5.3735320508        6.6515880068       12.8296208816
  C         6.7936881304        4.7677886158        2.3342151744
  C         7.9860571061        4.9648040058        1.6473518376
  C         2.5147929372        5.4012913747        2.3097836458
  C         9.0855540937        5.5825848201        3.6713480702
  C         7.8883680419        5.4258103507        4.3949700944
  C         6.6880505317        5.0745822047        3.7083544500
  C         7.5486672848        9.7190335892        8.5093894198
  C         8.3782935448       10.4892321127        9.3813387444
  C         6.6437383937       10.3780285688        7.7056874308
  C         9.0827549366        9.8808728467       10.4403991379
  C         9.9008002419       10.6073506843       11.2772530180
  C         4.4467982304        1.9213910693        8.3042520978
  C         3.5053626490        1.1648171531        7.6356702510
  C         5.3318981953        1.2819537872        9.2306810519
  C         6.2127073383        2.0017467547       10.0793052501
  C         6.9279857320        1.3622694025       11.0722121247
  N         4.5074569290        6.2953298025       16.3806651244
  N         7.8772119192        4.8594759424        0.2496686211
  N         6.5011557340        6.5830828296       11.9756123191
  N         5.4617887567        5.0478568145        4.3010410341
  O         6.6691895904        7.5171560767        8.6420251279
  O         9.0628428426        5.6497670655        6.4206414327
  O         3.4761034608        4.0695305491        8.4898483494
  O         4.6453545205        8.0723194698       10.2616688679
  O         5.5838499354        3.9060247176        7.6747072616
  O         3.1737232779        6.3089309679       10.1972033098
  O         8.8434122055        7.7704546964        8.1205341114
  O         6.8023295596        5.9385535834        6.4146522555
  O         4.5451647734        6.4551050447        7.8083835671
  O         7.8613731492        5.1576331756        8.7799456388
  F         2.5854333877        1.7671984519        6.8481966430
  F         5.7954215325        9.6793143914        6.9217455429
  O         5.6642357886        5.1125201439        9.9847046726
  H         4.6979605641        5.1645298908       10.1652380577
  H         6.1227011056        5.5974412583       10.7694760282
  C         3.7720416432        1.9587483820        1.8238175220
  H         2.9197780668        1.6670230369        1.1995139131
  H         4.4710888725        2.5465731140        1.2185642062
  H         4.2787108626        1.0648442724        2.2022196417
  H         3.4029317779        2.5630835542        2.6596259718
      68
 i =      199, E =      -435.8671509553
 Al         6.2026036187        5.7001719574        8.1785374982
 Al         9.4778319997        5.9445113753        8.2819226120
  H         4.6353651822        7.4204381164        7.9654982486
  H         7.9954068978        4.1988482082        8.8830072784
  H         8.7318280035        7.5088751731       12.6555018113
  H         8.9209732184        7.1473536270       15.1412553693
  H         6.3971880194        6.0310437991       14.6361138350
  H         5.9218326256        4.4360192668        1.7773208712
  H         3.4093110967        5.6295421048        1.7399582823
  H         3.3175189220        5.9315532575        4.2297927814
  H         8.9510968552        8.8130332390       10.5854532253
  H        10.4341506368       10.1057173664       12.0836246559
  H         6.2685059241        3.0823479234        9.9941089418
  H         7.5857338525        1.9412397128       11.7217116379
  H         6.5808694648        7.4273539713       11.3924310138
  H         7.3808679020        6.3971329629       12.4653077284
  H         5.4047629204        5.1982331303        5.3066540871
  H         4.7130968202        4.5296935686        3.8440305086
  C         7.6956482713        8.2245676913        8.4216196008
  C         7.9272207987        5.6782300491        5.8354603193
  C         4.4985582273        3.4088735106        8.1203340350
  C         3.9836182717        7.1714078579       10.7856958565
  C         4.1156780743        6.9588480058       12.2620659695
  C         9.6566873695        7.1376965677       13.1036048652
  C         9.7489596108        6.9437482942       14.4698208496
  C         4.3276217534        6.4861010485       15.0018752242
  C         5.4594857518        6.3536615778       14.1863676852
  C         5.3731151598        6.6534604876       12.8293552969
  C         6.7946948530        4.7681843738        2.3345032300
  C         7.9876090348        4.9640201292        1.6481247476
  C         2.5160366499        5.4004588223        2.3109330435
  C         9.0858243583        5.5833352853        3.6721916139
  C         7.8885784942        5.4259992636        4.3954141172
  C         6.6882828967        5.0750982681        3.7085625137
  C         7.5488040708        9.7189700519        8.5091216495
  C         8.3774664553       10.4891572141        9.3821918501
  C         6.6438625741       10.3777516679        7.7051576467
  C         9.0813610544        9.8804758448       10.4414066959
  C         9.8991192481       10.6074596193       11.2786317466
  C         4.4463953104        1.9212931830        8.3041361220
  C         3.5050441701        1.1645643870        7.6359833947
  C         5.3311602756        1.2819052525        9.2313317365
  C         6.2112688779        2.0016251085       10.0807768427
  C         6.9258825682        1.3622217046       11.0744803876
  N         4.5092055460        6.2957485920       16.3812289848
  N         7.8792372684        4.8575453411        0.2505038811
  N         6.5015005601        6.5848522955       11.9753812667
  N         5.4613968023        5.0485673891        4.3007868244
  O         6.6693064654        7.5173671984        8.6417968510
  O         9.0633252649        5.6495454693        6.4201344216
  O         3.4757409550        4.0696362791        8.4899472837
  O         4.6449094506        8.0738816133       10.2622729626
  O         5.5831410714        3.9062005992        7.6748391179
  O         3.1729442472        6.3115520161       10.1972531706
  O         8.8435581707        7.7702595543        8.1205708580
  O         6.8030083667        5.9383849866        6.4154928773
  O         4.5452613827        6.4566765384        7.8073577017
  O         7.8611257749        5.1582115403        8.7808681698
  F         2.5856238509        1.7671280988        6.8478782246
  F         5.7955890171        9.6795223144        6.9211676603
  O         5.6637749131        5.1127402481        9.9851139314
  H         4.6969458899        5.1656515427       10.1653841074
  H         6.1233236889        5.5978279905       10.7700126451
  C         3.7711613202        1.9625517723        1.8247808458
  H         2.9190707394        1.6694592311        1.2005450777
  H         4.4699668432        2.5502649204        1.2181058576
  H         4.2784269510        1.0688298591        2.2043369042
  H         3.4025819345        2.5678440940        2.6603905195
      68
 i =      200, E =      -435.8671925313
 Al         6.1998917818        5.7016083556        8.1794670254
 Al         9.4769743436        5.9441761318        8.2817189077
  H         4.6355845335        7.4241513474        7.9727779180
  H         7.9940258484        4.1992152963        8.8824505158
  H         8.7291468010        7.5082355667       12.6533285867
  H         8.9195799161        7.1522219810       15.1404414375
  H         6.3964938484        6.0352168522       14.6315435409
  H         5.9182844626        4.4401283671        1.7769348940
  H         3.4059711430        5.6345226126        1.7386974819
  H         3.3147045066        5.9359028243        4.2275029194
  H         8.9488438137        8.8148408447       10.5888282255
  H        10.4388099220       10.1075511237       12.0822293959
  H         6.2695301947        3.0828510570        9.9925865936
  H         7.5899472621        1.9419899965       11.7185484490
  H         6.5839131756        7.4263097878       11.3923710545
  H         7.3769433053        6.3948099418       12.4700758982
  H         5.4015121449        5.1937286424        5.3070435191
  H         4.7113093841        4.5304078186        3.8426770557
  C         7.6958704042        8.2248346063        8.4217966435
  C         7.9263391728        5.6786010012        5.8350403686
  C         4.4974961791        3.4090821544        8.1194293393
  C         3.9819910918        7.1672915676       10.7859760408
  C         4.1126251256        6.9557151584       12.2609871187
  C         9.6532600362        7.1355542193       13.1020501552
  C         9.7467190732        6.9447309903       14.4686282110
  C         4.3257818463        6.4875305151       15.0005736992
  C         5.4570704104        6.3551652461       14.1845394882
  C         5.3699313077        6.6537129539       12.8279800687
  C         6.7916259773        4.7721442114        2.3337484434
  C         7.9845764769        4.9679103971        1.6472934490
  C         2.5131408516        5.4037207290        2.3098372237
  C         9.0829095155        5.5865408254        3.6710071873
  C         7.8864202006        5.4278901581        4.3950189195
  C         6.6859732946        5.0770433446        3.7082040694
  C         7.5487759587        9.7188488676        8.5098741566
  C         8.3773192800       10.4895388603        9.3830537503
  C         6.6433159004       10.3772033426        7.7059579973
  C         9.0815526288        9.8812221352       10.4426411089
  C         9.9018886444       10.6085450374       11.2779098019
  C         4.4454014127        1.9213393955        8.3042755526
  C         3.5049383707        1.1641103370        7.6363295461
  C         5.3307451953        1.2822556804        9.2318394807
  C         6.2119207207        2.0023790967       10.0799311927
  C         6.9286685006        1.3628252081       11.0723270909
  N         4.5074764959        6.3000661124       16.3806717893
  N         7.8775260531        4.8590729314        0.2495787530
  N         6.5002600776        6.5838280575       11.9753640777
  N         5.4583459227        5.0499246358        4.3005948716
  O         6.6689651574        7.5178790205        8.6421053007
  O         9.0631023061        5.6492123765        6.4186034216
  O         3.4756772736        4.0701759605        8.4901855871
  O         4.6441013015        8.0685246051       10.2624930889
  O         5.5822755373        3.9063403377        7.6743371343
  O         3.1701069904        6.3100617645       10.1967609305
  O         8.8433843862        7.7705411716        8.1207949295
  O         6.8030685416        5.9378646708        6.4162873129
  O         4.5445867108        6.4611383564        7.8087011386
  O         7.8605489821        5.1586473407        8.7808362084
  F         2.5856708641        1.7669921515        6.8476004488
  F         5.7955730868        9.6794864721        6.9213099421
  O         5.6635155874        5.1130384441        9.9836174153
  H         4.6961851443        5.1647964566       10.1642269147
  H         6.1235052306        5.5972475789       10.7685295687
  C         3.7703075064        1.9607253697        1.8250086679
  H         2.9188686520        1.6656487643        1.2005632721
  H         4.4687465789        2.5480557254        1.2172238184
  H         4.2772940412        1.0671541489        2.2055742369
  H         3.4028735059        2.5665380092        2.6608661124
      68
 i =      201, E =      -435.8672203909
 Al         6.1982815112        5.7021733328        8.1795177688
 Al         9.4760922145        5.9449125521        8.2824261621
  H         4.6360220903        7.4286019651        7.9842451276
  H         7.9931815515        4.1996019921        8.8822697129
  H         8.7283476214        7.5086997596       12.6524825285
  H         8.9199400708        7.1564720223       15.1402621391
  H         6.3970933367        6.0382367235       14.6288540406
  H         5.9168446578        4.4436454440        1.7760347744
  H         3.4047713252        5.6371181149        1.7390059483
  H         3.3131203845        5.9383066871        4.2271637229
  H         8.9471721588        8.8156607142       10.5919407042
  H        10.4389173160       10.1089382116       12.0834736940
  H         6.2684662136        3.0830344320        9.9928623466
  H         7.5888631103        1.9430073554       11.7194053253
  H         6.5851057484        7.4253796289       11.3906117990
  H         7.3756054086        6.3948225065       12.4708796576
  H         5.4006947386        5.1920204874        5.3070840500
  H         4.7099220716        4.5315605884        3.8421505803
  C         7.6959304148        8.2251553609        8.4221478770
  C         7.9259986471        5.6786600118        5.8354315473
  C         4.4966528856        3.4097208940        8.1194908312
  C         3.9814638667        7.1661303620       10.7863723626
  C         4.1116559550        6.9550588992       12.2604528348
  C         9.6524316881        7.1360459874       13.1014437903
  C         9.7464824576        6.9464091180       14.4681814493
  C         4.3257482260        6.4895190057       15.0002085529
  C         5.4567014745        6.3571252773       14.1836914443
  C         5.3688974848        6.6551006579       12.8272687276
  C         6.7903085467        4.7748381488        2.3332070347
  C         7.9834221862        4.9704362611        1.6468120926
  C         2.5117821731        5.4060551580        2.3096828059
  C         9.0815869607        5.5885434619        3.6707521811
  C         7.8857569241        5.4283774840        4.3952653502
  C         6.6851603005        5.0781099173        3.7081650290
  C         7.5482212891        9.7190045182        8.5108947709
  C         8.3764367108       10.4897776125        9.3844793046
  C         6.6435772313       10.3771625498        7.7059270388
  C         9.0807715316        9.8816725469       10.4441098838
  C         9.9014261551       10.6093647400       11.2789639396
  C         4.4448468354        1.9217347843        8.3047843085
  C         3.5047156836        1.1641671221        7.6371169281
  C         5.3301856583        1.2825765770        9.2326910323
  C         6.2107262363        2.0028092499       10.0809877926
  C         6.9274906226        1.3633591098       11.0736650075
  N         4.5074912444        6.3030913441       16.3807849819
  N         7.8773500133        4.8624263683        0.2488743882
  N         6.4995768897        6.5838409999       11.9749935622
  N         5.4573094785        5.0501780051        4.3005932467
  O         6.6691988710        7.5176407497        8.6422740412
  O         9.0628338657        5.6491093852        6.4189131597
  O         3.4751141634        4.0714130139        8.4896289804
  O         4.6430470323        8.0674331553       10.2627385723
  O         5.5817982434        3.9065466502        7.6744178893
  O         3.1693824481        6.3096885853       10.1967083129
  O         8.8432264401        7.7712303626        8.1210794461
  O         6.8024752422        5.9376107190        6.4163707303
  O         4.5437445350        6.4664116886        7.8134246998
  O         7.8599505430        5.1590563792        8.7811982403
  F         2.5858308119        1.7668536997        6.8478832654
  F         5.7958325874        9.6796775820        6.9212090863
  O         5.6630148448        5.1125524443        9.9827872471
  H         4.6954209599        5.1643042700       10.1636944237
  H         6.1230786238        5.5967580924       10.7676458665
  C         3.7683803811        1.9648694809        1.8263448036
  H         2.9170010326        1.6687725342        1.2023156739
  H         4.4664739051        2.5524480657        1.2179882359
  H         4.2759497756        1.0716038011        2.2079715142
  H         3.4018040465        2.5710914626        2.6622670509
      68
 i =      202, E =      -435.8672464729
 Al         6.1962364539        5.7036998219        8.1799458606
 Al         9.4745618716        5.9463926073        8.2835577209
  H         4.6346093764        7.4354082181        8.0001010597
  H         7.9909546847        4.2001944801        8.8815521630
  H         8.7267721376        7.5092579777       12.6520761685
  H         8.9193912531        7.1622286798       15.1403055380
  H         6.3967175582        6.0416658904       14.6279326124
  H         5.9146901611        4.4493948278        1.7745428724
  H         3.4025510537        5.6412641453        1.7391370316
  H         3.3106330728        5.9430145093        4.2269123369
  H         8.9470778814        8.8164997794       10.5947395946
  H        10.4406135172       10.1101685133       12.0831534637
  H         6.2665476935        3.0834922424        9.9930439171
  H         7.5873486785        1.9445567885       11.7196478762
  H         6.5861409256        7.4232300715       11.3896822337
  H         7.3733952004        6.3928522455       12.4722402761
  H         5.3991202810        5.1881909492        5.3074418239
  H         4.7079288617        4.5338272424        3.8403228511
  C         7.6958351019        8.2258454013        8.4225185345
  C         7.9249753940        5.6794522402        5.8363438434
  C         4.4955376864        3.4109798599        8.1200515499
  C         3.9804826469        7.1652307008       10.7870275751
  C         4.1103016524        6.9547796323       12.2603175699
  C         9.6507674826        7.1363928251       13.1012431869
  C         9.7455936528        6.9501084642       14.4678211184
  C         4.3249172855        6.4927384339       14.9999804228
  C         5.4556102254        6.3591423289       14.1838122893
  C         5.3674028523        6.6562352762       12.8271557751
  C         6.7881601885        4.7795733950        2.3323783411
  C         7.9813690289        4.9759904609        1.6464700491
  C         2.5096184505        5.4106614221        2.3098810899
  C         9.0793786610        5.5922098414        3.6708800477
  C         7.8836086792        5.4306101042        4.3954381484
  C         6.6831291506        5.0801122991        3.7080463092
  C         7.5478403879        9.7196487978        8.5116208366
  C         8.3756441912       10.4900423745        9.3859847619
  C         6.6430329388       10.3774041467        7.7065671225
  C         9.0805186504        9.8823439013       10.4455488563
  C         9.9015114212       10.6103938049       11.2797281567
  C         4.4435367503        1.9224376154        8.3060468257
  C         3.5044762252        1.1646469542        7.6372509564
  C         5.3288591130        1.2830332562        9.2341945705
  C         6.2091671647        2.0035206702       10.0816650608
  C         6.9265981090        1.3643698427       11.0740255762
  N         4.5062943259        6.3087909136       16.3808542017
  N         7.8762749657        4.8664514101        0.2487862347
  N         6.4982482901        6.5825073672       11.9752179047
  N         5.4550892481        5.0512437515        4.3005148663
  O         6.6695311308        7.5181947628        8.6431777649
  O         9.0618249812        5.6492600855        6.4198143708
  O         3.4742728501        4.0736448948        8.4893583619
  O         4.6422787527        8.0661266954       10.2633067689
  O         5.5809774156        3.9075599851        7.6746256356
  O         3.1679959210        6.3099683293       10.1966565403
  O         8.8425875134        7.7718229245        8.1207719423
  O         6.8009043107        5.9374508728        6.4170318032
  O         4.5414120958        6.4748807051        7.8198595600
  O         7.8587179569        5.1598592778        8.7809568294
  F         2.5857458512        1.7669567618        6.8476543232
  F         5.7958012917        9.6795708456        6.9213386090
  O         5.6623631895        5.1127289182        9.9821720877
  H         4.6946663484        5.1637097495       10.1629322899
  H         6.1226668813        5.5968277855       10.7678500515
  C         3.7660536570        1.9685942700        1.8276744134
  H         2.9147128737        1.6715649068        1.2042378602
  H         4.4637164472        2.5563886792        1.2192154454
  H         4.2738541659        1.0760163373        2.2104714797
  H         3.4003982911        2.5751470602        2.6639314751
      68
 i =      203, E =      -435.8672706020
 Al         6.1951189228        5.7039122296        8.1795047399
 Al         9.4731934071        5.9477700333        8.2840810282
  H         4.6329923137        7.4379674613        8.0069544093
  H         7.9895411449        4.2004867004        8.8810234958
  H         8.7258617883        7.5085475065       12.6526743355
  H         8.9199002296        7.1645810457       15.1406786696
  H         6.3966292039        6.0430905218       14.6287056242
  H         5.9149380378        4.4511132876        1.7727767476
  H         3.4026243824        5.6426053387        1.7399655231
  H         3.3092312294        5.9451821994        4.2278471516
  H         8.9475139106        8.8167834733       10.5968949511
  H        10.4408335066       10.1111090747       12.0835301880
  H         6.2647298414        3.0836769250        9.9932851294
  H         7.5859204372        1.9460591867       11.7200506611
  H         6.5857062715        7.4232189534       11.3899489973
  H         7.3729420677        6.3913509550       12.4701946108
  H         5.3984294665        5.1843328167        5.3067441797
  H         4.7074274409        4.5330480680        3.8384873342
  C         7.6952462774        8.2260060792        8.4234812452
  C         7.9238551309        5.6794756112        5.8367286371
  C         4.4947423818        3.4119273670        8.1207863205
  C         3.9792790516        7.1649320986       10.7874366688
  C         4.1098003897        6.9549755958       12.2607402989
  C         9.6506708395        7.1377898004       13.1016771014
  C         9.7456764751        6.9511956070       14.4683164182
  C         4.3253072042        6.4951709818       15.0007030487
  C         5.4556821086        6.3608313617       14.1842072434
  C         5.3670758747        6.6560535170       12.8273106865
  C         6.7877837490        4.7810978474        2.3316844322
  C         7.9814293271        4.9771830583        1.6464010813
  C         2.5092897496        5.4125587331        2.3100795341
  C         9.0785287312        5.5942410509        3.6710199003
  C         7.8829026808        5.4307937861        4.3953651709
  C         6.6824308140        5.0805438401        3.7076796059
  C         7.5469239450        9.7198605041        8.5130965391
  C         8.3743570667       10.4903505861        9.3875839280
  C         6.6432674847       10.3777565544        7.7068224659
  C         9.0797851597        9.8828720995       10.4468891261
  C         9.9008989341       10.6111869096       11.2804964322
  C         4.4425633085        1.9231531241        8.3071712986
  C         3.5037482343        1.1650344698        7.6381690703
  C         5.3276339838        1.2834554196        9.2353299757
  C         6.2077400406        2.0038080407       10.0826150865
  C         6.9252044389        1.3652366471       11.0752226426
  N         4.5068476183        6.3112824359       16.3814826637
  N         7.8767445541        4.8690293678        0.2487670240
  N         6.4974189384        6.5820137153       11.9746340258
  N         5.4542004922        5.0505676438        4.2994021083
  O         6.6692647015        7.5181949856        8.6434757208
  O         9.0606521603        5.6493546319        6.4203955543
  O         3.4732980817        4.0754319523        8.4890375871
  O         4.6408328027        8.0654927188       10.2629096128
  O         5.5805800028        3.9079684424        7.6751609884
  O         3.1672573178        6.3091551401       10.1972181268
  O         8.8421011416        7.7724289300        8.1211977264
  O         6.7991609552        5.9378133041        6.4165529072
  O         4.5389522166        6.4785100549        7.8213103662
  O         7.8573607006        5.1602622409        8.7808248423
  F         2.5856589181        1.7668537482        6.8478709619
  F         5.7960976776        9.6798386893        6.9214166719
  O         5.6616742251        5.1128202494        9.9819338588
  H         4.6941731264        5.1637825450       10.1625828253
  H         6.1228990537        5.5972305134       10.7680687495
  C         3.7650719818        1.9710233749        1.8280762864
  H         2.9132061207        1.6740947869        1.2054132206
  H         4.4631999109        2.5591220396        1.2203202216
  H         4.2730114160        1.0785251813        2.2116027061
  H         3.3995899191        2.5776095144        2.6645779629
      68
 i =      204, E =      -435.8673113645
 Al         6.1926030913        5.7044301387        8.1782763173
 Al         9.4697639959        5.9515560622        8.2838521422
  H         4.6278326445        7.4410504881        8.0202387321
  H         7.9868076258        4.2014089277        8.8783806395
  H         8.7232229267        7.5070862234       12.6546183173
  H         8.9186811916        7.1676141180       15.1417065933
  H         6.3948140045        6.0464800984       14.6335417855
  H         5.9143577238        4.4557182550        1.7698537007
  H         3.4018284813        5.6456039185        1.7424130512
  H         3.3049485992        5.9507125394        4.2310355379
  H         8.9504510125        8.8176500004       10.5984692604
  H        10.4445622405       10.1124984869       12.0809300448
  H         6.2629960156        3.0846760151        9.9915438248
  H         7.5860799952        1.9491021397       11.7174714385
  H         6.5821654517        7.4234348695       11.3914411954
  H         7.3716390398        6.3878570282       12.4662838746
  H         5.3957739002        5.1751936993        5.3067651309
  H         4.7053382056        4.5322051991        3.8351907611
  C         7.6932823051        8.2269350983        8.4248773439
  C         7.9208338549        5.6803014054        5.8376590410
  C         4.4925371070        3.4145273702        8.1223234613
  C         3.9767655293        7.1650280044       10.7874565648
  C         4.1082310990        6.9562010006       12.2616460193
  C         9.6493403381        7.1392938825       13.1031118798
  C         9.7446698655        6.9551121804       14.4695734291
  C         4.3245059488        6.5005029192       15.0024928609
  C         5.4547633721        6.3640329241       14.1863837570
  C         5.3659603426        6.6561297511       12.8282794875
  C         6.7862544502        4.7845379652        2.3308490978
  C         7.9804201380        4.9816074805        1.6469950244
  C         2.5078563098        5.4167457817        2.3116780861
  C         9.0757528439        5.5981450810        3.6725598594
  C         7.8794202303        5.4326509455        4.3956526918
  C         6.6795915588        5.0813625561        3.7074221569
  C         7.5450554201        9.7209682953        8.5153213675
  C         8.3720913825       10.4913334915        9.3898735960
  C         6.6422417089       10.3789621109        7.7080997158
  C         9.0797404754        9.8845183461       10.4482216892
  C         9.9017856582       10.6130361249       11.2801439949
  C         4.4400810454        1.9251937728        8.3096840058
  C         3.5024219022        1.1662847951        7.6393126599
  C         5.3251090251        1.2846097544        9.2370431522
  C         6.2062581060        2.0048983015       10.0824520607
  C         6.9249771154        1.3674638919       11.0742902069
  N         4.5061865329        6.3173012400       16.3828132240
  N         7.8762153518        4.8738988998        0.2497084779
  N         6.4948206072        6.5807164519       11.9742044758
  N         5.4513394528        5.0490236131        4.2983814683
  O         6.6683926121        7.5183410797        8.6439535510
  O         9.0580382122        5.6495309299        6.4207128138
  O         3.4710333114        4.0804345053        8.4879245673
  O         4.6388970615        8.0651576618       10.2621137058
  O         5.5793729935        3.9091156363        7.6760749246
  O         3.1664664180        6.3086276839       10.1965578054
  O         8.8402148834        7.7734959440        8.1213108791
  O         6.7955445443        5.9387348743        6.4166811403
  O         4.5325134754        6.4843244738        7.8208344946
  O         7.8542541279        5.1614097454        8.7805762997
  F         2.5854528487        1.7671826772        6.8478298330
  F         5.7961864287        9.6800579952        6.9217637261
  O         5.6607574317        5.1131806351        9.9817801998
  H         4.6936948707        5.1638743299       10.1624583741
  H         6.1244731758        5.5984556013       10.7691624520
  C         3.7641449048        1.9715111837        1.8275651392
  H         2.9106924587        1.6763264571        1.2072954749
  H         4.4630900196        2.5610514155        1.2229175304
  H         4.2712877899        1.0791838066        2.2123667565
  H         3.3984292314        2.5777357484        2.6646921871
      68
 i =      205, E =      -435.8673295056
 Al         6.1927693700        5.7046316406        8.1785908051
 Al         9.4698424169        5.9521201069        8.2832730262
  H         4.6263967891        7.4381975350        8.0195981920
  H         7.9869327058        4.2017762541        8.8778948412
  H         8.7228983634        7.5068215950       12.6548003966
  H         8.9181254394        7.1666687843       15.1419326489
  H         6.3939711388        6.0461055251       14.6358931077
  H         5.9149081681        4.4550738347        1.7698990795
  H         3.4022213565        5.6470554668        1.7429443718
  H         3.3046783197        5.9510145485        4.2321609648
  H         8.9507673039        8.8181680902       10.5968367418
  H        10.4445001683       10.1126554838       12.0805818015
  H         6.2632816619        3.0856083649        9.9918852648
  H         7.5877148051        1.9493271612       11.7166576302
  H         6.5811269040        7.4248680419       11.3930647158
  H         7.3717517642        6.3874008302       12.4646013407
  H         5.3949761101        5.1741817378        5.3066101068
  H         4.7057985822        4.5307159900        3.8348487620
  C         7.6929754293        8.2272266828        8.4249995382
  C         7.9203644208        5.6803882750        5.8371017083
  C         4.4915552100        3.4153440248        8.1224520154
  C         3.9760601021        7.1652847217       10.7872763092
  C         4.1079528893        6.9567667798       12.2623112120
  C         9.6493184773        7.1403869840       13.1034284733
  C         9.7444636626        6.9554138551       14.4702304437
  C         4.3245100664        6.5016944098       15.0030368556
  C         5.4549359068        6.3648627259       14.1869384588
  C         5.3658657591        6.6553495825       12.8286146763
  C         6.7864894400        4.7845292120        2.3310815444
  C         7.9809087670        4.9815611789        1.6476050119
  C         2.5082994265        5.4172834697        2.3120905977
  C         9.0756503939        5.5988665182        3.6730149236
  C         7.8791480310        5.4327738960        4.3954750210
  C         6.6792738419        5.0815835707        3.7074238438
  C         7.5447989604        9.7213814127        8.5154115351
  C         8.3715689426       10.4923245390        9.3897246658
  C         6.6416989184       10.3792496027        7.7081804795
  C         9.0795068603        9.8852284457       10.4478870050
  C         9.9018879556       10.6135359812       11.2797184707
  C         4.4388598780        1.9259901761        8.3103225202
  C         3.5015739744        1.1665852834        7.6396227026
  C         5.3241419025        1.2856536461        9.2375079589
  C         6.2063791672        2.0056848605       10.0826194512
  C         6.9255930166        1.3680913519       11.0739981026
  N         4.5061369080        6.3178253274       16.3830592919
  N         7.8761929031        4.8750279738        0.2502829980
  N         6.4944976341        6.5811305237       11.9736333388
  N         5.4509951875        5.0486200581        4.2981332548
  O         6.6677763789        7.5191584826        8.6439031027
  O         9.0576958362        5.6499952218        6.4201478469
  O         3.4704125608        4.0819567658        8.4884241130
  O         4.6383823276        8.0653119666       10.2615383048
  O         5.5786558705        3.9092657479        7.6761219206
  O         3.1659114640        6.3081771986       10.1977747697
  O         8.8401184042        7.7732932340        8.1215195280
  O         6.7956327921        5.9390068534        6.4166668655
  O         4.5318684024        6.4822467330        7.8185874084
  O         7.8538220710        5.1617736483        8.7806172753
  F         2.5849454746        1.7674331555        6.8475972558
  F         5.7961076375        9.6801257600        6.9214666565
  O         5.6606776986        5.1133493901        9.9824778609
  H         4.6937009814        5.1641075725       10.1626875248
  H         6.1248154480        5.5983863624       10.7703067911
  C         3.7643388006        1.9707922726        1.8274566472
  H         2.9107049969        1.6756150411        1.2070673720
  H         4.4636941589        2.5599253767        1.2229199969
  H         4.2715431815        1.0783699928        2.2118448241
  H         3.3981430769        2.5768714701        2.6646897658
      68
 i =      206, E =      -435.8673493776
 Al         6.1912595491        5.7058214488        8.1792735213
 Al         9.4693704554        5.9539076245        8.2819448306
  H         4.6246538715        7.4389901216        8.0282064304
  H         7.9869616436        4.2029127274        8.8766055649
  H         8.7224396407        7.5081419956       12.6546389507
  H         8.9172357502        7.1675357411       15.1423105474
  H         6.3935429944        6.0492953258       14.6372681327
  H         5.9144427897        4.4569832826        1.7703661891
  H         3.4018916570        5.6509788049        1.7446921133
  H         3.3031533995        5.9528199601        4.2341156079
  H         8.9491140475        8.8200131282       10.5952792525
  H        10.4437395459       10.1137995591       12.0809308458
  H         6.2642973236        3.0874298783        9.9922523154
  H         7.5896359344        1.9498015059       11.7160827056
  H         6.5794261048        7.4263986962       11.3931932738
  H         7.3713128457        6.3883274572       12.4642144976
  H         5.3930892707        5.1719943257        5.3075775596
  H         4.7051937599        4.5301595387        3.8348894434
  C         7.6922301896        8.2281005420        8.4252086302
  C         7.9195397960        5.6809508697        5.8371445393
  C         4.4888995099        3.4176596859        8.1224000411
  C         3.9755924300        7.1659247646       10.7871977351
  C         4.1076083323        6.9579543840       12.2627859406
  C         9.6487688127        7.1415771442       13.1034475910
  C         9.7439440635        6.9576100489       14.4706857611
  C         4.3241430125        6.5051496612       15.0036424813
  C         5.4545566555        6.3674396051       14.1875494998
  C         5.3655893944        6.6564189620       12.8289113858
  C         6.7859758236        4.7864903789        2.3317144516
  C         7.9804785133        4.9844487200        1.6485603810
  C         2.5078808008        5.4195548491        2.3133364104
  C         9.0746475179        5.6004544224        3.6743177327
  C         7.8780763811        5.4338848491        4.3962344952
  C         6.6784439326        5.0824787473        3.7080638650
  C         7.5443397511        9.7222827163        8.5157243072
  C         8.3702496405       10.4944689994        9.3898866857
  C         6.6407407247       10.3799534222        7.7089280860
  C         9.0782871083        9.8869374657       10.4479652037
  C         9.9013198910       10.6149015397       11.2798732779
  C         4.4361445447        1.9281500373        8.3116093409
  C         3.5005648917        1.1672421905        7.6404429465
  C         5.3221106261        1.2879224205        9.2384017144
  C         6.2058792707        2.0075042610       10.0832037308
  C         6.9260423305        1.3693587362       11.0736579184
  N         4.5063353430        6.3213868051       16.3837034203
  N         7.8761906715        4.8783773398        0.2510490317
  N         6.4940239717        6.5820739013       11.9731117016
  N         5.4498952160        5.0482981802        4.2989216218
  O         6.6668033679        7.5199677521        8.6439707923
  O         9.0576490983        5.6499308544        6.4187586519
  O         3.4689012078        4.0859704369        8.4883567320
  O         4.6379985307        8.0663480951       10.2615050389
  O         5.5769861903        3.9095289329        7.6761690125
  O         3.1659547088        6.3087829621       10.1978765742
  O         8.8394083670        7.7736185116        8.1217306579
  O         6.7958047588        5.9390787188        6.4178866452
  O         4.5305897234        6.4848115045        7.8177675092
  O         7.8529984720        5.1629276034        8.7810153587
  F         2.5847246277        1.7675886778        6.8471937550
  F         5.7961315443        9.6804093857        6.9218502518
  O         5.6607863210        5.1132870122        9.9828588411
  H         4.6936775178        5.1643607151       10.1630799369
  H         6.1255873393        5.5979267526       10.7706266253
  C         3.7633141907        1.9731491584        1.8285342738
  H         2.9095493509        1.6778819389        1.2084700046
  H         4.4623793657        2.5625852015        1.2241017540
  H         4.2703251556        1.0808173109        2.2126661806
  H         3.3967237990        2.5789437657        2.6656134752
      68
 i =      207, E =      -435.8673621954
 Al         6.1907669684        5.7068922194        8.1795892083
 Al         9.4694429033        5.9543715801        8.2809519043
  H         4.6251229728        7.4380813719        8.0342446157
  H         7.9879945629        4.2034752114        8.8759065661
  H         8.7227438394        7.5093069441       12.6532918534
  H         8.9161681653        7.1683604081       15.1420208841
  H         6.3932859808        6.0514410165       14.6374183378
  H         5.9135018894        4.4586652972        1.7715410292
  H         3.4006550077        5.6551362026        1.7452468831
  H         3.3026730186        5.9529182471        4.2347503963
  H         8.9478393419        8.8216927926       10.5935123741
  H        10.4432961840       10.1147538808       12.0808354016
  H         6.2652276999        3.0893303528        9.9931954718
  H         7.5922111637        1.9497421445       11.7147955099
  H         6.5781964345        7.4270500993       11.3933248306
  H         7.3709842152        6.3898631016       12.4649391819
  H         5.3920355476        5.1737590146        5.3082012662
  H         4.7046946230        4.5305056648        3.8358929132
  C         7.6923730055        8.2291053220        8.4249921230
  C         7.9194721097        5.6810766777        5.8371420492
  C         4.4871993018        3.4189214256        8.1223294507
  C         3.9755733714        7.1665242057       10.7869064405
  C         4.1074155377        6.9588357735       12.2624240528
  C         9.6484092545        7.1420280060       13.1030584874
  C         9.7433845379        6.9597151083       14.4705475770
  C         4.3235133556        6.5070119041       15.0033836962
  C         5.4543115535        6.3691217506       14.1875391256
  C         5.3652288119        6.6577599784       12.8287368373
  C         6.7855394780        4.7879127209        2.3322341037
  C         7.9796566932        4.9874140743        1.6486953230
  C         2.5069395593        5.4219963023        2.3138526639
  C         9.0740348686        5.6009601912        3.6750058046
  C         7.8774918722        5.4345831615        4.3967628612
  C         6.6778648183        5.0835488531        3.7085519486
  C         7.5439615520        9.7234550296        8.5157213394
  C         8.3697663987       10.4961388207        9.3898597438
  C         6.6398515807       10.3803631005        7.7088824657
  C         9.0784295122        9.8884913592       10.4471541725
  C         9.9016410646       10.6160149600       11.2794057537
  C         4.4343305690        1.9294029803        8.3125771192
  C         3.4995749076        1.1677812292        7.6410762601
  C         5.3212238114        1.2897106922        9.2390076968
  C         6.2060739922        2.0093962466       10.0834027560
  C         6.9268221684        1.3702190672       11.0731255123
  N         4.5057504709        6.3237791467       16.3836484818
  N         7.8753576253        4.8815705629        0.2509792927
  N         6.4935890576        6.5826772555       11.9731113045
  N         5.4493874427        5.0482273033        4.2999719145
  O         6.6669474166        7.5205138664        8.6437863314
  O         9.0579788878        5.6502960942        6.4181834438
  O         3.4680892128        4.0886781407        8.4881900433
  O         4.6378199376        8.0670251744       10.2609478548
  O         5.5755984059        3.9096641736        7.6756924214
  O         3.1662765936        6.3093253408       10.1980887406
  O         8.8393867095        7.7741280067        8.1215507691
  O         6.7959472098        5.9389202012        6.4178177248
  O         4.5311866103        6.4851483617        7.8178848464
  O         7.8529568135        5.1632689288        8.7809190447
  F         2.5843415876        1.7679642136        6.8470897585
  F         5.7960720252        9.6803057079        6.9213881458
  O         5.6612155784        5.1133110739        9.9828529888
  H         4.6938733008        5.1644330723       10.1630770658
  H         6.1253099698        5.5972601719       10.7704886995
  C         3.7624562441        1.9744131015        1.8294765516
  H         2.9088557056        1.6787679704        1.2092719046
  H         4.4609698955        2.5638664756        1.2246889122
  H         4.2698806995        1.0821285840        2.2131296539
  H         3.3953706609        2.5801360755        2.6665052572
      68
 i =      208, E =      -435.8673707762
 Al         6.1899656336        5.7082826225        8.1801724501
 Al         9.4691374351        5.9542692586        8.2805724506
  H         4.6260196130        7.4379277649        8.0417006458
  H         7.9883950703        4.2039826301        8.8752455974
  H         8.7226101805        7.5108166314       12.6525416784
  H         8.9160371719        7.1700389374       15.1419633419
  H         6.3934673920        6.0536862683       14.6365943859
  H         5.9131595087        4.4605004509        1.7719179686
  H         3.3999082360        5.6598408415        1.7457045305
  H         3.3026884100        5.9530973464        4.2353414026
  H         8.9471425322        8.8230746397       10.5927859161
  H        10.4420540195       10.1158358332       12.0810816582
  H         6.2652616493        3.0906605716        9.9943206774
  H         7.5927984961        1.9499777130       11.7147492977
  H         6.5778190082        7.4280293070       11.3935130912
  H         7.3702003647        6.3912823633       12.4654058222
  H         5.3916572519        5.1747519419        5.3086140773
  H         4.7044750823        4.5308113550        3.8360293660
  C         7.6925785128        8.2295656451        8.4251350888
  C         7.9194131661        5.6813385639        5.8374325789
  C         4.4857473194        3.4203172797        8.1226384404
  C         3.9755023257        7.1674215072       10.7870382931
  C         4.1072542429        6.9599414157       12.2622258227
  C         9.6482051245        7.1434204989       13.1026092063
  C         9.7432102725        6.9615408618       14.4702519021
  C         4.3233132918        6.5089960598       15.0032087799
  C         5.4540275325        6.3706107123       14.1874302286
  C         5.3648361864        6.6590758195       12.8286777674
  C         6.7850872643        4.7902216844        2.3324308105
  C         7.9790783214        4.9908550445        1.6487800147
  C         2.5063294568        5.4253066936        2.3139234731
  C         9.0738079247        5.6025235484        3.6752639911
  C         7.8775563629        5.4351024443        4.3970366874
  C         6.6778290767        5.0844170598        3.7089509906
  C         7.5440697531        9.7241738469        8.5158411934
  C         8.3694819704       10.4976775418        9.3898610451
  C         6.6396240988       10.3808802982        7.7095068172
  C         9.0778297478        9.8897539001       10.4470735031
  C         9.9009852213       10.6170230321       11.2794988133
  C         4.4327977748        1.9308435032        8.3136067883
  C         3.4990277975        1.1683836053        7.6417805220
  C         5.3200387341        1.2913933992        9.2398923241
  C         6.2053079960        2.0107571036       10.0842958365
  C         6.9269415594        1.3710805127       11.0731153217
  N         4.5056926270        6.3262032255       16.3837522700
  N         7.8752500779        4.8846887009        0.2511142694
  N         6.4931488173        6.5836159427       11.9729362286
  N         5.4491057196        5.0484366141        4.3004700573
  O         6.6671757886        7.5207480894        8.6439635760
  O         9.0578029737        5.6503152898        6.4186751726
  O         3.4668209942        4.0905863433        8.4881047703
  O         4.6374701839        8.0680433964       10.2610040754
  O         5.5745381484        3.9096849560        7.6757505947
  O         3.1670460331        6.3095502313       10.1979644742
  O         8.8393701681        7.7744162491        8.1215572534
  O         6.7957799903        5.9390636189        6.4178776933
  O         4.5315624064        6.4863714825        7.8186525286
  O         7.8526712119        5.1636592832        8.7809312460
  F         2.5844498155        1.7678209572        6.8469835796
  F         5.7962913987        9.6805575522        6.9219493101
  O         5.6610727036        5.1136086261        9.9832572069
  H         4.6937998189        5.1647704842       10.1635990388
  H         6.1246192283        5.5972052392       10.7709275583
  C         3.7609546465        1.9770146343        1.8306707112
  H         2.9075549162        1.6809199049        1.2104145266
  H         4.4592073145        2.5663918683        1.2254208605
  H         4.2690089119        1.0850828748        2.2143458184
  H         3.3941970240        2.5826842505        2.6677876043
      68
 i =      209, E =      -435.8673773380
 Al         6.1898916954        5.7086930918        8.1797987214
 Al         9.4688077847        5.9536815955        8.2809396216
  H         4.6271172575        7.4373851838        8.0441260172
  H         7.9881628001        4.2039893641        8.8752319430
  H         8.7227553375        7.5115955486       12.6526423682
  H         8.9170871578        7.1713121790       15.1420453545
  H         6.3944741926        6.0548542157       14.6351062589
  H         5.9138108613        4.4610368314        1.7714082918
  H         3.3999458815        5.6622312414        1.7457313600
  H         3.3033421057        5.9526869072        4.2354956788
  H         8.9471012045        8.8234278384       10.5936586378
  H        10.4408544146       10.1164951109       12.0820153926
  H         6.2639810640        3.0911001893        9.9953944458
  H         7.5914571749        1.9505472126       11.7156849422
  H         6.5781007773        7.4285282613       11.3936539743
  H         7.3700885360        6.3919632231       12.4654924358
  H         5.3922774039        5.1757581734        5.3082801982
  H         4.7049846337        4.5304636059        3.8359942790
  C         7.6927592813        8.2296625033        8.4254757241
  C         7.9196881585        5.6810950774        5.8377286144
  C         4.4854447655        3.4203199757        8.1230141677
  C         3.9753654005        7.1680586678       10.7870514379
  C         4.1073563457        6.9605870412       12.2618401605
  C         9.6484909909        7.1442461026       13.1026054632
  C         9.7439178216        6.9621701491       14.4700895929
  C         4.3240731736        6.5094660673       15.0030040317
  C         5.4544815697        6.3712935595       14.1869105569
  C         5.3648585693        6.6596992949       12.8283020691
  C         6.7856487588        4.7907716767        2.3319345852
  C         7.9795264721        4.9924739276        1.6483413287
  C         2.5064160916        5.4274272136        2.3137468769
  C         9.0742745165        5.6028648020        3.6752810201
  C         7.8779618358        5.4350045415        4.3969922273
  C         6.6782704493        5.0846858374        3.7086260475
  C         7.5437446690        9.7244871676        8.5162986073
  C         8.3690516706       10.4978733786        9.3906576147
  C         6.6395581443       10.3809715975        7.7095452964
  C         9.0775555580        9.8902159525       10.4476086704
  C         9.9001719397       10.6175714024       11.2803012553
  C         4.4321368827        1.9309214735        8.3145169727
  C         3.4985110510        1.1686548238        7.6422277925
  C         5.3195220020        1.2917392927        9.2408203179
  C         6.2043498136        2.0112833575       10.0851378380
  C         6.9256628546        1.3715446867       11.0743128080
  N         4.5063995932        6.3270427560       16.3837416627
  N         7.8758954889        4.8857273845        0.2508497081
  N         6.4931601553        6.5838733523       11.9728033335
  N         5.4498102921        5.0479247456        4.3002875812
  O         6.6674955827        7.5206417459        8.6442415984
  O         9.0576810936        5.6503137613        6.4196209937
  O         3.4661813034        4.0905653991        8.4881175060
  O         4.6369612045        8.0686024655       10.2605214378
  O         5.5740819865        3.9096049106        7.6759109458
  O         3.1672306452        6.3096109498       10.1981694787
  O         8.8393973073        7.7746611704        8.1217059874
  O         6.7954162094        5.9389982130        6.4172060658
  O         4.5321333871        6.4866520257        7.8188239619
  O         7.8525636265        5.1636462343        8.7807924599
  F         2.5843010324        1.7679175951        6.8471150826
  F         5.7962304042        9.6805407150        6.9218041920
  O         5.6610282896        5.1140395042        9.9831419541
  H         4.6939274156        5.1652294927       10.1638372037
  H         6.1240380352        5.5977578417       10.7707095834
  C         3.7600974159        1.9793833045        1.8314504764
  H         2.9067610753        1.6832902529        1.2112162720
  H         4.4581743999        2.5689393230        1.2261847747
  H         4.2684354465        1.0876084746        2.2151470932
  H         3.3934419058        2.5849360889        2.6686288415
      68
 i =      210, E =      -435.8673821879
 Al         6.1900429010        5.7088466973        8.1793147190
 Al         9.4683182551        5.9530196434        8.2811183337
  H         4.6279346850        7.4366067608        8.0474140011
  H         7.9874012785        4.2036659098        8.8750334290
  H         8.7224550052        7.5124340458       12.6527943548
  H         8.9175775748        7.1730253372       15.1418540856
  H         6.3948121687        6.0560020910       14.6344033673
  H         5.9144627303        4.4620274240        1.7707281381
  H         3.3994637321        5.6660851497        1.7452764039
  H         3.3039385129        5.9530724895        4.2356756725
  H         8.9480528977        8.8235353873       10.5945636668
  H        10.4405743083       10.1170424820       12.0822860019
  H         6.2626859863        3.0912494129        9.9955685800
  H         7.5904832416        1.9514249808       11.7157300721
  H         6.5786408715        7.4294287789       11.3944644963
  H         7.3696737114        6.3924438325       12.4656498413
  H         5.3930741649        5.1768378889        5.3082065845
  H         4.7054606173        4.5304825825        3.8361466672
  C         7.6929900435        8.2295950963        8.4256380608
  C         7.9198990233        5.6808774754        5.8380216110
  C         4.4853334575        3.4203521996        8.1235790974
  C         3.9749614403        7.1687604573       10.7866908452
  C         4.1070163471        6.9615475802       12.2613535504
  C         9.6483966022        7.1455043463       13.1026030572
  C         9.7440184006        6.9628488509       14.4698465009
  C         4.3243093081        6.5101376016       15.0028030898
  C         5.4544728656        6.3719681302       14.1866778923
  C         5.3644507041        6.6605061981       12.8280464155
  C         6.7858323527        4.7924433000        2.3315558628
  C         7.9796496864        4.9944545982        1.6478849588
  C         2.5062288228        5.4305398264        2.3132458705
  C         9.0744855799        5.6047984753        3.6750139309
  C         7.8785389045        5.4350640283        4.3969082551
  C         6.6786388305        5.0851829603        3.7085527918
  C         7.5437351343        9.7245795751        8.5165630707
  C         8.3689819349       10.4978151728        9.3910388644
  C         6.6395056723       10.3810466809        7.7099339680
  C         9.0773661758        9.8905247379       10.4482777292
  C         9.8997068296       10.6180680299       11.2808580732
  C         4.4317011516        1.9310113119        8.3152286535
  C         3.4981849191        1.1688406666        7.6426143856
  C         5.3188924830        1.2918048554        9.2415958538
  C         6.2033144322        2.0114267097       10.0856387761
  C         6.9252799211        1.3720991668       11.0743510830
  N         4.5064464729        6.3280067732       16.3836180920
  N         7.8759222878        4.8877824225        0.2506230637
  N         6.4929022464        6.5845026713       11.9728619186
  N         5.4504814080        5.0478694300        4.3002302683
  O         6.6678295504        7.5204731563        8.6443273827
  O         9.0576077850        5.6503325030        6.4204229100
  O         3.4655056879        4.0906145855        8.4880552112
  O         4.6364064553        8.0692518251       10.2598864722
  O         5.5738154519        3.9094658203        7.6761717476
  O         3.1673142862        6.3096318003       10.1979086629
  O         8.8395277401        7.7748815918        8.1217345884
  O         6.7952781275        5.9391205433        6.4169400974
  O         4.5325321762        6.4867976121        7.8187019631
  O         7.8523844370        5.1634267517        8.7806452321
  F         2.5843161297        1.7679407224        6.8472253768
  F         5.7962716422        9.6805489048        6.9218824399
  O         5.6607023230        5.1143084315        9.9832353076
  H         4.6937552006        5.1653503827       10.1646136652
  H         6.1231687727        5.5984797783       10.7709081456
  C         3.7591327429        1.9809784164        1.8322201824
  H         2.9058018364        1.6847982957        1.2119918327
  H         4.4569502426        2.5707046140        1.2267249467
  H         4.2678355332        1.0894247242        2.2160566994
  H         3.3925309629        2.5865170646        2.6695494496
      68
 i =      211, E =      -435.8673854359
 Al         6.1900635023        5.7087489954        8.1788300838
 Al         9.4680779685        5.9526218320        8.2814141877
  H         4.6276199061        7.4363663969        8.0489354849
  H         7.9862329132        4.2035285003        8.8753648068
  H         8.7225535353        7.5133801681       12.6537277894
  H         8.9188773422        7.1743673687       15.1421534405
  H         6.3955774174        6.0567067604       14.6338522638
  H         5.9157710327        4.4621947266        1.7697334996
  H         3.4001746787        5.6682459519        1.7449074781
  H         3.3046745617        5.9538658095        4.2358052456
  H         8.9479819540        8.8233057006       10.5960538761
  H        10.4392168070       10.1175853531       12.0838534560
  H         6.2603692868        3.0911748378        9.9965554756
  H         7.5880308562        1.9525329527       11.7174668684
  H         6.5797981730        7.4302050814       11.3946721465
  H         7.3698496748        6.3923201080       12.4656892037
  H         5.3939593052        5.1767760564        5.3077015863
  H         4.7066255393        4.5299036242        3.8356344058
  C         7.6929221681        8.2293833586        8.4259919598
  C         7.9201976254        5.6808969197        5.8379260172
  C         4.4853715080        3.4202609963        8.1239265809
  C         3.9747918728        7.1691730867       10.7865747645
  C         4.1072587580        6.9621890812       12.2613709831
  C         9.6488643544        7.1465506365       13.1028002693
  C         9.7448801108        6.9634983450       14.4698193966
  C         4.3252419626        6.5106499101       15.0026318797
  C         5.4551101690        6.3726970246       14.1862750916
  C         5.3649365005        6.6609739104       12.8277082755
  C         6.7868793104        4.7925870815        2.3309907438
  C         7.9806357174        4.9955492891        1.6476556978
  C         2.5070883696        5.4322839334        2.3129520507
  C         9.0753889011        5.6053840065        3.6749128107
  C         7.8791185654        5.4355379829        4.3966130545
  C         6.6794130690        5.0852589929        3.7080841304
  C         7.5434351659        9.7243197822        8.5172437571
  C         8.3681197687       10.4975006844        9.3921893948
  C         6.6396407080       10.3809916459        7.7101901544
  C         9.0766250842        9.8904743712       10.4494032320
  C         9.8984066705       10.6184572586       11.2821733745
  C         4.4312667892        1.9309590348        8.3158604650
  C         3.4979104594        1.1688023275        7.6430173013
  C         5.3180207407        1.2915585083        9.2424083608
  C         6.2018773001        2.0113338909       10.0865961510
  C         6.9231667959        1.3725749943       11.0762799403
  N         4.5074993942        6.3285282622       16.3833415564
  N         7.8770820446        4.8879831703        0.2505884995
  N         6.4934294351        6.5848048702       11.9725242119
  N         5.4514373061        5.0476172724        4.2996864206
  O         6.6677049664        7.5204395558        8.6444444387
  O         9.0576480665        5.6501369432        6.4207051423
  O         3.4652775196        4.0905539538        8.4880610203
  O         4.6359858803        8.0696419914       10.2594424645
  O         5.5738163972        3.9093747444        7.6763490691
  O         3.1671583681        6.3095203648       10.1982232019
  O         8.8394376963        7.7747681536        8.1218258168
  O         6.7954812096        5.9388996158        6.4168747830
  O         4.5323952898        6.4870820473        7.8183362775
  O         7.8521711748        5.1634641003        8.7805227848
  F         2.5842832255        1.7678410785        6.8472468888
  F         5.7964177464        9.6806518028        6.9219005669
  O         5.6604967207        5.1145862793        9.9831829987
  H         4.6937071989        5.1656007792       10.1649843393
  H         6.1228953003        5.5991808648       10.7707760285
  C         3.7582807155        1.9839503643        1.8332187492
  H         2.9049697419        1.6877663467        1.2129320119
  H         4.4559330829        2.5738850303        1.2276235964
  H         4.2671657932        1.0924004841        2.2168944813
  H         3.3915530041        2.5892617197        2.6704716814
      68
 i =      212, E =      -435.8673893783
 Al         6.1902468864        5.7084381482        8.1782547117
 Al         9.4680167102        5.9521205322        8.2813303212
  H         4.6270388242        7.4357651879        8.0517534356
  H         7.9849837317        4.2031346769        8.8757085502
  H         8.7223439391        7.5146652333       12.6537910242
  H         8.9189471087        7.1762891051       15.1415664771
  H         6.3951902616        6.0579153713       14.6340844697
  H         5.9162143762        4.4633690266        1.7693164838
  H         3.3995287914        5.6726789898        1.7437038777
  H         3.3050718970        5.9559188543        4.2354052365
  H         8.9485688475        8.8231971982       10.5971615942
  H        10.4396593693       10.1181718456       12.0842702406
  H         6.2586499144        3.0911999069        9.9963834684
  H         7.5871838186        1.9537987602       11.7173917296
  H         6.5812869020        7.4310116171       11.3951696968
  H         7.3696743013        6.3923622870       12.4663489019
  H         5.3948957392        5.1783167254        5.3076874573
  H         4.7074273263        4.5303268012        3.8362093447
  C         7.6926796830        8.2291705161        8.4262672389
  C         7.9205593117        5.6810151481        5.8377855008
  C         4.4854438707        3.4199297193        8.1241344430
  C         3.9744591764        7.1692159476       10.7858986330
  C         4.1070664103        6.9629757705       12.2610324245
  C         9.6487005766        7.1476915899       13.1024506900
  C         9.7447811101        6.9647093148       14.4693167021
  C         4.3250201205        6.5117307744       15.0023221389
  C         5.4548431828        6.3739153814       14.1860614742
  C         5.3648638651        6.6618626302       12.8274111866
  C         6.7872896429        4.7938085368        2.3306637712
  C         7.9807267222        4.9975107479        1.6471596553
  C         2.5070268626        5.4353451082        2.3122337293
  C         9.0756871918        5.6075549845        3.6744419754
  C         7.8796466314        5.4364608526        4.3964028920
  C         6.6798567949        5.0862291708        3.7078915164
  C         7.5431228090        9.7239973637        8.5177797635
  C         8.3675509404       10.4970488873        9.3929316146
  C         6.6393944347       10.3808226605        7.7105358804
  C         9.0763823839        9.8905068113       10.4503777481
  C         9.8983295179       10.6189282242       11.2827041246
  C         4.4311105578        1.9306711222        8.3161100379
  C         3.4977348067        1.1686007986        7.6431575042
  C         5.3174060784        1.2910974546        9.2428496029
  C         6.2009418713        2.0112708790       10.0868386673
  C         6.9225778005        1.3731719724       11.0764875900
  N         4.5073213832        6.3292234924       16.3828817943
  N         7.8767166673        4.8900104715        0.2501183459
  N         6.4936598065        6.5854220804       11.9725446291
  N         5.4524033852        5.0479211767        4.2998507781
  O         6.6674188319        7.5203260700        8.6445881550
  O         9.0580889062        5.6501680287        6.4204059686
  O         3.4652219307        4.0904145028        8.4879609643
  O         4.6357855419        8.0697253220       10.2587120149
  O         5.5737913586        3.9093131960        7.6765429653
  O         3.1667929459        6.3095004695       10.1979241946
  O         8.8391852970        7.7745692905        8.1218538214
  O         6.7959678832        5.9388465556        6.4171079411
  O         4.5322925635        6.4872046735        7.8179697635
  O         7.8520563940        5.1632679585        8.7805186626
  F         2.5842186998        1.7678526787        6.8471801152
  F         5.7963210779        9.6805879543        6.9219155114
  O         5.6603257184        5.1146225851        9.9831234983
  H         4.6936593729        5.1652118815       10.1658038490
  H         6.1223848741        5.5997315466       10.7704933355
  C         3.7573160315        1.9856985535        1.8344192662
  H         2.9041517287        1.6893635923        1.2139370525
  H         4.4544034901        2.5759891344        1.2284136875
  H         4.2662292388        1.0940535219        2.2176136575
  H         3.3900900304        2.5907014796        2.6714898463
      68
 i =      213, E =      -435.8673927097
 Al         6.1903744274        5.7081587088        8.1779603549
 Al         9.4683645607        5.9518669151        8.2812019477
  H         4.6263304828        7.4352266032        8.0530956144
  H         7.9843984172        4.2029039266        8.8763174612
  H         8.7230132429        7.5162237673       12.6545782107
  H         8.9198994264        7.1774583408       15.1419510483
  H         6.3958467373        6.0582638068       14.6339264736
  H         5.9176470236        4.4637752616        1.7689658744
  H         3.4002219040        5.6754819391        1.7432631597
  H         3.3058788201        5.9580034491        4.2352008195
  H         8.9478242517        8.8231021989       10.5982912666
  H        10.4380812427       10.1186529668       12.0864507894
  H         6.2561753773        3.0914373951        9.9981627216
  H         7.5842543780        1.9546084331       11.7200568746
  H         6.5829860924        7.4314624071       11.3951147321
  H         7.3700490694        6.3920550048       12.4665938334
  H         5.3961544261        5.1784178238        5.3073208392
  H         4.7087006893        4.5304386700        3.8357779089
  C         7.6925789442        8.2290321710        8.4261866474
  C         7.9209585700        5.6814506718        5.8374069656
  C         4.4856691149        3.4196568993        8.1240243919
  C         3.9746843455        7.1694056548       10.7855678182
  C         4.1074488115        6.9638864037       12.2610075817
  C         9.6493460772        7.1488075157       13.1027350008
  C         9.7456555852        6.9658651215       14.4696358471
  C         4.3259478730        6.5123332629       15.0020686276
  C         5.4556507528        6.3745662322       14.1857045634
  C         5.3654440243        6.6627932333       12.8270258142
  C         6.7885926862        4.7943906868        2.3304632979
  C         7.9819114712        4.9983496469        1.6469266467
  C         2.5080154631        5.4369277073        2.3119302578
  C         9.0766375653        5.6092865496        3.6741851040
  C         7.8806302072        5.4375110221        4.3960761037
  C         6.6810329347        5.0867262175        3.7076106357
  C         7.5430725569        9.7236935057        8.5180367486
  C         8.3669992245       10.4967820242        9.3935769313
  C         6.6393122392       10.3805987500        7.7107189074
  C         9.0754773123        9.8904270089       10.4516389890
  C         9.8967620082       10.6191723464       11.2845903116
  C         4.4312370490        1.9304075072        8.3160392594
  C         3.4979282404        1.1682707661        7.6430907534
  C         5.3166587808        1.2907608610        9.2435028252
  C         6.1992243598        2.0113508374       10.0883753596
  C         6.9205016045        1.3736203422       11.0784495297
  N         4.5085614933        6.3295018811       16.3823873948
  N         7.8779405275        4.8902601115        0.2498566056
  N         6.4943171379        6.5857129165       11.9722017571
  N         5.4535016027        5.0482110120        4.2994724538
  O         6.6672535471        7.5202259725        8.6444270034
  O         9.0584655995        5.6502214570        6.4199774440
  O         3.4655583412        4.0901130054        8.4880493668
  O         4.6361440089        8.0697515886       10.2583250899
  O         5.5740044897        3.9092337890        7.6763863718
  O         3.1667783715        6.3097160032       10.1979145142
  O         8.8392016069        7.7744822479        8.1217446144
  O         6.7964652699        5.9387919704        6.4171646126
  O         4.5321021252        6.4869608650        7.8177786986
  O         7.8521664428        5.1630924528        8.7804581758
  F         2.5843400162        1.7677687938        6.8471601564
  F         5.7964024861        9.6805138516        6.9219436215
  O         5.6603756759        5.1143966931        9.9829335705
  H         4.6936645377        5.1648007131       10.1661204136
  H         6.1222185668        5.5998006207       10.7701108146
  C         3.7561414985        1.9893375734        1.8358625659
  H         2.9032810603        1.6928275417        1.2150016757
  H         4.4527988991        2.5797842243        1.2295090098
  H         4.2654428581        1.0977082542        2.2186242593
  H         3.3884935054        2.5940988842        2.6729067074
      68
 i =      214, E =      -435.8673955417
 Al         6.1902479945        5.7080606982        8.1778273861
 Al         9.4687852535        5.9518341115        8.2810782286
  H         4.6257292700        7.4347618188        8.0568760873
  H         7.9842529841        4.2028352090        8.8767863283
  H         8.7231785683        7.5182133430       12.6538703956
  H         8.9192273515        7.1793815940       15.1413775618
  H         6.3950122632        6.0594518561       14.6343551894
  H         5.9173344747        4.4655661674        1.7694092085
  H         3.3993952485        5.6801437403        1.7422216346
  H         3.3057612338        5.9618374218        4.2340924793
  H         8.9478307475        8.8233805879       10.5987317229
  H        10.4387681074       10.1194214880       12.0865401212
  H         6.2548947170        3.0918345996        9.9987735610
  H         7.5835937986        1.9553771586       11.7204149000
  H         6.5841543546        7.4317719418       11.3949926104
  H         7.3698425829        6.3921041495       12.4671750779
  H         5.3970249292        5.1800753975        5.3076209499
  H         4.7091040053        4.5319648497        3.8363116313
  C         7.6923856030        8.2289893010        8.4261958132
  C         7.9212943160        5.6822844330        5.8371055187
  C         4.4857202402        3.4195269305        8.1236689434
  C         3.9748744108        7.1693377791       10.7851738081
  C         4.1074077577        6.9647869622       12.2608219291
  C         9.6492331305        7.1503003707       13.1021518574
  C         9.7452919437        6.9680874345       14.4692652041
  C         4.3252688395        6.5141736354       15.0017942612
  C         5.4551528647        6.3761204401       14.1856000449
  C         5.3653961176        6.6639976648       12.8268832662
  C         6.7886170707        4.7960567461        2.3304342601
  C         7.9816588554        5.0007988972        1.6467825299
  C         2.5077380342        5.4401371937        2.3113271704
  C         9.0764990774        5.6122998653        3.6736141087
  C         7.8807872452        5.4396309035        4.3957918214
  C         6.6813371406        5.0883937406        3.7074837483
  C         7.5428830159        9.7235683742        8.5183095792
  C         8.3666599098       10.4968035788        9.3939559339
  C         6.6391542883       10.3804251841        7.7107125712
  C         9.0754983146        9.8906363879       10.4520452129
  C         9.8969458850       10.6196133531       11.2847225664
  C         4.4314198655        1.9302328386        8.3156381652
  C         3.4980881630        1.1679910997        7.6428482187
  C         5.3162979164        1.2906756847        9.2436171277
  C         6.1984934633        2.0116925455       10.0888506215
  C         6.9199424467        1.3741797801       11.0788739563
  N         4.5080288025        6.3304188841       16.3819726739
  N         7.8772814691        4.8926650762        0.2496476017
  N         6.4944427703        6.5861394721       11.9721781376
  N         5.4540902446        5.0492882354        4.2999510567
  O         6.6670709736        7.5200966988        8.6443845547
  O         9.0587757144        5.6501777058        6.4195441763
  O         3.4658237381        4.0898398904        8.4880328150
  O         4.6367485240        8.0694146160       10.2578577729
  O         5.5741465625        3.9093040226        7.6762274055
  O         3.1667549363        6.3096311542       10.1977694736
  O         8.8390145072        7.7743995251        8.1216688402
  O         6.7968051384        5.9389061025        6.4173110497
  O         4.5315701557        6.4871351235        7.8179822477
  O         7.8521389997        5.1629777473        8.7804822387
  F         2.5843948353        1.7677636035        6.8471306117
  F         5.7964201167        9.6804770320        6.9218583611
  O         5.6605683946        5.1141141819        9.9829271989
  H         4.6938866115        5.1638980537       10.1668466447
  H         6.1221136722        5.5997345815       10.7698234545
  C         3.7546132585        1.9916646675        1.8375083563
  H         2.9020038224        1.6948144427        1.2162903207
  H         4.4506770903        2.5823277346        1.2306078787
  H         4.2643503276        1.0999965813        2.2195632571
  H         3.3864363816        2.5960732444        2.6744432545
      68
 i =      215, E =      -435.8673976675
 Al         6.1903160061        5.7080968313        8.1778185877
 Al         9.4690587367        5.9519791069        8.2811329838
  H         4.6258457319        7.4344447134        8.0573509822
  H         7.9847300377        4.2029619152        8.8769864730
  H         8.7236897945        7.5191141731       12.6538933811
  H         8.9196324486        7.1798028743       15.1416836309
  H         6.3955065751        6.0598288143       14.6340022409
  H         5.9180156906        4.4656621756        1.7695145672
  H         3.3997595000        5.6811504767        1.7423744070
  H         3.3059689852        5.9637603985        4.2338074813
  H         8.9471030192        8.8235267405       10.5992688500
  H        10.4376315069       10.1196573651       12.0875878638
  H         6.2541947101        3.0920138615        9.9999428220
  H         7.5819510992        1.9553442653       11.7221219981
  H         6.5844983687        7.4317147436       11.3946077526
  H         7.3701084757        6.3922940781       12.4668709916
  H         5.3976232489        5.1796933244        5.3075259055
  H         4.7094890944        4.5322940188        3.8359101741
  C         7.6924552555        8.2289609024        8.4262370335
  C         7.9214602143        5.6826246769        5.8370629811
  C         4.4858710510        3.4194040169        8.1235270558
  C         3.9751659556        7.1695452376       10.7852563122
  C         4.1077516281        6.9653714440       12.2608225701
  C         9.6496887447        7.1510783999       13.1022970611
  C         9.7457803480        6.9688318466       14.4695518254
  C         4.3257453983        6.5146469523       15.0018492174
  C         5.4555767644        6.3765153722       14.1855041710
  C         5.3657002213        6.6645772861       12.8268266341
  C         6.7891938342        4.7965601225        2.3304325323
  C         7.9822786103        5.0010428110        1.6466977610
  C         2.5080251187        5.4410855556        2.3112875121
  C         9.0767939821        5.6138586035        3.6734631864
  C         7.8812321264        5.4404302307        4.3956140405
  C         6.6818078686        5.0890291533        3.7073687974
  C         7.5428913384        9.7235863626        8.5182864328
  C         8.3667027593       10.4968346679        9.3939825019
  C         6.6392114336       10.3803932462        7.7106343232
  C         9.0750617831        9.8906970125       10.4524860963
  C         9.8959672361       10.6196807494       11.2856462829
  C         4.4317354731        1.9300579330        8.3153591405
  C         3.4983300550        1.1679489962        7.6425557342
  C         5.3162594679        1.2906691600        9.2438079697
  C         6.1977038073        2.0118779555       10.0897694675
  C         6.9189533455        1.3742852550       11.0798442967
  N         4.5086962266        6.3308024987       16.3819718938
  N         7.8779443376        4.8926869428        0.2496051220
  N         6.4946533082        6.5862810764       11.9720115725
  N         5.4545022999        5.0493834973        4.2998056849
  O         6.6671535201        7.5199836348        8.6443307771
  O         9.0587832665        5.6503146965        6.4196522091
  O         3.4660758671        4.0894640107        8.4880432102
  O         4.6371865084        8.0693488327       10.2576772218
  O         5.5742837351        3.9093035924        7.6761251773
  O         3.1670303339        6.3098762337       10.1978179719
  O         8.8391047638        7.7745174512        8.1217486391
  O         6.7967060844        5.9389938906        6.4170426712
  O         4.5315207265        6.4870607846        7.8181326111
  O         7.8522822383        5.1630001369        8.7806243179
  F         2.5844651480        1.7677031205        6.8471062710
  F         5.7963752816        9.6804266539        6.9219980191
  O         5.6608652409        5.1139543948        9.9828521728
  H         4.6942639390        5.1636516039       10.1671672391
  H         6.1224067619        5.5997423817       10.7694605195
  C         3.7537169875        1.9939572283        1.8384373579
  H         2.9012187273        1.6971119415        1.2170449391
  H         4.4496250524        2.5847481159        1.2314970264
  H         4.2636974644        1.1024031426        2.2202682146
  H         3.3854439347        2.5981564162        2.6754713331
      68
 i =      216, E =      -435.8674000318
 Al         6.1903647307        5.7082414512        8.1776213671
 Al         9.4693590868        5.9522841812        8.2812339777
  H         4.6263457068        7.4338835432        8.0603647436
  H         7.9857331618        4.2032760970        8.8770946543
  H         8.7240233606        7.5209327410       12.6530249591
  H         8.9194148256        7.1816920742       15.1415175556
  H         6.3953929849        6.0611705006       14.6338339107
  H         5.9181270824        4.4668041647        1.7697541282
  H         3.3992955682        5.6843817739        1.7419647762
  H         3.3056537487        5.9682619770        4.2328011612
  H         8.9468642825        8.8239686927       10.5998283913
  H        10.4374254911       10.1202166812       12.0876882277
  H         6.2533309676        3.0924431944       10.0010923965
  H         7.5805478290        1.9556263889       11.7233693361
  H         6.5842472820        7.4317865451       11.3939945442
  H         7.3701383951        6.3929171862       12.4664872978
  H         5.3981748081        5.1801106642        5.3076971444
  H         4.7094781305        4.5337732397        3.8355613667
  C         7.6925638825        8.2289666100        8.4262985936
  C         7.9216096952        5.6836204013        5.8370020288
  C         4.4860865627        3.4193756965        8.1233078010
  C         3.9754212883        7.1699715218       10.7852356768
  C         4.1078818913        6.9666810719       12.2606101746
  C         9.6498201024        7.1529454055       13.1020904714
  C         9.7457833575        6.9710709210       14.4695566364
  C         4.3256339448        6.5164673608       15.0017601356
  C         5.4555397071        6.3779262605       14.1854533822
  C         5.3656910090        6.6657851182       12.8267800510
  C         6.7891571492        4.7983417051        2.3304477759
  C         7.9821064442        5.0031175832        1.6464488447
  C         2.5076012680        5.4441968042        2.3107342803
  C         9.0766311464        5.6174455388        3.6727932631
  C         7.8813959944        5.4428138525        4.3951869184
  C         6.6819659953        5.0906942042        3.7072935682
  C         7.5428904759        9.7237519758        8.5183790290
  C         8.3668264829       10.4971446766        9.3940676281
  C         6.6393593103       10.3803855211        7.7104993136
  C         9.0750770884        9.8910264475       10.4525781835
  C         9.8956495271       10.6200114768       11.2858459766
  C         4.4320331064        1.9299707641        8.3149782470
  C         3.4985362482        1.1679935905        7.6422321273
  C         5.3163002620        1.2909670136        9.2438966034
  C         6.1970265268        2.0123705799       10.0904282091
  C         6.9181307986        1.3746700155       11.0805675106
  N         4.5086560717        6.3321099332       16.3818275913
  N         7.8779636245        4.8943344523        0.2495170239
  N         6.4945453671        6.5867264537       11.9719756115
  N         5.4547555803        5.0499669149        4.2999687810
  O         6.6673460759        7.5198032323        8.6442549994
  O         9.0585430490        5.6503891142        6.4200209106
  O         3.4663584649        4.0890086646        8.4881952109
  O         4.6377525877        8.0692155849       10.2569801568
  O         5.5744976396        3.9093784276        7.6759591191
  O         3.1674286528        6.3099880247       10.1980498707
  O         8.8391335870        7.7746781835        8.1218038553
  O         6.7963777149        5.9391612326        6.4166387352
  O         4.5314161450        6.4872162794        7.8183131364
  O         7.8523854456        5.1631132148        8.7806419320
  F         2.5845090770        1.7676719007        6.8471775209
  F         5.7964153365        9.6804440053        6.9219964155
  O         5.6614794494        5.1137853488        9.9829572290
  H         4.6950772096        5.1630832093       10.1681347150
  H         6.1229854299        5.5999773733       10.7691050406
  C         3.7516715963        1.9973270171        1.8402292951
  H         2.8992566468        1.7004196218        1.2187752037
  H         4.4471849964        2.5885067159        1.2332889510
  H         4.2623227747        1.1059718825        2.2216658970
  H         3.3832261023        2.6011370836        2.6774689775
      68
 i =      217, E =      -435.8674018609
 Al         6.1906217937        5.7081957861        8.1777000329
 Al         9.4693993486        5.9524049584        8.2812116948
  H         4.6270097351        7.4338827836        8.0587982715
  H         7.9865123182        4.2033690171        8.8770181713
  H         8.7237679596        7.5206258303       12.6526574121
  H         8.9192792545        7.1815245049       15.1414090335
  H         6.3952279616        6.0612041857       14.6336941346
  H         5.9178443868        4.4661035269        1.7698543181
  H         3.3990544785        5.6836950233        1.7414786615
  H         3.3053584948        5.9691822632        4.2321474938
  H         8.9466944479        8.8239634171       10.5998232843
  H        10.4375310275       10.1198062648       12.0872662392
  H         6.2544904490        3.0921581772       10.0004499468
  H         7.5811973430        1.9551198244       11.7229484050
  H         6.5833485416        7.4318271658       11.3936422780
  H         7.3701257748        6.3934917533       12.4660736801
  H         5.3978504407        5.1799435482        5.3077940924
  H         4.7092390630        4.5338827156        3.8354971968
  C         7.6927813668        8.2289030836        8.4262421757
  C         7.9216175296        5.6837604734        5.8370587268
  C         4.4864991545        3.4192156011        8.1232426371
  C         3.9753381740        7.1700587916       10.7852269293
  C         4.1078270962        6.9666589429       12.2605186148
  C         9.6497109032        7.1530146994       13.1019103307
  C         9.7455411220        6.9707971306       14.4693682404
  C         4.3253727116        6.5163629056       15.0018137656
  C         5.4553087497        6.3779322134       14.1854708684
  C         5.3655723059        6.6656955328       12.8268290819
  C         6.7888482424        4.7981550512        2.3303046254
  C         7.9818798020        5.0028872378        1.6463706056
  C         2.5073187945        5.4444167318        2.3104782284
  C         9.0762601113        5.6179522657        3.6724688851
  C         7.8811202992        5.4432526862        4.3950638504
  C         6.6816572741        5.0909745146        3.7071232357
  C         7.5431213833        9.7237410278        8.5180998949
  C         8.3673434265       10.4970278891        9.3936297853
  C         6.6396281336       10.3804145849        7.7103291534
  C         9.0752825629        9.8909097281       10.4522485763
  C         9.8960090670       10.6197342714       11.2853924687
  C         4.4325588026        1.9298428177        8.3146334727
  C         3.4988014945        1.1680733167        7.6420565878
  C         5.3170815621        1.2908485126        9.2433482946
  C         6.1978754289        2.0121102155       10.0897855517
  C         6.9188681450        1.3743006100       11.0799628131
  N         4.5082164837        6.3323439203       16.3818979755
  N         7.8776308940        4.8937277564        0.2495520192
  N         6.4943761946        6.5869952283       11.9719662448
  N         5.4546403322        5.0499002732        4.3000385473
  O         6.6675455293        7.5197696408        8.6442299062
  O         9.0585688210        5.6505176042        6.4200870821
  O         3.4666876630        4.0885741739        8.4881897536
  O         4.6376808721        8.0691291824       10.2567385885
  O         5.5748002617        3.9093443956        7.6759542275
  O         3.1674586351        6.3098847928       10.1980233134
  O         8.8393442851        7.7746584185        8.1218776118
  O         6.7963832364        5.9392713780        6.4166459676
  O         4.5317983020        6.4870188990        7.8182697577
  O         7.8525721086        5.1631343277        8.7806261961
  F         2.5845663688        1.7676769885        6.8472315104
  F         5.7964370021        9.6804773787        6.9220006354
  O         5.6616709287        5.1137262720        9.9831673788
  H         4.6953925537        5.1630702278       10.1687236497
  H         6.1235036299        5.6001745309       10.7689441320
  C         3.7514070592        1.9971020904        1.8403680247
  H         2.8989256996        1.7002101855        1.2189468867
  H         4.4470044014        2.5883332847        1.2334952936
  H         4.2621622855        1.1057724357        2.2217935067
  H         3.3830575788        2.6008233104        2.6777309417
      68
 i =      218, E =      -435.8674018225
 Al         6.1906217937        5.7081957861        8.1777000329
 Al         9.4693993486        5.9524049584        8.2812116948
  H         4.6270097351        7.4338827836        8.0587982715
  H         7.9865123182        4.2033690171        8.8770181713
  H         8.7237679596        7.5206258303       12.6526574121
  H         8.9192792545        7.1815245049       15.1414090335
  H         6.3952279616        6.0612041857       14.6336941346
  H         5.9178443868        4.4661035269        1.7698543181
  H         3.3990544785        5.6836950233        1.7414786615
  H         3.3053584948        5.9691822632        4.2321474938
  H         8.9466944479        8.8239634171       10.5998232843
  H        10.4375310275       10.1198062648       12.0872662392
  H         6.2544904490        3.0921581772       10.0004499468
  H         7.5811973430        1.9551198244       11.7229484050
  H         6.5833485416        7.4318271658       11.3936422780
  H         7.3701257748        6.3934917533       12.4660736801
  H         5.3978504407        5.1799435482        5.3077940924
  H         4.7092390630        4.5338827156        3.8354971968
  C         7.6927813668        8.2289030836        8.4262421757
  C         7.9216175296        5.6837604734        5.8370587268
  C         4.4864991545        3.4192156011        8.1232426371
  C         3.9753381740        7.1700587916       10.7852269293
  C         4.1078270962        6.9666589429       12.2605186148
  C         9.6497109032        7.1530146994       13.1019103307
  C         9.7455411220        6.9707971306       14.4693682404
  C         4.3253727116        6.5163629056       15.0018137656
  C         5.4553087497        6.3779322134       14.1854708684
  C         5.3655723059        6.6656955328       12.8268290819
  C         6.7888482424        4.7981550512        2.3303046254
  C         7.9818798020        5.0028872378        1.6463706056
  C         2.5073187945        5.4444167318        2.3104782284
  C         9.0762601113        5.6179522657        3.6724688851
  C         7.8811202992        5.4432526862        4.3950638504
  C         6.6816572741        5.0909745146        3.7071232357
  C         7.5431213833        9.7237410278        8.5180998949
  C         8.3673434265       10.4970278891        9.3936297853
  C         6.6396281336       10.3804145849        7.7103291534
  C         9.0752825629        9.8909097281       10.4522485763
  C         9.8960090670       10.6197342714       11.2853924687
  C         4.4325588026        1.9298428177        8.3146334727
  C         3.4988014945        1.1680733167        7.6420565878
  C         5.3170815621        1.2908485126        9.2433482946
  C         6.1978754289        2.0121102155       10.0897855517
  C         6.9188681450        1.3743006100       11.0799628131
  N         4.5082164837        6.3323439203       16.3818979755
  N         7.8776308940        4.8937277564        0.2495520192
  N         6.4943761946        6.5869952283       11.9719662448
  N         5.4546403322        5.0499002732        4.3000385473
  O         6.6675455293        7.5197696408        8.6442299062
  O         9.0585688210        5.6505176042        6.4200870821
  O         3.4666876630        4.0885741739        8.4881897536
  O         4.6376808721        8.0691291824       10.2567385885
  O         5.5748002617        3.9093443956        7.6759542275
  O         3.1674586351        6.3098847928       10.1980233134
  O         8.8393442851        7.7746584185        8.1218776118
  O         6.7963832364        5.9392713780        6.4166459676
  O         4.5317983020        6.4870188990        7.8182697577
  O         7.8525721086        5.1631343277        8.7806261961
  F         2.5845663688        1.7676769885        6.8472315104
  F         5.7964370021        9.6804773787        6.9220006354
  O         5.6616709287        5.1137262720        9.9831673788
  H         4.6953925537        5.1630702278       10.1687236497
  H         6.1235036299        5.6001745309       10.7689441320
  C         3.7514070592        1.9971020904        1.8403680247
  H         2.8989256996        1.7002101855        1.2189468867
  H         4.4470044014        2.5883332847        1.2334952936
  H         4.2621622855        1.1057724357        2.2217935067
  H         3.3830575788        2.6008233104        2.6777309417
