89
52ef7e9 s1 final converged frame
Al        -1.9846486927       7.6602566826      11.4184448132
Al        -0.0051912147      -7.2979650995      20.1860466673
H         -0.0235843395      -5.3799148080      17.2376495859
H         -0.6775753839      -3.3323500450      15.9460886752
H          2.6022683560      -1.2734760463      17.6809231639
H          3.2252072603      -3.3127782012      19.0041773880
H          3.6368194672       0.1073037205      14.0674266228
H          0.3094260852       1.5679893493      16.2369294693
H          0.9809914302       3.9136986930      15.6472879289
H          4.1963582828       2.4432944197      13.2929988417
H          0.1127972420     -11.0157712413      19.9432659351
H         -0.2681119855      14.6952215829      18.7633405195
H          3.1389235840      15.4384021795      16.3621832959
H          3.5308377010     -10.2567466046      17.5411215918
H          2.1094006635      11.5879979705      16.8376077578
H         -1.1161890796      12.6616907088      14.3190916544
H         -0.2795483881      11.0140272493      12.5871305315
H          2.7920032049       9.7517141654      15.2080044500
H          1.0032045635      -4.8141954365      23.8583057875
H          1.7108529500       9.3943227449       2.1828322409
H          4.8657050202       6.7170779957       1.5472469482
H          4.0408987142      -7.6857466235      23.3669824711
H          4.8630749260      10.2340156436       6.1786749483
H          1.6896317870       7.8721675482       4.5997256456
H          0.9451888650       7.2676894574       6.9117562385
H          4.1851191452       9.5077859124       8.4975217150
C          2.2865544101       8.0084872421       9.2107939124
C          2.8877169974       4.7384500094      14.2248183829
C          1.7379270121       9.4677277760      12.7306610298
C          1.9337005680      -5.7263303442      18.8766864876
C          1.9691906196      -9.2104997040      19.4897918021
C          2.0436342592      -6.8322267683      22.1864536031
C          1.6868853174      -4.5147316873      18.0822171306
C          0.5843682921      -4.4828013419      17.2772291323
C          0.1074273310      -3.3025283008      16.6973354191
C          0.9156432427      -2.1594914084      16.8064293613
C          1.9861238376      -2.1690411522      17.6524388936
C          2.4556786644      -3.3439206854      18.2387689399
C          2.9910403751       0.9518075345      14.2898144658
C          1.9116406759       0.6995339364      15.0826145845
C          1.0918367316       1.7673083852      15.5073339873
C          1.5639850809       3.0609482172      15.3111594706
C          2.6538519892       3.3251968954      14.5302485209
C          3.4192424383       2.2558823653      14.0270562498
C          1.8585065953     -10.5326661223      18.8669704836
C          0.8204819895      16.5117791847      19.1985710538
C          0.5430893660      15.3585130283      18.4740988332
C          1.3999836409      14.9921589710      17.4336186080
C          2.4475232803      15.8141731123      17.1096238538
C          2.7163022941      16.9645091567      17.8317665336
C          1.5153501402      11.3456272769      15.9591936669
C          0.4304601542      12.1210355064      15.7097865618
C         -0.3697435808      11.9089048013      14.5647741120
C          0.2228650728      11.1513252300      13.5390563289
C          1.3487032970      10.4182330274      13.7523208723
C          2.0629933249      10.5210616264      14.9679354348
C          2.3942056525      -6.4341251552      23.5614221270
C          1.6422529204       8.4110423802       0.2380783179
C          2.2946669160       8.8544260054       1.4360738040
C          3.4493706762       8.2925170173       1.8580448357
C          4.2374789344       7.4354029748       1.0182681428
C          3.5528418304       6.9664054775      -0.1263306488
C          4.0957761238       9.4821506282       6.3454887725
C          3.3567096292       8.9643214213       5.2697550514
C          2.2602650167       8.1884963887       5.4719362983
C          1.7248217189       8.0077507848       6.7509448918
C          2.5069697645       8.4417282614       7.8389253751
C          3.5983762244       9.2338302207       7.6263233384
N          0.6972497696      -0.9961645689      16.0224495665
N          1.8465698664      -0.5861406989      15.6333398305
N          1.3614815423      13.8031130165      16.7029011881
N          0.2081668336      13.2889285091      16.4978635918
N          3.6939336097       8.2282969197       3.2265319133
N          3.6346192943       9.2799094330       3.9177745421
O          2.7353041980       8.6690673029      12.8845405824
O          3.1113102188       8.4051449338      10.1163963147
O          3.9914300683       4.9370314253      13.4183377947
O          1.0237826040       9.2968872911      11.6755880169
O          2.2073348471       5.6566272712      14.6236286184
O          1.3248824158       7.2493937651       9.6002680097
O          2.8906850455      -7.6292526047      21.6462460864
O          2.9537152652      -5.7618471459      19.6457177635
O          2.9557195360      -8.4847142828      19.1193095006
O          1.0145708788      -6.3618549062      21.5952761752
O          1.0387039899      -8.8699002401      20.3086293326
O          1.0438139996      -6.6489004984      18.7795112227
O         -1.0397897372       6.0027984453      11.7195471441
C         -0.0696842847       6.0039646259      12.5287483969
O          0.8755214488       6.8124446813      12.6030771223
