159
91692c9 s0_to_s1 A (s0 augmented)
  Al        5.0450995511        2.8190719728       14.1108950031
  Al        8.2736023587        2.9730879823       14.1396475548
  Al        6.7571569372        5.5655513494       14.1325145980
  Al       -0.1073868108        5.7512785372       28.2375980623
  Al       -1.5793675938        8.6584712132        0.0305502791
  Al        1.4218438876        8.6516084844        0.0286362519
  H        -2.0818835579        4.1003051040       20.3416773338
  H         4.3010197797        8.1094080604       20.3488451140
  H        -2.2987734945       11.5364786300       20.3645384991
  H         4.6274287697        0.2843406470        6.2016166539
  H         4.8532964226        7.8378343341        6.2202802948
  H        11.1278594623        3.8335568039        6.2477354378
  H         3.0490485844        1.9078043795       14.9045229746
  H        -0.0347269342        3.6259462433        0.8619359418
  C         4.7517131276        5.1910921086       16.0059645642
  C        -0.0661540545       11.6364586160        5.6509156079
  C         3.2656439504        6.1435768562        5.7288805000
  C        -3.3019880678        6.0793937365        5.7925175780
  C         9.9682585372        4.8372834726       21.7928653790
  C         4.5843256310        6.2707407729       21.8337521662
  C         6.0618472941        0.7766531580       21.8918236431
  C        -0.8197485802       11.0607167809        7.6682346657
  C         3.1153906870        7.1654392478        7.7022689798
  C        -2.3638367404        5.6406973872        7.7723752661
  C         8.9818041941        5.6785787156       20.8953092634
  C         6.9636660606        1.4700280130       16.0629821091
  C         4.3415287771        4.9730685122       20.9734451295
  C         7.3255256069        1.2220446912       21.0777519605
  C         0.4127970616       10.6307715962        6.7942924176
  C         2.1346581146        6.2726142656        6.8438759923
  C        -2.6214616298        6.9509101013        6.9405320707
  C        -3.0493356761        6.3735358341       23.8485983430
  C         2.9093979479        6.2104820872       23.9209658087
  C        -0.0394696807       11.2238534783       24.0031364771
  C         7.0370279135        0.5946557546        9.7390296541
  C         3.9043334380        5.7041764365        9.8096298260
  C         8.9197063703        5.0846015090       15.9471305075
  C         9.7547409765        5.6544524509        9.8793163839
  C         9.8131609862        5.5622460011       18.3908150097
  C         3.9563488768        5.7199157638       18.4714319811
  C         6.9489327142        0.5456333170       18.5464470475
  C        -0.0895170045       11.2933849574        4.2848603329
  C         2.9973611896        6.3035941356        4.3546383916
  C        -3.0371973553        6.2754866896        4.4201920199
  C         4.7549273208        5.1585859566       12.2423723291
  C         6.9598387863        1.4502961599       12.2417908035
  C         8.9121072746        5.0889960438       12.3116744748
  C         2.1195857758        6.7340566176        1.8972020738
  C         2.0534570877        6.6741635400       26.3741551710
  C        -2.2545037040        6.7216581307       26.3526866843
  C        -0.0897265846       10.2300489235       26.4483152659
  C        -3.1597925854        7.1099115539       20.4287183248
  C         2.2707984878        5.6491712809       20.5471311068
  C         0.8373752849       11.0001623852       20.6339651923
  C         7.7658244976        0.8687454176        6.3321804381
  C         3.7917535174        4.8302480787        6.4544260377
  C         9.0818670785        6.2756423875        6.5188858614
  C         9.5128040828        7.0118565322       21.5392483571
  C        -2.2315423133        6.7721142607        1.9470132375
  C         2.9440787177        4.7642224689       21.6577706850
  C         8.1931401631        0.1125809664       21.7735319751
  C         1.2908442434       11.7594963827        7.4478534824
  C         2.6644644226        4.9696788465        7.5527095458
  C        -4.0156863387        7.1460035328        7.6391694398
  C        -2.7734676743        6.5133324026       25.0256796471
  C         2.6233087272        6.4103229303       25.0848016781
  C        -0.0770911407       10.8738529935       25.1685248193
  C         7.0214160112        0.8955466057       10.9173726575
  C         4.2212963761        5.5401876372       10.9699041345
  C        -0.0798464335       10.2740522980        1.8510567831
  C         9.4746905765        5.4355564565       11.0425257571
  C         9.4835789197        5.4043013718       17.2283947310
  C         4.2409705689        5.5291218966       17.3047901859
  C         7.0005608154        0.8876679185       17.3797609412
  C        -0.0804595102       10.9344323799        3.1219936438
  C         2.6886127070        6.4670243728        3.1896621707
  C        -2.7721067921        6.5107120755        3.2558298185
  C        -2.1970447388        6.2464006970       21.3338009389
  C         2.5316953619        6.9392872102       21.4114655815
  C        -0.4355382242       10.5629364665       21.4586696757
  C        10.1013181037        5.7614396254       19.7592721372
  C         6.5257611458        1.2678770410        7.2139794321
  C         4.7567741481        5.7357410830        7.3166692519
  C         9.3634265087        4.9626609230        7.3529394598
  C        -3.3030633125        6.1781381737       22.4754018342
  C         3.1890593693        6.0488688500       22.5540528909
  C        -0.0140365120       11.5628892134       22.6373741510
  C         7.0104094845        0.2819988785        8.3668306970
  C         3.6350627574        5.8593017592        8.4422634715
  C        10.0272787407        5.8406743266        8.5132711958
  C        -2.7089740832        4.9209148513       20.6926760554
  C         3.6745288286        5.8737524569       19.8425267115
  C         3.9196215637        7.1637178230       20.7358521273
  C        -1.2965676768       11.6688771627       20.7739252960
  C         5.6479117534        0.1585229775        6.5652590181
  C         4.2364825261        7.0311046919        6.6181865850
  C        10.7478462575        4.7694477049        6.6595592674
  C         6.9115270540        0.2159041781       19.9181919368
  O         5.8279733575        1.7489474223       15.5950575896
  O         1.3149491865        5.8820042268        1.4312726470
  O        -2.6039413917        7.8615293522        1.3629595722
  O         1.0606322434        9.9774970402        1.3531805891
  O         5.8177782019        1.6918521726       12.7161710218
  O         9.2360761389        3.9543810186       12.8056403037
  O         5.5322540857        6.0160241121       12.8141988073
  O        -1.4634670270        5.8499958163       26.8041050471
  O        -1.2321628859        9.9454353479       26.9507354764
  O         2.4114808119        7.7722618421       26.9496961196
  O         4.4583071500        4.0076053168       12.6555630462
  O         9.2446300299        3.9545513761       15.4402428412
  O         8.0977895815        1.6963852334       12.8046590936
  O         8.0796253931        5.9246803547       12.8089155705
  O         1.2204483394        5.8342893104       26.8046779499
  O        -2.6156980058        7.8150217350       26.9423901151
  O         1.0503741863        9.9388627016       26.9535617378
  O         6.7145706923        3.8036277446       14.1484142029
  O        -0.0793170741        7.7273222869        0.0084179911
  O         5.5622085381        6.0513708373       15.4856934386
  O        -1.4012989732        5.9337657187        1.5047698043
  O        -1.2220059475        9.9799478078        1.3533188154
  O         2.4519848319        7.8603490225        1.3571941576
  O         4.4112887533        4.0793285776       15.5149752058
  O         8.1036567575        1.6979242914       15.5001050182
  O         8.0938671345        5.9219059860       15.4428292933
  O         3.5583844928        1.9052282146       14.0827190931
  O        -0.1484803382        4.0071349096       28.2319020017
  F         8.7577444688        8.0348123184       21.9842552664
  F         8.5682821453        1.7103222148        5.6465141959
  F         4.1164528673        3.6947414734        5.7979565706
  F         7.9389938072        6.6004629814        5.8734804099
  F         7.6972222308        5.3896997787       20.6291554690
  F         5.2233506262        3.9966824147       20.7043606446
  F         7.7144221813        2.4873322904       20.8543788588
  F         0.8022109868        9.3710703757        6.5485249798
  F         0.8473940259        6.5347540554        6.5503823672
  F        -1.7221024805        7.9225812630        6.7003543014
  F         9.6596245406        3.7353418690       22.5094020875
  F         2.4612558387        3.5998495439       22.1351493450
  F         5.7081702795        6.5771886333       22.5125098988
  F         5.2219326356        1.6216751571       22.5167082621
  F        -1.6215844263       10.2297739493        8.3592539075
  F         2.7950846921        8.3100534872        8.3542643705
  F        -1.2188490617        5.3417198389        8.4289490496
  F        -0.9103497704        6.5134216637       21.6076738556
  F         1.6345057182        7.9045511539       21.6838161634
  F        -0.8521098473        9.2961035149       21.6829111091
  F         6.1065279173        2.5176991274        7.4565181194
  F         6.0536094102        5.4747988401        7.6039977494
  F         9.4357662680        0.2944861279       22.2815551485
  F         8.4864212315        3.9635331398        7.6032107289
  F         2.5520732911       11.6215465481        7.9047023325
  F         1.9019882500        3.9661823904        8.0502302185
  F        -4.4823100979        8.3141505546        8.1310827676
  F        -2.8432123819        8.2260149186       19.7296880435
  F         1.1487099369        5.3250065657       19.8749695706
  F         1.6770068510       10.2064896732       19.9488954536
  O         6.2975078875       11.3933975011       17.8358125153
  O         8.3111650818       10.2411888813       17.8358125153
  C         7.3043364847       10.8172931912       17.8358125153
