159
91692c9 s1 final converged frame
Al         5.0532621684       2.7465502717      14.1285828103
Al         8.2547074807       2.9186507382      14.1477902031
Al         6.7289693541       5.5415205425      14.1648276320
Al        -0.1078185453       5.7518691647      28.2381583419
Al        -1.5798593566       8.6578459996       0.0309786160
Al         1.4211344065       8.6520453715       0.0332359034
H         -2.0774094945       4.0998799034      20.3523466965
H          4.3252571841       8.0835196575      20.3405142756
H         -2.2970721333      11.5308184582      20.3763195686
H          4.6012024038       0.3008789807       6.2143366680
H          4.8526327039       7.8408370679       6.2468557909
H         11.1439763937       3.8272551860       6.2383931032
H          3.1271060969       1.7235488820      14.9317126926
H         -0.0479337412       3.6293786257       0.8657696758
C          4.6925383748       5.0676154261      16.0460889335
C         -0.0954023524      11.6668820200       5.6365678570
C          3.2666438694       6.1448241290       5.7402871578
C         -3.2915663531       6.0753778270       5.7953649834
C          9.9692688713       4.8375170540      21.7977200638
C          4.6173402293       6.2682135277      21.8557407173
C          6.0632947671       0.7751447397      21.8996585592
C         -0.8272975040      11.0771179780       7.6605960278
C          3.1114896551       7.1668220092       7.7169453242
C         -2.3684751414       5.6233780104       7.7805772769
C          8.9836550133       5.6764522906      20.8973218857
C          6.9453873212       1.4093022944      16.0820028763
C          4.3726064907       4.9562127664      21.0198298442
C          7.3269149105       1.2197811945      21.0847323304
C          0.3976928680      10.6508847320       6.7738801132
C          2.1326794336       6.2757577868       6.8542167827
C         -2.6249634119       6.9385982845       6.9632121907
C         -3.0516945910       6.3776336891      23.8508691147
C          2.9317548947       6.2197231132      23.9395543025
C         -0.0361619421      11.2286518293      24.0120419234
C          7.0511073754       0.5854308093       9.7312283358
C          3.8792341841       5.6837535283       9.8382915892
C          8.9347350335       4.9769540562      15.9731648852
C          9.7201995520       5.5978167694       9.8744276267
C          9.8288962806       5.5227249273      18.4008941536
C          3.9541031423       5.6581826182      18.5102380409
C          6.9517011216       0.5131234314      18.5635692707
C         -0.1215457195      11.3262549394       4.2698742755
C          2.9980148072       6.3042450695       4.3643013876
C         -3.0237887712       6.2766608684       4.4248249891
C          4.6986233643       5.0601361251      12.2688496009
C          6.9912590374       1.3861576914      12.2486864641
C          8.8592902609       4.9963041808      12.2979512747
C          2.1187017637       6.7344117696       1.9035020217
C          2.0571396674       6.6739635817      26.3834996892
C         -2.2549871604       6.7220391210      26.3538383329
C         -0.0895155673      10.2320778710      26.4532293070
C         -3.1579954106       7.1074310353      20.4286631729
C          2.2861930088       5.6303157268      20.5768555541
C          0.8390117037      10.9952836048      20.6463793247
C          7.7355891375       0.9059160709       6.3186105420
C          3.7889189992       4.8379814145       6.4836189910
C          9.0854222657       6.2566073498       6.5149198556
C          9.5134072304       7.0111684466      21.5389968456
C         -2.2289450090       6.7732789157       1.9486303374
C          2.9628602367       4.7523843045      21.7012336472
C          8.1953601961       0.1111930060      21.7809289300
C          1.2768632273      11.7827607131       7.4147259957
C          2.6603545946       4.9777139884       7.5694706312
C         -4.0265684601       7.1100655885       7.6471116762
C         -2.7750652470       6.5146222425      25.0279166350
C          2.6385005139       6.4086823748      25.1022857008
C         -0.0760202354      10.8811680377      25.1776110256
C          7.0494481341       0.8517502366      10.9171620311
C          4.1699560506       5.4570940927      10.9958603559
C         -0.0824744600      10.2812970622       1.8475739238
C          9.4146049382       5.3539480721      11.0263339737
C          9.5131970410       5.3068855178      17.2449301585
C          4.1982888073       5.4273005641      17.3429670496
C          7.0065114421       0.8259755635      17.3911859526
C         -0.0908278637      10.9570809562       3.1104202225
C          2.6848779495       6.4691226848       3.1997625953
C         -2.7636764051       6.5138380306       3.2597758673
C         -2.1956851967       6.2469383480      21.3380177940
C          2.5507517341       6.9326320325      21.4252234601
C         -0.4337966198      10.5589094548      21.4698561192
C         10.1065506931       5.7542961421      19.7649127452
C          6.5019549078       1.3005596044       7.2147636709
C          4.7521938306       5.7404005366       7.3405063584
C          9.3653869962       4.9418344873       7.3429603939
C         -3.3036991810       6.1807772762      22.4781918839
C          3.2166434169       6.0561994108      22.5762371313
C         -0.0115206683      11.5631694293      22.6466054728
C          7.0065584998       0.3010950619       8.3552659831
C          3.6270749594       5.8640207914       8.4687798757
C         10.0174043099       5.8056712163       8.5154433300
C         -2.7055402496       4.9200815870      20.7021921461
C          3.6948254797       5.8399556765      19.8794527116
C          3.9436270106       7.1462558991      20.7474084301
C         -1.2955503127      11.6635382630      20.7870168446
C          5.6260875932       0.1822114950       6.5685141128
C          4.2337600479       7.0317762918       6.6368614663
C         10.7559122118       4.7575107421       6.6556184517
C          6.9120210694       0.2064146180      19.9347956169
O          5.7969554583       1.6936592290      15.6507183654
O          1.3161333216       5.8822876347       1.4337005938
O         -2.6037279959       7.8613219791       1.3636667181
O          1.0590801465       9.9791993711       1.3549073001
O          5.8499955469       1.6231808939      12.7244950278
O          9.2109058984       3.8791249775      12.8035779519
O          5.4208895432       5.9390159608      12.8768751490
O         -1.4634278045       5.8504079705      26.8043836150
O         -1.2326403391       9.9450578338      26.9523257850
O          2.4114496385       7.7748685514      26.9545381139
O          4.4534088196       3.8868933302      12.6514556101
O          9.2797474312       3.8686429171      15.4354780801
O          8.1286546067       1.6278052596      12.8123749748
O          8.0106347738       5.8076303301      12.7966729577
O          1.2201235523       5.8347855969      26.8070365254
O         -2.6159373906       7.8154431182      26.9435559047
O          1.0507597474       9.9384207646      26.9559716028
O          6.6890966109       3.7500885082      14.1577564343
O         -0.0795261197       7.7272027606       0.0093993287
O          5.4910831808       5.9276261596      15.5109983182
O         -1.4008603447       5.9336231094       1.5046181901
O         -1.2234744632       9.9799944520       1.3522244323
O          2.4519790409       7.8596711456       1.3606445320
O          4.3503064219       3.9504842725      15.5748445770
O          8.0709602004       1.6355801745      15.4958266914
O          8.0781469536       5.7972277174      15.5071126765
O          3.5780116062       1.8229119836      14.0821806123
O         -0.1480476600       4.0075713808      28.2327670982
F          8.7578162974       8.0345975527      21.9838529540
F          8.5273184278       1.7718501857       5.6465312640
F          4.1178791937       3.6884320353       5.8668900346
F          7.9424341466       6.5986479209       5.8741066106
F          7.6987930158       5.3895927661      20.6286700731
F          5.2913142905       4.0006499792      20.7787531151
F          7.7142420659       2.4851650695      20.8543626530
F          0.7979916646       9.3830400025       6.5475060458
F          0.8471873407       6.5351493111       6.5512619118
F         -1.7235411341       7.9206732130       6.7735071725
F          9.6595589590       3.7344467533      22.5104069308
F          2.4646105120       3.6040956209      22.2086965192
F          5.7681393847       6.5747933977      22.5078710866
F          5.2214552061       1.6219911584      22.5181801654
F         -1.6183081229      10.2345669090       8.3572209102
F          2.7933009265       8.3152593875       8.3569079595
F         -1.2172908916       5.3402784038       8.4307351859
F         -0.9088643046       6.5140833759      21.6082120060
F          1.6416957020       7.8987986163      21.6832622314
F         -0.8528974850       9.2929360649      21.6846954524
F          6.0779328263       2.5603333380       7.4547629405
F          6.0530221897       5.4755225013       7.6055356802
F          9.4384501876       0.2947772548      22.2834446678
F          8.4822150805       3.9552934325       7.6022775874
F          2.5504456186      11.6239843786       7.8314866360
F          1.9007057670       3.9650903909       8.0517583074
F         -4.5231994002       8.2591897400       8.1359120535
F         -2.8431046777       8.2250211641      19.7299532659
F          1.1608791699       5.3259406982      19.8833027392
F          1.6762872452      10.2071402205      19.9504011519
O          6.9550206987       7.8480006369      14.1559542270
C          6.0201198937       8.5729322889      14.1529288777
O          5.1165847150       9.3080909468      14.1541090377
