161
91692c9 s2 final converged frame
Al         5.0159684185       2.7344524821      14.1273056497
Al         8.2066499253       2.9591281793      14.1303581282
Al         6.6854764928       5.6255066036      14.1645589028
Al        -0.1086878135       5.7518497230      28.2370247376
Al        -1.5802315434       8.6573133209       0.0304940569
Al         1.4212907927       8.6513476231       0.0302299642
H         -2.1092713776       4.0945434173      20.3466210223
H          4.3491663445       8.0868084570      20.3469903470
H         -2.3082757436      11.5460222452      20.3905792727
H          4.6268544920       0.2833570562       6.1926189663
H          4.8565876327       7.8306932589       6.2342489350
H         11.1299657569       3.8344459649       6.2434280144
H          3.1170967333       1.6573722125      14.9390719775
H         -0.0554970357       3.6303500960       0.8667895310
C          4.6412816248       4.9970254665      16.0646218178
C         -0.0662268105      11.6367776365       5.6466473568
C          3.2654810191       6.1475287973       5.7286932672
C         -3.3015161448       6.0806084363       5.7931200730
C          9.9509923844       4.8416146005      21.7964750976
C          4.6166662015       6.2569325697      21.8437613687
C          6.0588112294       0.7839713093      21.9232308874
C         -0.8216530141      11.0581509470       7.6607248890
C          3.1043821407       7.1654646155       7.7018214130
C         -2.3652961316       5.6387226817       7.7737170958
C          8.9639945372       5.6927254214      20.8968012626
C          6.9519834770       1.4150511598      16.0678935297
C          4.3337517804       4.9529305604      20.9878561163
C          7.3200002546       1.2289726602      21.0952518341
C          0.4120776178      10.6290079870       6.7890131901
C          2.1223761324       6.2789218004       6.8265845928
C         -2.6222337068       6.9497398391       6.9425238054
C         -3.0573431476       6.3771915780      23.8501387962
C          2.9330807272       6.2168303115      23.9357193642
C         -0.0318277585      11.2263377598      24.0131043757
C          7.0345479964       0.5663373996       9.7328018138
C          3.8523145012       5.6575808135       9.8123010318
C          8.9231262787       4.9746001526      15.9691037647
C          9.7284518347       5.6217340031       9.8703914039
C          9.8135856392       5.5246582534      18.3997750286
C          3.9053993870       5.6629459800      18.5030270430
C          6.9480146992       0.5406268168      18.5654705000
C         -0.0891028641      11.2958469240       4.2808074927
C          3.0035189803       6.3063516004       4.3529762764
C         -3.0361990852       6.2774418987       4.4211545986
C          4.6299906655       5.0309961112      12.2604561971
C          6.9458724000       1.3712889644      12.2474520893
C          8.8243287823       5.0004710317      12.2737757238
C          2.1208932866       6.7332464522       1.8967874005
C          2.0577989946       6.6719352193      26.3809437603
C         -2.2559164947       6.7216057395      26.3524438899
C         -0.0897447076      10.2314652725      26.4537625926
C         -3.1631477129       7.1096336435      20.4272904999
C          2.2583157357       5.6755599160      20.5709113963
C          0.8316347875      11.0049134718      20.6433350189
C          7.7653060342       0.8683146327       6.3292033485
C          3.7706218063       4.8314830378       6.4546840265
C          9.0813984907       6.2750503991       6.5183561674
C          9.5112411283       7.0162452874      21.5390484684
C         -2.2314260909       6.7720774787       1.9475460910
C          2.9351143821       4.7747087351      21.6731774678
C          8.1921084451       0.1155799371      21.7815143312
C          1.2897908159      11.7574480621       7.4425557129
C          2.6455781616       4.9761258961       7.5437081706
C         -4.0170076229       7.1434945750       7.6412852055
C         -2.7773052438       6.5138606881      25.0266444154
C          2.6396633172       6.4056487491      25.0989342637
C         -0.0753966571      10.8801959226      25.1786196819
C          7.0145402301       0.8300234581      10.9189906799
C          4.1258097479       5.4127453812      10.9704328539
C         -0.0802655727      10.2749954469       1.8491287020
C          9.4075517334       5.3582154367      11.0133417012
C          9.5001253672       5.3006982821      17.2449562109
C          4.1209495764       5.3601114921      17.3480491368
C          7.0264031940       0.8502212484      17.3911346247
C         -0.0806524715      10.9380832045       3.1178866021
C          2.6928872382       6.4659268574       3.1880093837
C         -2.7712806468       6.5113999218       3.2565254986
C         -2.2032251621       6.2449691049      21.3357817184
C          2.5569701835       6.9658100078      21.4282470580
C         -0.4388670223      10.5669161063      21.4706080010
C         10.0887396778       5.7609558478      19.7639508046
C          6.5242079783       1.2667753587       7.2106250790
C          4.7466421441       5.7276100244       7.3225461376
C          9.3634564040       4.9613034555       7.3488287445
C         -3.3111431443       6.1818845424      22.4770277522
C          3.2112219242       6.0609781098      22.5691827847
C         -0.0103567890      11.5644263635      22.6488066410
C          7.0085167952       0.2765111635       8.3580398172
C          3.6136364339       5.8547399766       8.4419426413
C         10.0249088732       5.8345683397       8.5122200507
C         -2.7264572112       4.9218383584      20.6994031007
C          3.6661241652       5.8647641885      19.8690398849
C          3.9495294277       7.1533170945      20.7454701047
C         -1.3056183713      11.6782521803      20.7989996626
C          5.6463253013       0.1577246559       6.5591050967
C          4.2323207964       7.0261017767       6.6249010709
C         10.7485812287       4.7688066546       6.6574402606
C          6.9012879765       0.2233713738      19.9392435760
O          5.7967279943       1.6939910042      15.6529268312
O          1.3151327009       5.8821075752       1.4315010383
O         -2.6041432105       7.8612560046       1.3632288235
O          1.0605328492       9.9773115049       1.3529151423
O          5.8027219353       1.5818618944      12.7279247755
O          9.1974012360       3.8959060587      12.8025869842
O          5.3247902680       5.9232261984      12.8728850353
O         -1.4639709498       5.8503575902      26.8034665345
O         -1.2329021007       9.9447350353      26.9526388068
O          2.4116166327       7.7730199404      26.9523697665
O          4.3802580778       3.8629872783      12.6527906361
O          9.2674654261       3.8632783950      15.4334124082
O          8.0761784605       1.6425382470      12.8058147408
O          7.9426805135       5.7973213308      12.7286732096
O          1.2203745940       5.8338350481      26.8057947949
O         -2.6163481224       7.8151155470      26.9425458340
O          1.0508338371       9.9379482450      26.9557998532
O          6.6462960890       3.7955860738      14.1517059551
O         -0.0796989375       7.7270737576       0.0089150193
O          5.4489285769       5.8638222814      15.5702053410
O         -1.4015433979       5.9335115465       1.5047305734
O         -1.2223775113       9.9795823372       1.3527074289
O          2.4521541425       7.8603121814       1.3575369954
O          4.3033405380       3.8860853667      15.5756835400
O          8.0622327283       1.6307154426      15.4461112245
O          8.0760402339       5.7983734628      15.5021822469
O          3.5551458057       1.7666913394      14.0839125844
O         -0.1482899332       4.0075016390      28.2325688221
F          8.7561566718       8.0374033537      21.9850888871
F          8.5685187185       1.7107005627       5.6463614090
F          4.0445365280       3.6893624538       5.7953365273
F          7.9383989042       6.6006211364       5.8731366643
F          7.6648846794       5.4534048439      20.6297222646
F          5.1792755248       3.9392784964      20.7056905524
F          7.7146320779       2.4889883102      20.8551505730
F          0.8025516043       9.3696054942       6.5473290962
F          0.8469952393       6.5360456674       6.4791779948
F         -1.7226582285       7.9220639426       6.7005301623
F          9.6585492757       3.7347435275      22.5106377223
F          2.4594545262       3.6022091154      22.1377510702
F          5.7614535334       6.5696185670      22.5044189126
F          5.2269867754       1.6171012270      22.5858699916
F         -1.6210981270      10.2298347976       8.3588151838
F          2.7941515182       8.3121431047       8.3554148692
F         -1.2183361985       5.3417594757       8.4293189221
F         -0.9142863723       6.5125789144      21.6076893665
F          1.6793830174       7.9621644418      21.6850493669
F         -0.8524207029       9.2972895785      21.6839669327
F          6.1061979110       2.5168256633       7.4559549616
F          6.0470931687       5.4744106146       7.6045458236
F          9.4372792091       0.2949046941      22.2826526007
F          8.4862152412       3.9629933559       7.6027856531
F          2.5512577923      11.6216285041       7.9043641554
F          1.8990098168       3.9648408581       8.0493965660
F         -4.4827072239       8.3136277132       8.1309417283
F         -2.8432522604       8.2260878969      19.7295529511
F          1.1237050762       5.3925629843      19.8830973890
F          1.6717165412      10.2116910536      19.9508354974
O          6.7832372267       7.6503047049      14.1606511263
C          5.8008169402       8.3824082815      14.1106098430
O          5.9655181559       9.7002225166      14.0798809453
H          4.7688210905       8.0005545507      14.0837687865
H          5.0961980204      10.1465841265      14.0330796772
