164
91692c9 s5 final converged frame
Al         5.0463892978       2.7862716347      14.1188753380
Al         8.2252079752       2.9881340744      14.1421011113
Al         6.6878337069       5.6576524987      14.1577209873
Al        -0.1075419210       5.7520422834      28.2363981262
Al        -1.5795410997       8.6589385309       0.0296319051
Al         1.4206496877       8.6529266016       0.0285064319
H         -2.0797126771       4.1002869498      20.3456853786
H          4.3135412850       8.1067032616      20.3479734291
H         -2.2965747187      11.5343838510      20.3671243013
H          4.6280431146       0.2844361507       6.2015247259
H          4.8676251426       7.8573811987       6.2135352409
H         11.1303602146       3.8341555269       6.2379446703
H          3.0283190073       1.8853030501      14.8325310794
H         -0.0643151003       3.6302429481       0.8673160860
C          4.6619830155       5.0283324920      16.0465762316
C         -0.0663350010      11.6366152707       5.6501723975
C          3.2876169783       6.1567763608       5.7156611491
C         -3.3011684650       6.0801634606       5.7893055629
C          9.9685242305       4.8370925464      21.7944310967
C          4.6128350804       6.2723762672      21.8437475757
C          6.0627195180       0.7759457525      21.8945485973
C         -0.8190149761      11.0597236913       7.6672072007
C          3.1271033848       7.1785804529       7.6937642900
C         -2.3627644030       5.6389709576       7.7682014633
C          8.9823815476       5.6771504337      20.8952587191
C          6.9734647381       1.4656551921      16.0830177526
C          4.3500318735       4.9727034333      20.9884211996
C          7.3271059858       1.2207427458      21.0815276164
C          0.4128494501      10.6297751634       6.7927117661
C          2.1515156421       6.2849499046       6.8296429401
C         -2.6207453196       6.9504052811       6.9378308201
C         -3.0506261193       6.3754421545      23.8490198003
C          2.9281720627       6.2147430732      23.9329019307
C         -0.0392643872      11.2263353255      24.0069522586
C          7.0464063484       0.5810412895       9.7394016139
C          3.8959042712       5.6909925005       9.8013166834
C          8.9495049497       5.0297952628      15.9487302062
C          9.7387080710       5.6380017974       9.8638688737
C          9.8247859067       5.5432611978      18.3931114783
C          3.9250527823       5.6643639670      18.4976024007
C          6.9625900238       0.5320401791      18.5560947300
C         -0.0900655336      11.2942827863       4.2841270119
C          3.0206205312       6.3140238785       4.3420653350
C         -3.0376103664       6.2765543281       4.4174312021
C          4.6678598678       5.1007834643      12.2574988730
C          6.9792686972       1.4202277202      12.2467978820
C          8.8369252050       5.0520422671      12.2712202597
C          2.1235655421       6.7331100187       1.8918811385
C          2.0560395891       6.6727921749      26.3789543664
C         -2.2549065886       6.7222820359      26.3524627969
C         -0.0900429772      10.2318012480      26.4500860542
C         -3.1589512872       7.1083979052      20.4282833480
C          2.2758465575       5.6502004972      20.5659745435
C          0.8390544344      10.9975386467      20.6409021156
C          7.7661098899       0.8683157947       6.3317185693
C          3.8225834769       4.8429476795       6.4432380311
C          9.0821502512       6.2751594581       6.5150313240
C          9.5130051547       7.0110973911      21.5386245601
C         -2.2318576576       6.7721720020       1.9451831958
C          2.9532627414       4.7660945980      21.6727243755
C          8.1948302896       0.1118396145      21.7777968929
C          1.2910383507      11.7580695448       7.4456839429
C          2.6905237715       4.9911839299       7.5363447625
C         -4.0152399892       7.1443238666       7.6358350075
C         -2.7742821810       6.5144134594      25.0260079332
C          2.6346138019       6.4071654512      25.0956001595
C         -0.0774369312      10.8781147789      25.1726581072
C          7.0435958223       0.8663216966      10.9214348553
C          4.1679685204       5.4755156341      10.9650898343
C         -0.0803881103      10.2744979800       1.8507798157
C          9.4263411311       5.3944156542      11.0128417970
C          9.5103347964       5.3547744555      17.2312213531
C          4.1490918095       5.3723583303      17.3406249727
C          7.0304121785       0.8676354466      17.3895932000
C         -0.0811212566      10.9354255062       3.1212975491
C          2.7037054526       6.4654883444       3.1781174687
C         -2.7736874855       6.5104290543       3.2528366951
C         -2.1964103104       6.2465030192      21.3353517512
C          2.5449339118       6.9422422954      21.4234353017
C         -0.4346130965      10.5610285549      21.4634961795
C         10.1038855819       5.7581261904      19.7608175952
C          6.5267402080       1.2670726411       7.2148429611
C          4.7716219726       5.7526304820       7.3111563308
C          9.3646056972       4.9611016175       7.3456083115
C         -3.3036103556       6.1790152215      22.4761246977
C          3.2114504055       6.0548995974      22.5679268314
C         -0.0133655003      11.5630061579      22.6414498549
C          7.0119597470       0.2790066638       8.3654285393
C          3.6515261017       5.8761460314       8.4311249601
C         10.0284883218       5.8373514189       8.5048165372
C         -2.7073884509       4.9204430119      20.6965693479
C          3.6756757706       5.8678918304      19.8640423021
C          3.9351825161       7.1632699587      20.7437303065
C         -1.2951033786      11.6664939675      20.7782382768
C          5.6484340340       0.1581263500       6.5652683932
C          4.2524807753       7.0487021923       6.6103927670
C         10.7496273200       4.7682697956       6.6530561899
C          6.9150595066       0.2110090441      19.9266106531
O          5.8282328735       1.7614678474      15.6551963727
O          1.3151515206       5.8822871534       1.4308278802
O         -2.6039518083       7.8618110544       1.3620302736
O          1.0602158708       9.9778466115       1.3533555131
O          5.8372935548       1.6396347144      12.7253335146
O          9.1829158486       3.9479788004      12.8051895402
O          5.3653077028       5.9911743460      12.8704514209
O         -1.4638117594       5.8506215166      26.8038693166
O         -1.2325922660       9.9455319969      26.9513458955
O          2.4109684830       7.7730115809      26.9516726825
O          4.4158244996       3.9326752788      12.6502096128
O          9.2739338994       3.9039612514      15.4380265612
O          8.1076999152       1.6944162733      12.8069867486
O          7.9694740203       5.8683391768      12.7258839751
O          1.2200589784       5.8339078976      26.8057844983
O         -2.6161456414       7.8154254064      26.9425820166
O          1.0502259454       9.9390019671      26.9541543757
O          6.6723488369       3.8328345323      14.1495351895
O         -0.0797454627       7.7275795017       0.0085717242
O          5.5174926411       5.8637508342      15.5883331536
O         -1.4012808712       5.9335801378       1.5041589807
O         -1.2224251459       9.9799254448       1.3533115394
O          2.4519893768       7.8618582780       1.3553371228
O          4.2703884959       3.9539214701      15.5085791448
O          8.0980239926       1.6943877255      15.4938922015
O          8.1292517721       5.8668797256      15.4417507902
O          3.6230775033       1.7626450001      14.0794623307
O         -0.1482387793       4.0076070623      28.2324987951
F          8.7578776860       8.0344430627      21.9839230107
F          8.5682971076       1.7105147917       5.6464302611
F          4.1858204353       3.7051652516       5.8007845188
F          7.9382929118       6.6006490756       5.8726016555
F          7.6976221848       5.3894642659      20.6289483804
F          5.2243754766       3.9951100969      20.7043698212
F          7.7140739556       2.4864500585      20.8544199419
F          0.8023487245       9.3702707259       6.5479445560
F          0.8537905880       6.5334657955       6.5504060006
F         -1.7218772078       7.9226728237       6.6999126058
F          9.6596000868       3.7349545061      22.5098073118
F          2.4624684689       3.5999767518      22.1373510154
F          5.7619657123       6.5730363341      22.5042393838
F          5.2218358587       1.6216883170      22.5170210100
F         -1.6217454841      10.2295518604       8.3592449512
F          2.7952779844       8.3136768253       8.3543874586
F         -1.2190369407       5.3417620584       8.4285488931
F         -0.9099245303       6.5137250715      21.6079284694
F          1.6376258818       7.9033086428      21.6849416732
F         -0.8526071672       9.2945142208      21.6837602703
F          6.1074301773       2.5165913004       7.4568283636
F          6.0606877863       5.4756490416       7.6045354554
F          9.4376169694       0.2946243308      22.2830023929
F          8.4872125320       3.9639356844       7.6025562427
F          2.5520670981      11.6213386785       7.9046226125
F          1.9268878223       4.0124344150       8.0552342524
F         -4.4822170398       8.3131633553       8.1309361557
F         -2.8433844723       8.2257384389      19.7294971272
F          1.1546170013       5.3273236417      19.8797676807
F          1.6768273975      10.2064460999      19.9496422730
O          6.7456839134       7.7095172023      14.1611232215
H          7.5140037585       8.0498931515      14.6577351386
H          6.8322601101       8.0381234027      13.2459462871
C         -1.7706351318      10.4026051524      14.1246600832
H         -2.3716681894      11.3201492275      14.0927137866
H         -2.4150367018       9.5279030192      14.2820586253
H         -1.0463142083      10.4638963829      14.9467613304
H         -1.2316216898      10.2830460396      13.1764165268
