200
07c07d3 s5 final converged frame
Zn         3.8378752165       3.7621643550       6.8562518146
Zn         2.2325103593       4.8636080814       8.8588324211
Zn         8.3267136109      -1.3407251382      15.3931011693
Zn        -2.1046564920       9.8347173855       0.0976676489
Zn        -8.2211661075      12.5033191002       8.5968249091
Zn         8.4491611064      13.5511074079       6.7474190775
H         -2.9383413170       6.9093747245       4.3038960423
H          5.0140309586       6.7466507838       4.4329073522
H          6.2337725336       6.2569309792       5.6582202778
H          6.4714774297       7.7652399231       4.6994176638
H          2.1659329974       1.7199640000      10.3591224079
H          2.5017229775       0.2195293342      11.2878637829
H          3.5573012998       0.6881193823       9.9181822466
H          4.7616283754       0.0801616611      15.0765911240
H          4.8287523075      -0.3869571250      13.3542317486
H          3.5002390037       0.6839041565      13.9310918193
H          9.7445036618       3.4327407021      10.8379544364
H          7.0069805203       3.7756483367       8.2972335863
H         -2.5199293039       3.8966014663       7.2979036502
H         -1.8889022455       2.7422619628       6.0921154796
H         -0.7574297060       3.8043585110       7.0064352087
H         13.6068961316      -0.0394149792       7.4593462343
H         -3.5222920326      -0.3539568461       6.2054765078
H         -3.6807626036       1.2912275316       6.9376417837
H          2.5701846131      -3.7908232998       8.4192869142
H          1.3106257375      -3.1421660959       9.5217964796
H          2.7416685248      -2.1280174630       9.0771534935
H          4.3449823511      -0.1323026578       6.5752324658
H          2.9285133775       0.4853359171       5.6624055899
H          3.0432431813      -1.2713791080       6.0717426232
H         -6.0569098634      13.8803811741       1.0659583723
H         10.9853736018      12.7370618574       0.6871491207
H         12.3914298432      12.8616927270      -0.4186559240
H         -0.9329672017       6.6370906186       6.8708767648
H         -4.9711563982      13.8348051525       3.4456935383
H         -5.8568623180      13.7680286291       5.0096802054
H         -0.3330860728      -2.4489972488       3.8473456867
H          9.9285984952       9.7227624546       6.3283486445
H         12.4861915169       5.9376925815       3.8202331220
H         11.6564229431       6.8399144272       2.5078956611
H         10.9581720308       6.7919028223       4.1841344324
H         -5.5615127890       0.4502790886      13.3734145070
H         -3.8841915725      -0.1992978808      13.2387469855
H         -4.6623706226      -0.0147795179      14.8486202945
H         -2.4953621356      -0.8270324208      11.5845580369
H         -3.3184816102      -1.3058715071      10.0764435798
H         -2.0219502681      -2.3398751852      10.7391072240
H         11.0747305447      -1.4006938903       7.7467421875
H          9.5437850953      -1.2735424442       8.6959834446
H          9.6534403060      -2.3998797008       7.2981899794
H          7.3344285803      -3.2534361293      10.8938931347
H          8.4965529731      -3.9519707060      12.0718613409
H          8.7687735721      -4.1537372270      10.2955745455
H          2.7183897299       9.4959069352       4.6632157014
H          1.3887760827       9.7666044125       5.8448015803
H          1.7991437002      11.0349763669       4.6363657561
H          2.7903601148       9.0414975928       2.1707640704
H          3.1129261481       7.5513312256       1.2169994041
H          4.4391737810       8.3335723888       2.1416673723
H          2.0503224197       5.3851273944       0.8913669841
H         -0.1500337819       3.3804411821       4.4705554067
H          6.2049412578       7.6002472470      11.8155084417
H         -9.2352229795       9.1054573394      12.1105999757
H         -8.7732176430       8.8217377545      10.3972575392
H          8.6559914441       7.5764805521      11.2988756689
H          7.8024054096      10.1233128069       5.6178555896
C          4.5061363651       6.3331129995       8.3597745908
C          0.8116078763       6.3109314837       2.4893721857
C          0.3316025751       5.3751714821       3.6632969088
C          1.2772179955       6.1513458727       4.6848998120
C          6.1292493913       7.8298116352       9.6332214879
C          7.0314877290       8.9149268120       9.6167224975
C          7.2598028151       9.6159080907       8.4174146139
C          6.5418656426       9.2895464377       7.2458775032
C          5.6560265093       8.2024000609       7.2638450076
C          5.4653710113       7.4770282579       8.4465944386
C          5.0636388479       2.0094177195      11.4887545517
C          2.0768692663       5.4648317906       5.7372149161
C          5.9029935753       1.8081980546      12.6070073150
C          7.2994679866       1.8984247247      12.4809018918
C          7.8765054228       2.3135357192      11.2709553166
C          7.0324115339       2.6193007409      10.1786525974
C          5.6289894752       2.4487234410      10.2760435366
C         -0.8762724016       1.1332317918       7.9302663342
C         -1.5293570180      -0.1123277878       7.9500626349
C         -0.7810447220      -1.3008976308       7.8539795438
C          0.6149130821      -1.2630151442       7.7317008087
C          1.2696101531      -0.0229660692       7.6895533144
C          1.2774768511       2.4591324113       7.7789790117
C          0.5249465247       1.1723678084       7.7836540641
C         13.6395974451       9.2640348932       1.6730887579
C         -1.2155819447       7.9733340525       1.8462707152
C         10.2037892720      -1.5269477997      13.5900993426
C          8.0902097626       1.3638915325      13.6436146529
C         10.2670746125      11.9800358463       5.5208098565
C          8.1783232802      10.7808480916       8.3276754630
C         13.4854395461      -3.2533141070       9.1522486055
C         -1.5085300222      -2.6037262443       7.8391975291
C         12.3085821008      11.2594192351       2.3959594368
C          4.7189526237       2.8814368055       9.1695360765
C         11.5325003803      11.9279650356       3.3759387663
C         11.0025778629      11.2080465459       4.4509408534
C         11.2916498800       9.8273682601       4.6357313690
C         12.1786945138       9.2027608381       3.7203725507
C         12.6601715525       9.9062073269       2.6076750837
C         -5.9355739987      -1.9570742620      12.5785659072
C         -5.1192218216      -2.3659140755      11.5113244175
C         12.6619624363      -2.7124321353      10.2652419893
C         11.2538681494      -2.6604128214      10.1255437644
C         10.4446040713      -2.3174563545      11.2203314978
C          0.1234755880       7.1655592253       5.0287897614
C         11.0385624390      -1.9732930074      12.4433437276
C         -0.8237824081       6.3745482224       4.0057557918
C         -0.3267436726       7.3505953906       2.8681750162
C          0.6360747232       8.1020230440       3.8495980896
C          1.7889758702       7.0442756808       3.5036177898
C         -2.2456450806       6.0366098411       4.2665240732
C          5.7288812222       7.1059761627       5.1769339214
C          2.9520424204       1.0669238236      10.7507354942
C          4.5566885127       0.4155791044      14.0533670789
C          9.3726652629       2.4383953337      11.1661892964
C          7.6561038605       3.1685122429       8.9575567702
C         -1.6892280425       3.2224702091       7.0611886449
C         -3.7540231325       0.2112043516       7.1198071672
C          2.0291630487      -2.8897689480       8.7284722713
C          3.2688352696      -0.2489715946       6.4060826109
C         12.0670536899      12.9078039146       0.6253218294
C         -0.3226299676       7.4577589981       6.4211818675
C         -5.9352667007      14.0292910571       3.9431194796
C         10.6931329175       9.1234104133       5.7856294198
C         11.8762481427       6.8167554425       3.5842826625
C         -4.8334408831      -0.2587554845      13.7926130631
C         -2.8608555140      -1.6843253328      10.9964472629
C         10.2029414089      -1.9496600244       8.1327767916
C          8.3895613334      -3.4846319735      11.0817169091
C          1.7336096823       9.9577202731       4.8196097723
C          3.3680292269       8.1067206163       2.1338206037
C          1.0080778037       5.6886861650       1.1414192811
C          0.3453649146       3.8881090126       3.6135392395
C          5.9358560360       7.0558005300      10.8852759413
C         -9.5445770723       8.6565707135      11.1608387478
C          6.7453934906      10.0460859645       5.9581243824
O          4.8765287751       5.3749746736       7.6181232787
O         -3.6290939947       9.8621360338       1.5211608010
O         -2.2407160266       7.3090639446       1.5157858190
O         -0.8436632700       9.1194789001       1.3996442603
O          9.2373706068      -2.2900008568      13.9754760812
O         -7.8611750501      -0.4153111331      14.1087988835
O          7.7863961512       0.1856828668      13.9776158594
O          8.9808430105       2.0948460177      14.2193166174
O         -7.5949319161      11.9347922680       6.6825343157
O          9.2073253059      12.6256906121       5.1955127461
O         -9.1088104416      10.8011593409       9.0162709775
O          3.3950310193       6.4506024160       8.9675940323
O          7.8263982895      11.6759658727       7.4962289395
O         -3.8998288676      -3.9882311215       9.4688390947
O         13.1515552825      -2.9775047500       7.9336367888
O         -1.1551735455      -3.4952178141       8.6991259960
O         -2.4330389316      -2.7225848741       6.9837058246
O          3.1004945223       4.8052793247       5.3383370017
O          1.6414439521       5.5674960949       6.9237032738
O          2.1403007674       2.6158175054       6.8628999012
O          1.0064955421       3.3031460263       8.7029111199
O          5.0076259434       2.5810400712       7.9479361138
O          3.7102729404       3.5588367525       9.5252235777
O         13.2993637347       8.1612263445       1.0962200128
O         -2.6546288434       4.8948330809       4.4447441263
O          4.9439124750       7.8348949937       6.1519216604
O          3.7408752708       1.7999579870      11.7102503989
O          5.4043646480       1.5721506923      13.8498068226
O         10.1403333277       1.5468664526      11.4954947187
O          8.8464889991       3.0130743437       8.6948091698
O         -1.6558808597       2.2476093277       8.1250381152
O         -2.8752865941      -0.1992568632       8.1902339549
O          1.3234365703      -2.4303809778       7.5529473288
O          2.6457208101       0.0196289803       7.6849411096
O         12.7943852170      11.8379239767       1.2779424553
O         -0.1031315410       8.4852945438       7.0439663201
O         11.3653817558      13.2946331448       3.3031365317
O         10.9421342119       7.9842673023       6.1634081770
O         12.6966992342       7.9547069556       3.9370878679
O         -5.3596496748      -1.6002444226      13.7755499975
O         -3.7876812511      -2.4345672627      11.8022143447
O         10.6369819399      -3.0519990424       8.9600954112
O          9.0808499663      -2.2167814238      11.0553685951
O          0.7516215145       9.4599939314       3.8670213594
O          3.1221036874       7.2979636160       3.3046585567
O          0.0780355584       5.4853513367       0.3815560316
O          0.9139108771       3.2549323898       2.7367597248
O          5.5281010706       5.9004972491      10.9201388048
O          7.5990858343       9.3278683899      10.7946000674
O          5.8313430724      10.4752421970       5.2755470589
O          1.0715389817       5.4565205615      10.5403623892
H          0.8466221958       6.4031341322      10.5937977118
H          0.2340826541       4.9559154000      10.5782872889
C         -0.6578566413       2.3605787082      11.6950115688
H         -0.7996480160       2.5179157823      10.6198373485
H         -0.3858820257       1.3114735192      11.8677146367
H          0.1496800907       2.9982472606      12.0768231050
H         -1.5884553974       2.5827213900      12.2308093827
