201
07c07d3 s3_to_s4 B (s4 augmented)
  Zn        3.8311990120        3.7425587062        6.8426680815
  Zn        2.2105486612        4.8704200726        8.8312800363
  Zn        8.3258128588       -1.3366210682       15.3905181010
  Zn       -2.1222644916        9.8568034241        0.0754642888
  Zn       -8.2092974340       12.5101568454        8.6019091549
  Zn        8.4575287217       13.5542945060        6.7480889747
  H        -2.9030883462        7.0801641870        4.3125923574
  H         5.0298817148        6.7051938146        4.4243515212
  H         6.2588237519        6.2010276398        5.6364231369
  H         6.4885139473        7.7209057189        4.6937439900
  H         2.1973702722        1.5813405700       10.2287019355
  H         2.5344286148        0.0907076771       11.1754649652
  H         3.6162398149        0.5751841155        9.8304599318
  H         4.7219648381        0.0370821101       15.0316834927
  H         4.9429147117       -0.4809411628       13.3377698580
  H         3.4913426129        0.4881540786       13.7871050506
  H         9.7249307648        3.4710810760       10.9691954736
  H         7.0675301608        3.6557095047        8.2244062969
  H        -2.5695220943        3.9183629553        7.5084878592
  H        -1.9382891394        2.8330298035        6.2385273109
  H        -0.8133837970        3.8739571686        7.1852195191
  H        13.6063569786       -0.0486033036        7.4385628539
  H        -3.4924777936       -0.2697598659        6.1954113243
  H        -3.7043222637        1.3321495151        7.0059703824
  H         2.5665436023       -3.7606246734        8.4251856492
  H         1.3162984302       -3.0955828144        9.5279251151
  H         2.7466807022       -2.0906869339        9.0605364390
  H         4.2879290768       -0.1130035770        6.4620707124
  H         2.8456259696        0.4976161725        5.5855355621
  H         2.9737870779       -1.2563897450        6.0041680114
  H        -6.0489073092       13.8804499343        1.0566953205
  H        10.9864886596       12.7416575341        0.6918682672
  H        12.3883932075       12.8540713803       -0.4224547804
  H        -0.8232157540        6.8050626546        6.8816910703
  H        -4.9746666266       13.8395273440        3.4435047614
  H        -5.8582314556       13.7672488645        5.0083746594
  H        -0.3393504526       -2.4476032910        3.8499598008
  H         9.9269792652        9.7237744624        6.3256231164
  H        12.4729247915        5.9391930390        3.8572984074
  H        11.6800867894        6.8225438625        2.5077829932
  H        10.9440701610        6.8106027368        4.1681913043
  H        -5.5700447930        0.4498171108       13.3737447755
  H        -3.8906721675       -0.1932869252       13.2420811147
  H        -4.6730420583       -0.0107227518       14.8510482043
  H        -2.4434741972       -0.8701420347       11.6401378904
  H        -3.3264820196       -1.2321817408       10.1308076703
  H        -2.0478783994       -2.3446348151       10.6946927891
  H        11.0800163348       -1.4021895516        7.7455919155
  H         9.5504228752       -1.2702067227        8.6964186538
  H         9.6551985615       -2.3975140986        7.2988928870
  H         7.3364086274       -3.2530254992       10.8895086984
  H         8.4975147337       -3.9547365583       12.0664764354
  H         8.7704445670       -4.1521002475       10.2897896932
  H         2.8367736321        9.5204361086        4.5716234673
  H         1.4974180920        9.8768980856        5.7207511056
  H         1.9723459428       11.0879183238        4.4779801442
  H         2.8900141568        8.9779542973        2.0540433174
  H         3.1134445336        7.4422906100        1.1449537582
  H         4.5014495273        8.1882502151        2.0054953101
  H         2.0084583606        5.2237471109        0.9853317013
  H        -0.1891359700        3.5243528345        4.6417723132
  H         6.4498555781        7.5027359320       11.7748232104
  H        -8.9245823623        8.9312057486       11.8978866886
  H        -8.6093351483        8.6767295141       10.1473426475
  H         8.8723657272        7.4287485034       11.0964755940
  H         7.8039838018       10.1186267054        5.5960028416
  C         4.5563806881        6.2844687916        8.3775037584
  C         0.8108739541        6.3221537122        2.4919092770
  C         0.3191785477        5.4540364926        3.7104277019
  C         1.3103791201        6.2209243240        4.6902271523
  C         6.2425820113        7.7630539186        9.6082200900
  C         7.1609900427        8.8365058499        9.5674776809
  C         7.3291699607        9.5660661310        8.3751085301
  C         6.5744152654        9.2471680046        7.2238837305
  C         5.6988462521        8.1487624899        7.2562241760
  C         5.5330477334        7.4213022682        8.4429743967
  C         5.0581433320        1.9391955558       11.4194358489
  C         2.0895295432        5.4964893938        5.7383161299
  C         5.8634373636        1.7668192066       12.5613389118
  C         7.2597038205        1.8814591231       12.4710591924
  C         7.8643624146        2.2963455108       11.2748746526
  C         7.0498286380        2.5782102713       10.1543221089
  C         5.6440867048        2.3841804762       10.2174468911
  C        -0.8902638692        1.1464230759        7.9788996661
  C        -1.5403317091       -0.1029952250        7.9719478417
  C        -0.7915031950       -1.2893970435        7.8602273063
  C         0.6020029040       -1.2453443358        7.7245964376
  C         1.2474271146       -0.0034954905        7.6615965768
  C         1.2678179877        2.4680252773        7.7768188040
  C         0.5057782398        1.1891647797        7.7850137272
  C        13.6419159339        9.2641988161        1.6763416646
  C        -1.1785565459        8.0190527985        1.8032182339
  C        10.2001695489       -1.5228990826       13.5861472559
  C         8.0290981892        1.3565622790       13.6468765478
  C        10.2671089008       11.9807284864        5.5186733006
  C         8.2176849363       10.7574304999        8.2913616045
  C        13.4997821147       -3.2354952079        9.1508534871
  C        -1.5098326815       -2.5970048835        7.8401447269
  C        12.3083892282       11.2594773163        2.3957323824
  C         4.7415615774        2.8124059670        9.1029876193
  C        11.5315029710       11.9282377661        3.3743274664
  C        11.0011847194       11.2080152133        4.4489355193
  C        11.2905377675        9.8278098756        4.6344702114
  C        12.1785079416        9.2033872889        3.7203250787
  C        12.6612136115        9.9071202642        2.6084607410
  C        -5.9354673139       -1.9580250502       12.5802451355
  C        -5.1174422690       -2.3654598178       11.5130836214
  C        12.6672406076       -2.7091971628       10.2643197200
  C        11.2577567178       -2.6608148798       10.1249121439
  C        10.4473403384       -2.3186578268       11.2195094547
  C         0.2007870327        7.2940621782        5.0106830060
  C        11.0392767797       -1.9736694372       12.4434584779
  C        -0.7907474709        6.5096482728        4.0237924053
  C        -0.2849968552        7.4171242001        2.8394913607
  C         0.7184866866        8.1696221280        3.7839668291
  C         1.8310156949        7.0557644036        3.4686622510
  C        -2.2032617275        6.2144163320        4.3591842426
  C         5.7496660858        7.0550913116        5.1681665906
  C         2.9831344338        0.9434211458       10.6462115525
  C         4.5569532486        0.3179352575       13.9851178308
  C         9.3643819531        2.4478872194       11.2118899427
  C         7.7135331149        3.1266143063        8.9503412917
  C        -1.7318779112        3.2719289285        7.2254461995
  C        -3.7546935239        0.2428602995        7.1324835421
  C         2.0293655391       -2.8544031752        8.7260333901
  C         3.2073609539       -0.2312762991        6.3246278393
  C        12.0689598132       12.9062245841        0.6232243576
  C        -0.2419142453        7.6260649775        6.3978153927
  C        -5.9382568911       14.0313654046        3.9428225927
  C        10.6921129926        9.1240783716        5.7846376793
  C        11.8756435920        6.8174815217        3.5891963559
  C        -4.8401843998       -0.2560593067       13.7948925267
  C        -2.8553863183       -1.6771247810       11.0137980030
  C        10.2069550100       -1.9484360503        8.1325998125
  C         8.3913610154       -3.4848895215       11.0774554057
  C         1.8658866394       10.0204723623        4.6956855390
  C         3.4205798733        8.0152256878        2.0347634996
  C         0.9893744325        5.6338419974        1.1745303341
  C         0.2323426032        3.9716752807        3.7146813499
  C         6.0618822781        6.9997638708       10.8638225795
  C        -9.3191247067        8.5085795804       10.9679597506
  C         6.7501388590       10.0262767794        5.9432210936
  O         4.8989602189        5.3236855392        7.6251172490
  O        -3.6276820298        9.8630853190        1.5217239990
  O        -2.1988850994        7.3456226403        1.4723890254
  O        -0.8184501116        9.1632989551        1.3425945456
  O         9.2360527595       -2.2879562528       13.9738727838
  O        -7.8719813864       -0.4058972825       14.0982400421
  O         7.7210018327        0.1804470504       13.9825905735
  O         8.9133983227        2.0952496171       14.2202734073
  O        -7.5939563746       11.9368346545        6.6787533076
  O         9.2059313328       12.6252669020        5.1940777646
  O        -9.0581922600       10.7815577353        8.9624366918
  O         3.4555298205        6.4131797407        9.0050991258
  O         7.8261729719       11.6711815659        7.4995190686
  O        -3.8566410396       -3.9329742191        9.4651881347
  O        13.1504347430       -2.9804361455        7.9323525940
  O        -1.1493456926       -3.4900536790        8.6961790041
  O        -2.4316311369       -2.7208910328        6.9825848348
  O         3.0971952940        4.8133737797        5.3372403307
  O         1.6426855391        5.5790062250        6.9232887050
  O         2.1329102288        2.6181768071        6.8599524841
  O         1.0055906486        3.3077595400        8.7051229884
  O         5.0527213817        2.5447017935        7.8803108924
  O         3.7110790362        3.4593986282        9.4554597396
  O        13.3032260628        8.1588461095        1.1039419021
  O        -2.5889294954        5.1015090104        4.6963212857
  O         4.9709547517        7.7709821357        6.1573688593
  O         3.7354507965        1.6935124433       11.6232231462
  O         5.3129778357        1.5380803625       13.7858125179
  O        10.1384159380        1.5471838959       11.4956871317
  O         8.9280781091        3.0480027752        8.7657490210
  O        -1.6621439905        2.2473055206        8.2409433235
  O        -2.8871894443       -0.2004726607        8.1975133090
  O         1.3175439738       -2.4071515352        7.5502839402
  O         2.6201873077        0.0468602967        7.6176082052
  O        12.7948189065       11.8373900367        1.2766087501
  O        -0.0457341998        8.6792626545        6.9814001263
  O        11.3640696499       13.2949223136        3.3019823058
  O        10.9416463769        7.9854889858        6.1634680513
  O        12.6965794443        7.9558919834        3.9376015880
  O        -5.3606346468       -1.6000546660       13.7769173843
  O        -3.7876489418       -2.4345093631       11.8069844768
  O        10.6388978184       -3.0512357163        8.9600750557
  O         9.0831401227       -2.2170377726       11.0547833358
  O         0.8832560087        9.5237947786        3.7436094984
  O         3.1692192239        7.2603314518        3.2403120227
  O         0.0788507598        5.4884024297        0.3791073661
  O         0.6415192811        3.2798952417        2.7954479109
  O         5.5283528196        5.8960629441       10.9256014269
  O         7.8105155318        9.2081981931       10.7176340352
  O         5.8296307379       10.4674843963        5.2778574978
  O        -2.9404234726        7.5244237902       11.3082433024
  O         1.5115514788        5.4234991223       10.7360273225
  C         1.3334557103        4.3492878189       11.7084049359
  H        -2.5691776928        7.9800924296       12.0672839220
  H        -2.5604160701        7.9728116937       10.5492026829
  H         0.5828371621        3.6794876461       11.2784491047
  H         0.9644395484        4.7715313382       12.6517568573
  H         2.2047097897        6.0326401124       11.0588939399
  H         2.2739877420        3.8033953181       11.8596819631
