106
74ace65 s4_to_s5 B (s5 augmented)
  Zn       -1.3180296571        0.8672454194       10.9072641334
  Zn        1.4549217818       -1.1024730398       10.1684932681
  Zn        6.8227549776        6.2769681203        0.9793942753
  Zn        3.5999763921        7.8424117640        2.0266489616
  H        -4.9761459544        7.3859143499       10.2936332554
  H        -1.0851222070       12.7713696336       -0.0926814127
  H         7.8182320674        1.0960587537        0.4318958219
  H        -2.4007650417        6.2873687157       10.7253288619
  H         4.8569910475       10.5421076879        2.9486694233
  H         5.9501667401        5.4545583224        5.7003144896
  C         1.0458946825        2.7546033825       10.9758939756
  C         1.2935268984        4.9155620247        0.0879904331
  C         5.3561506632       -2.4109326362       11.4742347466
  C         1.6657193291       11.2889831980        0.3378162105
  C         5.3231299940        2.6147486308       -0.1004535198
  C         6.3200337811       -0.4578590580        1.3499425648
  C         4.8713573449        0.1515086288        1.1088452156
  C         0.1959613069       -0.7908913574        7.4603885017
  C         6.9074054402        0.5081132021        0.2893955039
  C        -0.1576772570       13.3425477068        0.0000130455
  C         5.4778261846        1.1571237749        0.0407992471
  C         1.2749684843       12.7034878302        0.2509243675
  C        -4.5294327426        7.1828300258       11.2693853875
  C        -3.1064736218        6.5736685481       11.5092463436
  C        -2.5921574300       -1.2183740088        5.2262886450
  C         3.5615267255        3.5532859404        8.7646683275
  C        -1.4033776305       -0.6161578056        5.4744352655
  C         3.2136130003        3.7583034055       10.0580646577
  C        11.9586565664       -2.0187971661        4.0650859319
  C         4.0832657518        4.4973570872        7.7937042733
  C         7.5945413314        8.8870046772        2.2767820716
  C         3.0977071106        6.8533378129        4.9324897274
  C         7.6794747546       11.0026973064        3.7741986981
  C         7.0500240034       10.0318031661        2.8959615656
  C         3.3756164874        5.4544857391        7.1292559625
  C        12.4655520379        3.9635036756        0.2455626468
  C        -1.1239939091        4.4906674387        0.6123049762
  C         6.7887262761       -2.5505550898       11.6105660546
  C         0.0408740338        4.1934025842        0.0005821290
  C         3.8039977251        6.1083658221        5.9105932422
  C         4.4935606031       -2.2092234453       10.3681582289
  C        -2.9637458677       -1.6204623192       11.3677200226
  C         2.0642910991       10.4522653845        1.3955116673
  C         5.4770842737        3.6314825491        0.8565541356
  C         9.4973609025        5.0888104156        0.2010549978
  C         1.9382992156        5.4592048115        1.2027874088
  C        -3.0408106516        3.3167301563       11.5929028206
  C         0.3182082376       -3.7464447052       11.0720035025
  C         5.6696588872        9.8930493713        2.6403026270
  C         5.0791365216        5.9666072468        5.3127676185
  C         2.7634224926        1.4271266780       11.0262806515
  C        -1.5038378745        0.5202637328        7.8281522643
  C         2.4426214714        2.7578085714       10.7905087628
  C        -0.9258919851       -0.2431490680        6.8030475545
  N         0.5838473955        1.5266019193       11.2543981661
  N        -2.0207500567       -0.7798250115       11.8279599655
  N         3.2801742269       -1.7850231089       10.7735992746
  N         2.5330584297        9.2696833566        0.9851103887
  N         5.5236571672        4.8608707909        0.3292896530
  N         3.3206175885       -1.6705114037       12.1542485225
  N         2.9088808587        6.3167944031        0.8704113296
  N         0.2523705886       -0.3992842905        8.7423223152
  N        -2.5173912817        2.1355901051       11.9329361630
  N         0.4357891595       -2.4314209467       11.2945820357
  N         5.4290351886        8.7618882606        1.9560366683
  N         5.1272286182        6.5472907262        4.1157945039
  N         1.6744346886        0.6624413136       11.2650983231
  N        -0.8312828959        0.4301643250        8.9795361697
  N         6.6212927225        8.1325982220        1.7335169169
  N         3.8915050669        7.0993347691        3.8676339329
  Cl        0.0179533150        4.1090080689       10.8214269838
  Cl        3.5164695542        5.2864374246       10.8226721153
  Cl       -0.2616549789       -0.4339563716        4.1730487345
  Cl       -5.8458402706       10.4472025245        4.6802836420
  Cl        1.7848717292        5.8097974638        7.7375309255
  Cl       11.7457332224        2.7410424706        1.2550306279
  Cl       -1.2004830472        5.7875469753        1.7864705342
  Cl        1.3920100528       -1.8577077943        6.8668306741
  Cl        9.2276860652        8.3868241756        2.1026325775
  Cl        1.4889429428        7.4499263865        4.8928935383
  Cl        4.8386800222       -2.4295024420        8.7124349359
  Cl       -3.2099725979       -1.8506920977        9.6942385523
  Cl       11.0684632452       -1.2721363238        6.4588274397
  Cl        3.3053959001        1.9664756142        8.0287685049
  F         6.9579565247       -0.7177626295        2.5327406095
  F        -4.9490332187       -3.9300313504       11.4098499831
  F         7.4901805717       -1.7098094872       10.7917755197
  F         2.0249571644       10.6813326241        2.7148305398
  F         5.6092171963        3.4933289679        2.1713905458
  F         9.8163915623        5.1574346756        1.4890755098
  F         1.6868423125        5.1807833547        2.4753229326
  F         3.9172323199        0.4586873947        2.0393977538
  F        -3.2403842557        3.6181944997       10.3023856267
  F         0.2100615639       -4.1860655391        9.8090928661
  F         3.9838269785        0.8935168027       11.0408692055
  F        -2.5859393357        1.2956798478        7.7738820356
  F        10.8499847058       -1.5896427341        3.3902246645
  F         5.3343203063        4.1458282053        7.3422037901
  O         7.2653743966        5.5973036485        2.9031180349
  C         2.6742540027        2.5495826568        4.3762120511
  H         1.8843281564        1.9084011401        4.7848014302
  H         2.4661590031        2.7576454970        3.3208253043
  H         2.7062193321        3.4902996710        4.9364115039
  H         3.6414676045        2.0415771140        4.4599542251
  H         6.4520025381        6.0386024365        3.3746698175
  H         8.0606640022        6.0540792661        3.2342295667
