101
74ace65 s0_to_s1 A (s0 augmented)
  Zn       -1.3746711629        0.8557767747       10.9039929506
  Zn        1.3992658080       -1.1494625314       10.2457984749
  Zn        6.6806211584        6.3616338813        0.9363440620
  Zn        3.5569821953        7.8658758403        2.0073067525
  H        -5.1369077616        7.4069545833       10.4900383723
  H        -1.0966316206       12.7902595084        0.1783878849
  H         7.8622159457        1.1017660523        0.3583686378
  H        -2.5393643033        6.2872706350       10.7129307934
  H         4.9133936896       10.5457477554        2.8852601811
  H         5.4909885089        4.6087472930        4.9611839004
  C         0.9710678165        2.7053268146       10.8406951439
  C         1.2605264467        4.8968144355        0.0856710284
  C         5.3002346446       -2.3870832853       11.5765887237
  C         1.6906279008       11.3112592145        0.3551639877
  C         5.3199396603        2.6110093355        0.0227777598
  C         6.4197181447       -0.4422291699        1.4094379689
  C         4.9788528208        0.1706056967        1.2846723245
  C         0.2025571538       -0.8799314078        7.5176501064
  C         6.9406103523        0.5159417889        0.3011080472
  C        -0.1641877280       13.3601615142        0.2021515887
  C         5.4929893969        1.1635152729        0.1645061016
  C         1.2880090580       12.7192858569        0.3271769327
  C        -4.6134158935        7.1954624410       11.4250030327
  C        -3.1777031615        6.5834852824       11.5489042504
  C        -2.5903597119       -1.2469850848        5.2446592667
  C         3.6397963585        3.4013252712        8.6205962574
  C        -1.3783209295       -0.6984794840        5.5088944210
  C         3.1497085607        3.6607429046        9.8584662176
  C        11.9710128327       -2.0780395150        4.1050093942
  C         4.1117185514        4.3476630651        7.6272115950
  C         7.6097848456        8.7239956138        2.5221284547
  C         3.1188661432        6.8662266945        4.9177978819
  C         7.6874061056       10.9260608559        3.8807838503
  C         7.0758759047        9.9288955786        3.0244182908
  C         3.3355699315        5.2007916307        6.9009160404
  C        12.4297346925        3.9900253808        0.2874605013
  C        -1.1522977703        4.5058547186        0.6335050246
  C         6.7354992135       -2.5288835387       11.6630504008
  C        -0.0006774082        4.1891837310        0.0081902662
  C         3.7238527878        5.8283867985        5.6616141992
  C         4.4160686255       -2.2043463181       10.4889810236
  C        -3.0205607158       -1.6342948487       11.3537540510
  C         2.1252582333       10.4868173333        1.4027210992
  C         5.5006314879        3.6148064822        0.9831059682
  C         9.4632623723        5.1061509482        0.3250810463
  C         1.9151285029        5.4530401191        1.1934274337
  C        -3.0455641344        3.3370645784       11.6015016533
  C         0.2637499892       -3.7525401318       11.1982740718
  C         5.7103535465        9.8414425335        2.6746467981
  C         4.7743059530        5.4045338861        4.7960443004
  C         2.6940191388        1.4032600638       11.0101282258
  C        -1.4876794652        0.4506113838        7.8467324037
  C         2.3625362291        2.6887932643       10.6149397076
  C        -0.9056043038       -0.3305260607        6.8395734211
  N         0.5195081851        1.5255470990       11.2923936887
  N        -2.0823088536       -0.7822109494       11.8010131416
  N         3.2060558751       -1.7953779253       10.9160698949
  N         2.5713237501        9.2997969338        0.9845617664
  N         5.4966890715        4.8480851639        0.4568144486
  N         3.2699639822       -1.6700720837       12.2991418165
  N         2.8674500532        6.3229881995        0.8415198390
  N         0.2468942216       -0.4660845401        8.7957282797
  N        -2.5244650353        2.1552312288       11.9390401973
  N         0.3674496795       -2.4378894133       11.4237800201
  N         5.4561730335        8.6857579838        2.0474632848
  N         4.7920017809        6.1006559068        3.6620007941
  N         1.6142748522        0.6627430950       11.3824888030
  N        -0.8315643087        0.3760312605        9.0060579646
  N         6.6286696950        7.9849020483        1.9686237325
  N         3.7630906458        7.0130506067        3.7473746305
  Cl       -0.0726637398        4.0159487543       10.5203575409
  Cl        3.2891218789        5.2521306961       10.5420681830
  Cl       -0.2061918358       -0.5822201390        4.2278419793
  Cl       -5.8729125427       10.3901621010        4.8456419011
  Cl        1.6868580829        5.4139555957        7.4313729876
  Cl       11.7213087347        2.7748490615        1.3155019482
  Cl       -1.2029395021        5.8009654524        1.8088140546
  Cl        1.3877254950       -1.9762966446        6.9609849214
  Cl        9.2193497896        8.1528048456        2.4540198769
  Cl        1.7983410180        7.9098048737        5.2680676869
  Cl        4.7324110262       -2.4263295840        8.8287800740
  Cl       -3.2894256710       -1.8639180191        9.6830497000
  Cl       11.0372627298       -1.2229500232        6.4427146183
  Cl        3.5934401874        1.7446011842        7.9998397669
  F         7.0680453122       -0.6808173004        2.5906088305
  F        -5.0254103906       -3.9287210005       11.4115309937
  F         7.4115230515       -1.7122240245       10.7970657415
  F         2.1541295344       10.7530769764        2.7139724013
  F         5.7186857101        3.4318560129        2.2845496908
  F         9.8148641810        5.1599934311        1.6053320322
  F         1.6861046129        5.1797840263        2.4720014229
  F         4.1793113307        0.5016784614        2.3433989962
  F        -3.2431115788        3.6200172676       10.3055512795
  F         0.1352275007       -4.1835221988        9.9344372441
  F         3.9143671064        0.8879713295       11.0455038774
  F        -2.5642003877        1.2254355452        7.7737484712
  F        10.8778853717       -1.6647710621        3.3916919179
  F         5.4093615137        4.1404119970        7.2210857035
  O        10.6421615152        7.6219115615        6.2848937615
  O        11.9539110167        5.7083512031        6.2848937615
  C        11.2980362659        6.6651313823        6.2848937615
