164
91692c9 s4_to_s5 A (s4 augmented)
  Al        5.0594360634        2.7483000527       14.0912688459
  Al        8.2297678758        2.9023001542       14.1057013524
  Al        6.7449091277        5.6091566259       14.1138599956
  Al       -0.1070027975        5.7513058001       28.2364967617
  Al       -1.5840731464        8.6537742661        0.0159686489
  Al        1.4197294684        8.6513388094        0.0268112525
  H        -2.0726395418        4.0851140942       20.3302278575
  H         4.2987249785        8.1073206337       20.3446656968
  H        -2.2964998106       11.5338514094       20.3662373339
  H         4.6277780568        0.3006378246        6.1581487729
  H         4.8573627825        7.8501625047        6.1873140593
  H        11.1270382148        3.8232892231        6.2221763704
  H         3.0669308920        1.8523134542       14.8722917550
  H        -0.0378737764        3.6293152826        0.8640375434
  C         4.7236349149        5.0261283490       16.0397894042
  C        -0.0668488902       11.6586385991        5.6217187972
  C         3.2644532650        6.1625363539        5.7101649662
  C        -3.2974352551        6.0738707103        5.7834268185
  C         9.9621318845        4.8107833343       21.7644306574
  C         4.5898290359        6.2644329919       21.8251589870
  C         6.0626166047        0.7759753403       21.8932621934
  C        -0.8441684390       11.0400186862        7.6130399225
  C         3.1193811622        7.1874429532        7.6827229830
  C        -2.3543933691        5.6251630667        7.7592350864
  C         8.9879868960        5.6618582680       20.8684071348
  C         6.9515953315        1.4084967076       16.0613942736
  C         4.3427534103        4.9660747322       20.9581762137
  C         7.3267831086        1.2204326299       21.0795632958
  C         0.4045483372       10.6174596572        6.7330479521
  C         2.1325244442        6.2980685732        6.8170152454
  C        -2.6109613463        6.9358121884        6.9323222035
  C        -3.0548592427        6.3479489859       23.8340734240
  C         2.9207959307        6.2025345341       23.9195710360
  C        -0.0391662268       11.2283945804       24.0065606775
  C         7.0210948539        0.5143225716        9.7198810191
  C         3.9053006405        5.6957909071        9.7873491448
  C         8.9676016531        4.9471579625       15.9401825694
  C         9.7694590102        5.5839408275        9.8605768367
  C         9.8497152384        5.5064915673       18.3702766832
  C         3.9287046808        5.6703558389       18.4774396193
  C         6.9632805582        0.5198126848       18.5515738958
  C        -0.0859557221       11.3306822649        4.2536540114
  C         3.0018427665        6.3142941485        4.3376487327
  C        -3.0365494003        6.2737983731        4.4117866518
  C         4.7055086964        5.0518479863       12.2243485823
  C         6.9593258444        1.3274524011       12.2374478521
  C         8.9044065537        4.9254231621       12.2642670535
  C         2.1226640416        6.7325887361        1.8867807171
  C         2.0544277356        6.6727549558       26.3710008918
  C        -2.2494603398        6.7138100470       26.3314203186
  C        -0.0889607794       10.2334362596       26.4494184546
  C        -3.1518765187        7.0901306543       20.4122322442
  C         2.2678136695        5.6463100937       20.5521408637
  C         0.8388655588       10.9973137304       20.6412117124
  C         7.7650927242        0.8683055107        6.3250239936
  C         3.7763768205        4.8491993337        6.4365161181
  C         9.0878235526        6.2735813068        6.5151196935
  C         9.5165171203        6.9917842243       21.5107046934
  C        -2.2328560589        6.7729020049        1.9405906468
  C         2.9475181984        4.7566990147       21.6544714915
  C         8.1946073472        0.1119803358       21.7772814829
  C         1.2833756639       11.7367874204        7.4234712237
  C         2.6688285954        5.0079282738        7.5349103279
  C        -3.9942061182        7.1339709726        7.6385100510
  C        -2.7676911837        6.4865490350       25.0081351293
  C         2.6266613315        6.4067716477       25.0811996849
  C        -0.0759849451       10.8812513227       25.1725616354
  C         7.0127009639        0.7837141583       10.9060988150
  C         4.2029446886        5.4596732572       10.9414797716
  C        -0.0824408526       10.2817468698        1.8373067957
  C         9.4869014921        5.2789778389       11.0033865290
  C         9.5434607235        5.2782997945       17.2139385442
  C         4.1926430194        5.3809417842       17.3271725451
  C         7.0275146152        0.8338507472       17.3785837163
  C        -0.0820990838       10.9655886845        3.0936497131
  C         2.7009321098        6.4632239728        3.1701955958
  C        -2.7748399543        6.5139759259        3.2479389692
  C        -2.1960087705        6.2294138163       21.3256515386
  C         2.5327095228        6.9361174751       21.4138705948
  C        -0.4346667710       10.5608220936       21.4634767004
  C        10.1156429282        5.7416165554       19.7358429209
  C         6.5216027345        1.2596573051        7.2053913891
  C         4.7590338006        5.7486466005        7.2833972071
  C         9.3700080956        4.9557879562        7.3411774407
  C        -3.3116290033        6.1540308174       22.4626666173
  C         3.1979663128        6.0422126332       22.5503473901
  C        -0.0137679733       11.5638437769       22.6407367844
  C         6.9928724078        0.2410273627        8.3385131572
  C         3.6454412389        5.8848287308        8.4191127196
  C        10.0418141968        5.8208185867        8.5021738014
  C        -2.7024541766        4.9041008449       20.6801867501
  C         3.6627129666        5.8699627025       19.8439227884
  C         3.9185311787        7.1605068192       20.7301313147
  C        -1.2950396446       11.6659899769       20.7773145766
  C         5.6443924277        0.1661368490        6.5292461465
  C         4.2384772659        7.0481940434        6.5916931958
  C        10.7522178856        4.7574170394        6.6427363810
  C         6.9156446062        0.2097847555       19.9250499706
  O         5.7997008444        1.7050979108       15.6520103654
  O         1.3133210593        5.8816938992        1.4275464212
  O        -2.6058924573        7.8609760035        1.3529246289
  O         1.0601004378        9.9766739993        1.3489295796
  O         5.8205501029        1.5666028903       12.7199930005
  O         9.2502219233        3.8158982448       12.7988544581
  O         5.3982911889        5.9280416075       12.8653389153
  O        -1.4644144272        5.8481725964       26.8035603470
  O        -1.2318568582        9.9481406855       26.9500367881
  O         2.4109440876        7.7711162985       26.9468620297
  O         4.4541281080        3.8727262630       12.5830760602
  O         9.2512726959        3.8108308143       15.4372902256
  O         8.0964019432        1.5733570943       12.7975551738
  O         8.0444850231        5.7416321548       12.7201579689
  O         1.2211325581        5.8335657959       26.8026726294
  O        -2.6089077751        7.8224306239       26.8919214671
  O         1.0506102706        9.9388856158       26.9530786206
  O         6.6905643019        3.7705882761       14.0909075561
  O        -0.0813926023        7.7263061973        0.0054453287
  O         5.5880603094        5.8565437226       15.5820678607
  O        -1.4010712751        5.9341518313        1.5030518488
  O        -1.2243773660        9.9772222755        1.3474994990
  O         2.4514916638        7.8618384193        1.3522303858
  O         4.3376899627        3.9502222845       15.5057122653
  O         8.0633679554        1.6149621039       15.4416087914
  O         8.1660288643        5.8010102160       15.4350907669
  O         3.6134666653        1.7670108396       14.0789166428
  O        -0.1487532398        4.0069525507       28.2318208691
  F         8.7580081798        8.0324642304       21.9110268664
  F         8.5699588284        1.7122973452        5.6467335419
  F         4.0441552775        3.6925952677        5.7954529668
  F         7.9417857250        6.6004696285        5.8739682591
  F         7.6962462438        5.3883145423       20.6263896031
  F         5.2206483042        3.9990690256       20.6330779852
  F         7.7130818817        2.4860879083       20.8537668770
  F         0.7999383665        9.3751358693        6.4024508320
  F         0.8488145322        6.5364966335        6.4800258051
  F        -1.7220394933        7.9203753427        6.6997716384
  F         9.6279408656        3.6825799484       22.4343107463
  F         2.4604973719        3.5973710086       22.1359269846
  F         5.7080590675        6.5768713950       22.5113118811
  F         5.2220630887        1.6219349036       22.5166816785
  F        -1.6919226771       10.2316119696        8.2824266525
  F         2.7949611277        8.3167189837        8.3543791261
  F        -1.2152644650        5.3395127275        8.4287911159
  F        -0.9131311314        6.5113789734       21.6076642318
  F         1.6356428975        7.9031742770       21.6845230820
  F        -0.8526517497        9.2944149950       21.6838190315
  F         6.1090636152        2.5112413255        7.4569544593
  F         6.0576742230        5.4749259641        7.5321640729
  F         9.4374830601        0.2946466601       22.2828704783
  F         8.4871977152        3.9641169924        7.6022060544
  F         2.5445369661       11.6195174417        7.9014167665
  F         1.9255649026        4.0142935645        8.0555077456
  F        -4.4110614985        8.3170022011        8.1329016869
  F        -2.8435599603        8.2222090327       19.7304229470
  F         1.1476616292        5.3248891789       19.8750021559
  F         1.6770976818       10.2062299005       19.9494576539
  O         6.9367181191        7.6388350830       14.1590972536
  C         5.8280892528        8.5835529366       14.1418695355
  H         5.1902377693        8.4393620798       15.0233959631
  H         5.2625903886        8.3708623949       13.2315588518
  H         5.5696162348       11.9005211324       17.1943789437
  H         6.2318214040        9.6025736368       14.1064113982
  H         6.3091967245       11.8756072972       17.1943789437
  H         7.5189876748        7.8306346497       14.9192625712
