      54
 i =      172, E =     -1444.3734804872
 Ni         3.0459000636        1.1621741268        9.1496366278
 Ni         0.7950127192       -0.1871685531        7.4914562989
 Ni        -1.4835072270       -0.9682907374        9.4665536855
 Ni        -1.4843009517        8.6844187869        3.8954721881
 Ni         0.7921480408        6.5872668040        3.6059322080
 Ni         3.0397437904        7.3599327680        5.5996475066
  H         2.8573282958        3.5676009969        6.1520424524
  H        -1.7193826571       11.0762093299        6.9870591165
  H        -1.7214306116        0.5049104939       13.0830270749
  H        -1.9131840382        4.2117856663        7.3083889269
  H         2.5992438524       -3.3556727870        5.7516552861
  H         2.5855808271        6.6947178631       -0.0410052418
  C         1.1504004995        2.6940242685        7.1447484266
  C        -1.1571623923       -2.7425615868        7.1907759544
  C         3.3817186385        0.0523659571       11.8254792551
  C         3.3860999971       10.2256425763        5.9517296777
  C        -1.1640949054        7.6057195726        1.2170102527
  C         1.1460476047        4.8618576296        5.9187900728
  C         1.8083437848        3.7109560244        6.4093829063
  C        -2.7610877645       11.2295643235        6.7065710627
  C        -2.7665119342        0.1969388566       13.0740893297
  C        -0.2390767689        2.8966121584        7.4689415970
  C         4.2601470592       -2.5579299691        6.8353910034
  C         1.9965224325       -0.3475908003       11.8419887477
  C         2.0055545837       10.4520855478        5.6015317230
  C         4.2493338602        7.2156340113        1.1955500819
  C        -0.2443845684        5.0306378814        6.2579932324
  C        -1.1417202680        1.8637265417        8.0198189056
  C         3.3724531934       -1.5475304734        7.4424262774
  C         1.1163445067       -0.3397762406       10.6595139524
  C         1.1198584214        9.4246781023        5.0266760174
  C         3.3661947808        7.2242391036        2.3797476803
  C        -1.1488225020        6.0294237532        5.6504490512
  C        -0.8611196014        4.0752554234        7.0623950813
  C         3.6473311878       -3.4993006621        6.0115824182
  C         3.6352331721        6.9863131518       -0.0337291825
  O         1.8233653485        1.5531503965        7.4643882434
  O        -0.4950026880       -1.8814036193        8.0046715949
  O        -2.7485772628        0.3379932881       10.6742769535
  O        -2.7488239333        9.0798037405        5.6326730977
  O        -0.5014068090        7.8693249452        2.3717446397
  O         1.8135675455        5.7302222060        5.1047366681
  O        -0.8504030143        0.6177290144        7.8622315502
  O         3.6738952528       -1.0277889630        8.5816825258
  O         1.4152025993        0.4064554822        9.6508072044
  O         1.4204805802        8.1833730675        5.1804153043
  O         3.6735628342        7.9450209092        3.4023079709
  O        -0.8521615835        6.5358819982        4.5040012687
  O        -2.2486648818        2.2193892877        8.5680023397
  O         2.2591421772       -1.2529545596        6.8737111118
  O         0.0197689071       -1.0082396331       10.6761778964
  O         0.0182471556        9.7602933087        4.4598614246
  O         2.2552236695        6.5800298492        2.3559435694
  O        -2.2614962889        6.3132541903        6.2232395225
