      60
 i =      236, E =     -1468.4847940107
 Ni         3.3085472456        0.8841907101        9.1867389199
 Ni         0.8492089999       -0.2251129710        7.3672372767
 Ni        -1.2301019268       -1.1788702609        9.5517816802
 Ni        -1.5124914413        8.7827801896        3.9607683033
 Ni         0.7290926486        6.7094952015        3.5055442541
 Ni         3.0458781746        7.3555286818        5.5302744946
  H         2.7100325060        3.3773245473        5.5881697455
  H        -1.6227174724       11.0398633308        6.9175998784
  H        -1.5159269130        0.0912714653       13.2906074360
  H        -1.9203450371        4.1722982162        7.1798213489
  H         2.6566076341       -3.3437291887        5.9283197019
  H         2.7200712104        6.6255477104       -0.0528220145
  C         1.0444544174        2.5265438527        6.6795635860
  C        -1.0197408863       -2.7475199612        7.2012242206
  C         3.6677242936       -0.4273692510       11.9656625645
  C         3.4175104467       10.2085905713        5.9900556203
  C        -1.0792554191        7.5451407560        1.3082311387
  C         1.0660953278        4.7667867866        5.6015129523
  C         1.6966799467        3.5591656817        5.9449913697
  C        -2.6756272248       11.2096291105        6.6975443828
  C        -2.5810483547       -0.1275309483       13.2351606330
  C        -0.2799452258        2.7983083791        7.1816021307
  C         4.3799879234       -2.5543999785        6.9089405736
  C         2.2381910145       -0.7005287787       11.9004843704
  C         2.0219551212       10.4290195279        5.7179779203
  C         4.3209092600        7.2178412717        1.2315052613
  C        -0.2956736582        4.9654058887        6.0472331529
  C        -1.0614553427        1.7942979331        7.8943521727
  C         3.5349101818       -1.4498161369        7.4045486992
  C         1.4100557898       -0.7363557506       10.6644242371
  C         1.1029785097        9.4190395964        5.1542328218
  C         3.3711770912        7.3687777898        2.3466946125
  C        -1.1909901426        5.9847526180        5.5057410158
  C        -0.8924160454        4.0074383091        6.8597834822
  C         3.7098860689       -3.5102196783        6.1471140929
  C         3.7844041666        6.8512392572       -0.0056230911
  O         1.6961061938        1.3914944063        6.8780276817
  O        -0.2873938742       -1.9007396925        7.9834132652
  O        -2.3933490425       -0.3046603733       10.8715464954
  O        -2.7389249980        9.0650347717        5.6350466228
  O        -0.4627918458        7.9835663616        2.4441781716
  O         1.7388774279        5.6782136108        4.8460705188
  O        -0.6938477704        0.5675497224        7.9076418315
  O         3.9704646493       -0.7943105419        8.4489458818
  O         1.7285877563       -0.0358677183        9.6255004423
  O         1.4054009264        8.1710195158        5.2403599956
  O         3.6513866888        8.1353388941        3.3434331209
  O        -0.9108486584        6.5456094696        4.3828722690
  O        -2.1545496710        2.1139519615        8.5062706780
  O         2.4317230939       -1.2090580047        6.8239705344
  O         0.3075305471       -1.3967164539       10.6857211260
  O        -0.0217239364        9.7914186205        4.6545508865
  O         2.2356751424        6.7697454102        2.2905574582
  O        -2.3045056342        6.2460385031        6.0937117567
  O         2.7644499359        2.4217095124       10.3523923647
  C         2.3168988189        3.6557210029        9.7131999774
  H         1.3437620399        3.4309949714        9.2690031725
  H         2.2118887239        4.4330531862       10.4809830939
  H         3.0252186305        3.9652156573        8.9350055738
  H         3.6015102416        2.6109636792       10.8212802035
