57
ea9f3ea s1 final converged frame
Ni         3.1975265956       1.0966973484       9.1438604649
Ni         0.8798449638      -0.1781221324       7.4340426136
Ni        -1.3359713581      -0.9779616254       9.4663462117
Ni        -1.4923423852       8.7751671112       3.8953152604
Ni         0.7354342693       6.7081827074       3.5024813004
Ni         3.0518056576       7.3776997170       5.4998326115
H          2.8153768842       3.5372067490       5.8898308258
H         -1.6241032587      11.0739677743       6.8784131940
H         -1.6263609171       0.5121559684      13.1161435086
H         -1.9235946202       4.1853371315       7.1968850173
H          2.6730623087      -3.3043037085       5.7790714041
H          2.6717412669       6.7601160044      -0.0827679968
C          1.1412972525       2.6673793850       6.9484166176
C         -1.0353503674      -2.7180040587       7.1372527134
C          3.5093710414       0.0283150899      11.8285187899
C          3.4360443037      10.2466689719       5.9065017418
C         -1.1079780358       7.6893525720       1.2168032133
C          1.0968413858       4.8340199269       5.7174169917
C          1.7753216141       3.6801467370       6.1822925933
C         -2.6723849028      11.2447331069       6.6362515520
C         -2.6748623043       0.2181262056      13.0885294333
C         -0.2340546647       2.8811244064       7.3186071998
C          4.3757088721      -2.5285552959       6.8084411446
C          2.1181797045      -0.3503695503      11.8256579979
C          2.0483380650      10.4707759524       5.5946550513
C          4.3029769381       7.3121818809       1.1782410272
C         -0.2837662559       5.0035447469       6.0966147342
C         -1.0778335439       1.8531620316       7.9426702301
C          3.5015057870      -1.5105268993       7.4157152375
C          1.2479358478      -0.3657822050      10.6329526939
C          1.1306863083       9.4500301077       5.0474675808
C          3.3715866859       7.3796253865       2.3261802098
C         -1.1846593912       6.0112811122       5.5133202211
C         -0.8782767165       4.0509425847       6.9210132113
C          3.7246051054      -3.4672458778       6.0107493883
C          3.7242135228       7.0391302374      -0.0594472925
O          1.8162772366       1.5438641899       7.2803368155
O         -0.3473518215      -1.8614993771       7.9425790203
O         -2.5944301307       0.2658822748      10.6843557742
O         -2.7183463262       9.0957416262       5.5730396615
O         -0.4585289918       8.0110290573       2.3727429429
O          1.7403968155       5.7157162078       4.9082645169
O         -0.7621342858       0.6078699665       7.8495408342
O          3.8130461532      -1.0154875780       8.5670785522
O          1.5486405543       0.3507627941       9.6055321129
O          1.4215987351       8.2027101936       5.1753371529
O          3.6579295113       8.1281127828       3.3341922138
O         -0.9044439339       6.5425167144       4.3746787197
O         -2.1729838436       2.1946846196       8.5185904016
O          2.4048269391      -1.2014099419       6.8269452718
O          0.1473240985      -1.0222901726      10.6727242003
O          0.0105107657       9.8028640479       4.5271388775
O          2.2455625300       6.7653154510       2.2821112550
O         -2.2951501112       6.2962363321       6.0940766076
O          2.3585894411       2.9112983934      11.0711573328
C          1.8336124041       3.9594745940      11.1674978764
O          1.3074678466       5.0022367329      11.2652544270
