59
ea9f3ea s2 final converged frame
Ni         3.2943406990       0.8919346111       9.2163954060
Ni         0.8781603581      -0.1184143829       7.4511682533
Ni        -1.1912917588      -1.1878216033       9.5975924709
Ni        -1.5178853783       8.8129078663       3.9602503098
Ni         0.7074015351       6.7525970244       3.5628869015
Ni         3.0292712992       7.4328092626       5.5376026754
H          2.6863946588       3.4826518509       5.6790927731
H         -1.6256424299      11.1036214719       6.9171384462
H         -1.5221909993       0.0713986841      13.3381119142
H         -1.9452888953       4.2696480464       7.2656772617
H          2.6524461586      -3.2506137447       5.9370862327
H          2.7110920857       6.6020491976      -0.0065024481
C          1.0189239534       2.6319513849       6.7670763747
C         -1.0155631860      -2.6753327842       7.2065042290
C          3.6708152925      -0.4846451190      12.0155235756
C          3.4082549948      10.2850843886       5.9889951170
C         -1.0898188449       7.5382425950       1.3484008284
C          1.0441853735       4.8721856001       5.6940872866
C          1.6772670239       3.6707181987       6.0449121420
C         -2.6778652683      11.2805494680       6.6988116291
C         -2.5854018247      -0.1555251226      13.2845280892
C         -0.3067465490       2.8938458130       7.2675364579
C          4.3851005364      -2.4778172106       6.9162788002
C          2.2352198550      -0.7445911917      11.9506479875
C          2.0122811854      10.5123864117       5.7166808360
C          4.3098508940       7.2004438284       1.2761424967
C         -0.3175683188       5.0683235678       6.1427822151
C         -1.0778360543       1.8817142503       7.9888296129
C          3.5642608719      -1.3653374496       7.4271468190
C          1.4240757112      -0.8102037216      10.7093873698
C          1.0907209521       9.5031304561       5.1515597209
C          3.3593766438       7.3605374265       2.3868640028
C         -1.2155606476       6.0726388798       5.5792015125
C         -0.9165822191       4.1048409211       6.9486656223
C          3.7058466894      -3.4248561000       6.1515192396
C          3.7761175365       6.8243465977       0.0415268395
O          1.6758170088       1.5002009223       6.9382269896
O         -0.2862327690      -1.8284733265       7.9888611650
O         -2.3959737628      -0.4118649124      10.9254017299
O         -2.7524382616       9.1395960470       5.6335452634
O         -0.4770575239       8.0047781189       2.4816455082
O          1.7109148852       5.7744240819       4.9245219931
O         -0.6224299338       0.6879300732       8.1090205694
O          4.0400398319      -0.7151066857       8.4563429686
O          1.7706490688      -0.1820692487       9.6331213370
O          1.3935340359       8.2542773293       5.2409211518
O          3.6397046184       8.1495260274       3.3685066609
O         -0.9352944381       6.5931131263       4.4390985013
O         -2.2263572675       2.1716172111       8.5047135235
O          2.4565440289      -1.0997139563       6.8723637640
O          0.3049411863      -1.4437260050      10.7478464969
O         -0.0365955156       9.8651070805       4.6525042222
O          2.2285328583       6.7478686505       2.3520687056
O         -2.3300022638       6.3507594792       6.1583859710
O          2.4378453655       2.3422039894      10.2106997762
C          2.2023101233       3.4276827919       9.6755332174
O          1.3759975527       4.2789729908      10.2791593609
H          2.6434254585       3.7307783125       8.7153267915
H          1.2597551402       5.0711547888       9.7161742488
