61
ea9f3ea s3 final converged frame
Ni         3.3543240980       1.1074187398       9.4583080545
Ni         0.8685662640      -0.2790901928       7.3604716201
Ni        -1.2498119665      -1.1309310401       9.5196684028
Ni        -1.5025194557       8.7145505784       3.9631668784
Ni         0.7433234612       6.6608270848       3.4983183712
Ni         3.0469397589       7.3049396907       5.5278603552
H          2.6936660795       3.3207306686       5.4994571987
H         -1.5998578009      10.9681527437       6.9231268849
H         -1.5306499980       0.2602690177      13.2371208737
H         -1.8552227094       4.1725896401       7.3017696733
H          2.6936331358      -3.3626539078       5.8904635151
H          2.7512018263       6.5942035512      -0.0639722191
C          1.0439801994       2.4687859960       6.6192759135
C         -0.9942843766      -2.8074381673       7.2004191502
C          3.6387962005      -0.2402355644      11.9192524867
C          3.4379915018      10.1559945577       5.9780423521
C         -1.0676933746       7.5671577917       1.2883559241
C          1.0712578439       4.7304430638       5.5903083177
C          1.6917426076       3.5085139839       5.8837089664
C         -2.6497947652      11.1486058582       6.6960104015
C         -2.5875576233       0.0008458320      13.1862956452
C         -0.2342716166       2.7737783569       7.2107770420
C          4.4180312442      -2.6005402627       6.8881148422
C          2.2361890841      -0.5834063379      11.8789296189
C          2.0481637215      10.3896284771       5.6900501268
C          4.3457322143       7.1928663184       1.2240593359
C         -0.2775390858       4.9416675164       6.0726697497
C         -0.9957840381       1.7745332775       7.9685965413
C          3.5697049765      -1.5340887460       7.4643620733
C          1.3810164752      -0.5638069313      10.6672741802
C          1.1154143282       9.3714651651       5.1620405881
C          3.3886013272       7.3027794490       2.3465136532
C         -1.1761976892       5.9496695114       5.5140008259
C         -0.8489437525       3.9961038431       6.9207346998
C          3.7455176185      -3.5392407418       6.1094108683
C          3.8056720426       6.8634915409      -0.0191916816
O          1.6701271932       1.3158418898       6.7467132120
O         -0.2769039579      -1.9628139148       8.0026807623
O         -2.4209763862      -0.0320760578      10.7992678159
O         -2.7271203369       9.0001431087       5.6323355822
O         -0.4497694565       7.9667184146       2.4335320705
O          1.7439210836       5.6607134887       4.8468303572
O         -0.6936789340       0.5256746914       7.8639291448
O          3.9334200130      -0.9741971812       8.5694145224
O          1.6929813474       0.2311213277       9.6935632845
O          1.4011897778       8.1254417220       5.2970552201
O          3.6614843911       8.0655757898       3.3459591627
O         -0.8980699135       6.4807732322       4.3715920969
O         -1.9675247101       2.1481919100       8.7183199718
O          2.4719874099      -1.2547538968       6.8775059264
O          0.2954819749      -1.2424166525      10.6682624004
O         -0.0107731939       9.7284621043       4.6536977616
O          2.2565256633       6.6987666776       2.2834980513
O         -2.2902893528       6.2298469224       6.0921033245
O          2.4723470604       2.7651157584       9.2384642116
C          1.3799779804       3.0992433900       9.7268468207
O          3.8464465558       3.9611239245      11.9834442171
H          1.0831451027       4.1559545418       9.6758849190
H          4.0140769539       4.6969366665      12.5953618476
H          0.7166879660       2.3693216462      10.2166542614
H          4.0800918065       3.1674721923      12.4963505972
