62
ea9f3ea s5 final converged frame
Ni         3.2561558455       0.8785660453       9.0569257697
Ni         0.8590754305      -0.2213228266       7.2961538934
Ni        -1.2392740801      -1.1643457860       9.5802303531
Ni        -1.5158767519       8.8046763825       3.9599020858
Ni         0.7218080683       6.7799298020       3.5061070557
Ni         3.0342698296       7.3813559645       5.5290048710
H          2.7018285650       3.4221906479       5.5418670435
H         -1.6182468773      11.0329033825       6.9364821970
H         -1.5278102776       0.1705616555      13.2866765108
H         -1.9512141347       4.1679663335       7.0957681729
H          2.6718153681      -3.3024697413       5.9156028362
H          2.7159908665       6.6800450361      -0.0466336818
C          1.0221512339       2.5386416611       6.5890090481
C         -1.0073983024      -2.7424535555       7.2167487020
C          3.6580136203      -0.3507935930      11.9592929582
C          3.4203261173      10.2225818041       5.9937361456
C         -1.0879358595       7.6164919624       1.3043514414
C          1.0570584829       4.8102323897       5.5772078703
C          1.6845076606       3.5944371900       5.8921905687
C         -2.6680803243      11.2134983379       6.7097000383
C         -2.5919280878      -0.0499286275      13.2300365286
C         -0.3097784553       2.7933877592       7.0718036858
C          4.3985180218      -2.5353868996       6.9125480376
C          2.2290861052      -0.6323088538      11.8986573887
C          2.0274663736      10.4567920771       5.7128409318
C          4.3134286907       7.2847011514       1.2314899035
C         -0.3086181919       5.0011258723       6.0179081833
C         -1.1041251197       1.7551584090       7.7144415191
C          3.5616752964      -1.4363147302       7.4170263913
C          1.3850329532      -0.6808091226      10.6741579690
C          1.0993878060       9.4450070964       5.1694241609
C          3.3600599901       7.4372819654       2.3446576534
C         -1.1966245111       6.0382500508       5.4992264750
C         -0.9173089441       4.0149404413       6.7879668462
C          3.7228929602      -3.4786228561       6.1388736279
C          3.7785227814       6.9139272390      -0.0037826527
O          1.6618510766       1.3925848216       6.7457637464
O         -0.2798834219      -1.8992878185       8.0003864620
O         -2.4027863084      -0.2332979984      10.8671486398
O         -2.7424585717       9.0751663663       5.6389711913
O         -0.4707028692       8.0513508856       2.4400007155
O          1.7318899143       5.7452474966       4.8458326344
O         -0.7282728800       0.5315630186       7.7220739096
O          3.9552751412      -0.8290735183       8.5117469059
O          1.6586891300       0.0349473443       9.6320287594
O          1.3883573595       8.1995850812       5.2975213527
O          3.6386767655       8.2067934538       3.3392271315
O         -0.9180064167       6.6149457079       4.3821193500
O         -2.2366407560       2.0484126002       8.2663544662
O          2.4862017704      -1.1463229131       6.8141751753
O          0.2877436405      -1.3505773810      10.7302430181
O         -0.0223491756       9.8055205716       4.6571576034
O          2.2231624219       6.8437707390       2.2877640915
O         -2.3053413866       6.3054355664       6.0928865311
O          2.5892320867       2.6116354032       9.7572614008
H          2.2849081454       2.5765313782      10.6851225861
H          3.3618429978       3.2116992898       9.7120781924
C         -0.2683181140       2.4830357776      11.5315005971
H          0.6188035816       2.1228485281      12.0711124719
H          0.0197005828       3.1173853936      10.6840909541
H         -0.8825223684       3.0612061714      12.2315628113
H         -0.8334572397       1.6188497028      11.1632740039
