105
74ace65 s2_to_s3 A (s2 augmented)
  Zn       -1.3660298201        0.9203174412       10.9081098535
  Zn        1.3102954502       -1.0912823399       10.2955861781
  Zn        6.7015737085        6.2266057014        1.2407264576
  Zn        3.4938119647        7.8960960458        1.9814628104
  H        -5.2906631747        7.3736623204       10.4454389511
  H        -1.1595958217       12.7857495478        0.2105405908
  H         7.8009130924        1.0967521234        0.1465034157
  H        -2.6872936244        6.2521607251       10.5779670469
  H         4.7579396299       10.6038166895        2.7945858228
  H         5.6059703805        5.1348877663        5.2423260418
  C         0.9992561178        2.8167721450       10.9488383093
  C         1.2614341889        4.9247053079        0.0630707136
  C         5.2704641846       -2.2882926433       11.4916993728
  C         1.6124320687       11.3035718927        0.2860524504
  C         5.2365785941        2.6064950920       -0.0084485815
  C         6.4089767424       -0.4247873869        1.2999807120
  C         4.9630899167        0.1803230496        1.2191652410
  C         0.0306289864       -0.9121108744        7.5243039113
  C         6.8763618778        0.5119909735        0.1506345278
  C        -0.2277706796       13.3559157053        0.1765157629
  C         5.4218223618        1.1570665582        0.0761478393
  C         1.2260808869       12.7148728980        0.2507870532
  C        -4.7295466734        7.1759237021       11.3614635589
  C        -3.2897193503        6.5616329367       11.4355069487
  C        -2.7109743797       -1.1325588678        5.1585565423
  C         3.4767022126        3.5819400842        8.6444304700
  C        -1.4983545370       -0.6184813571        5.4856252094
  C         3.1575648125        3.7707343717        9.9479050466
  C        11.8613826576       -1.9096613676        3.9694283722
  C         3.9768620057        4.5307929900        7.6701098070
  C         7.5123319805        8.9026796653        2.3269114131
  C         2.9387034364        7.0081964299        4.9263040075
  C         7.5409233270       11.0816858295        3.7292301264
  C         6.9476395580       10.0893034031        2.8477410620
  C         3.2587511962        5.4898555831        7.0188944384
  C        12.4031869528        4.0803594769        0.1750720700
  C        -1.1720410515        4.5718911023        0.5294321947
  C         6.7069831641       -2.4391988141       11.5506042805
  C        -0.0048402341        4.2293905661       -0.0540645091
  C         3.6338314146        6.1056002908        5.7683758713
  C         4.3151707093       -2.2084972234       10.4542402302
  C        -3.0110601726       -1.5941924043       11.3413769925
  C         1.9990266019       10.4690551868        1.3455440776
  C         5.3609755278        3.5763279705        0.9901158393
  C         9.4876897076        5.2680524719        0.2526535347
  C         1.9124145561        5.4623245921        1.1831979494
  C        -3.1005046656        3.3254158613       11.5418808978
  C         0.2532926196       -3.7106277537       11.2002587788
  C         5.5770205181        9.9328234927        2.5572144471
  C         4.7831262336        5.7860846263        4.9838736685
  C         2.6792604726        1.4400857895       10.9247970332
  C        -1.5743520763        0.5273266256        7.8431697365
  C         2.3850177479        2.7805195484       10.6941120529
  C        -1.0456622653       -0.2992381580        6.8406642368
  N         0.5187376784        1.6013987372       11.2575631705
  N        -2.0698848021       -0.7528220681       11.8009154792
  N         3.1195473926       -1.8125220990       10.9285590290
  N         2.4506167383        9.2825284638        0.9424589791
  N         5.4362151568        4.8292090566        0.5201200288
  N         3.2545627211       -1.5901726740       12.2970184775
  N         2.8711409553        6.3299747695        0.8412234827
  N         0.1085796435       -0.4918617793        8.7977037273
  N        -2.5995474506        2.1426871550       11.8968844233
  N         0.3626362182       -2.4099350195       11.4798550915
  N         5.3515503690        8.7551950363        1.9558667762
  N         4.7704128654        6.4114123427        3.8109810921
  N         1.5853325579        0.7141971638       11.2309939940
  N        -0.9121073767        0.4222823837        8.9984438490
  N         6.5499295153        8.1058070890        1.8213537416
  N         3.6265368485        7.1729607416        3.7825205082
  Cl       -0.0071678889        4.1947733878       10.8552432405
  Cl        3.5072040300        5.2834998106       10.7277678170
  Cl       -0.2872078108       -0.4808782335        4.2401678622
  Cl       -6.0775377472       10.4871794668        4.7470512132
  Cl        1.7045110805        5.8783668890        7.7061266466
  Cl       11.6691250822        2.8887508210        1.2256319777
  Cl       -1.2137566496        5.8728709931        1.7028387970
  Cl        1.1513387998       -2.0720596860        6.9618149749
  Cl        9.1504798351        8.4314864586        2.1924356947
  Cl        1.4550054700        7.8576147799        5.1113894213
  Cl        4.5375005128       -2.5315102637        8.7937003031
  Cl       -3.2875774775       -1.8073259932        9.6680207973
  Cl       10.8969203788       -1.1275390320        6.3425098635
  Cl        3.1784632118        1.9974920410        7.9018425095
  F         7.1157934344       -0.6115800254        2.4637619040
  F        -5.0020071411       -3.8921873028       11.3515514622
  F         7.3842370465       -1.6403365741       10.6721552640
  F         1.9716704040       10.7187692789        2.6575413166
  F         5.4346894288        3.3539288675        2.3022665315
  F         9.9458178227        5.4530033445        1.4882334635
  F         1.6853933672        5.1805291151        2.4651793085
  F         4.2005925576        0.5384632574        2.2897423488
  F        -3.2705198734        3.5844999346       10.2397238170
  F         0.1867647255       -4.1096334461        9.9261013685
  F         3.8757136516        0.8546318604       10.8576177547
  F        -2.6092156475        1.3684512376        7.7728261238
  F        10.8284856464       -1.4131531654        3.2100424706
  F         5.2046317519        4.1755944094        7.1584098854
  O         7.4606334265        5.4177182956        3.0851121077
  O         8.0673528473        4.0827302726        4.7441662687
  C         7.8843451122        4.3298934170        3.4433553763
  H         7.9888156874        1.5489238385        6.9989416996
  H         8.1356554924        3.5065029197        2.7518445270
  H         8.3952329457        3.1692751365        4.8724664637
  H         8.7180358506        1.6747727700        6.9989416996
