      50
 i =      112, E =      -411.2493273836
 Al         8.6533538145        3.0881176252        8.2759960980
 Al         5.3072106299        3.0696377087        8.1927548307
  C         7.0062613473        5.4751176442        8.3611794469
  C         7.0400907219        2.6959976664       10.7432368060
  C         3.6004935775        0.6678038588        8.2623034945
  C         3.6582039761        3.4554088687        5.8916884128
  C         3.7019153061        3.7068799057        4.4354114708
  C         4.9646902390        3.8530993285        3.8237221988
  C         5.0793865857        4.0430326218        2.4614392714
  C         3.9166672059        4.0982343603        1.6673661026
  C         2.6565348833        3.9794147436        2.2659344124
  C         2.5582200311        3.7841260965        3.6309645888
  C         7.9767701570        2.1857466372       14.3673196427
  C         6.7317864821        2.0623649434       15.0037239030
  C         5.5525986981        2.1128223465       14.2457551679
  C         5.7124726719        2.3064683136       12.9017607240
  C         6.9316604111        2.4628063758       12.1902673928
  C         8.0767916446        2.3801338857       13.0039468245
  C         6.9877850480        6.9564095579        8.2989692479
  C         3.6314647200       -0.8106021234        8.3305979974
  F         8.0136788054        3.6886675668        4.1542960507
  F         2.6240350341        2.4782602609       12.4774789415
  F         5.9559833337       -1.0426310143        8.2010704059
  F         4.6606141359        7.1989908064        8.4338028174
  H         3.5877991404        4.5301197707        9.3514694838
  H         6.9901594094        1.6610344771        7.2339871180
  H         5.8467232489        3.8001807346        4.4599702837
  H         6.0522650531        4.1468487580        1.9939616790
  H         1.7607581428        4.0302140913        1.6560624206
  H         8.8689258509        2.1351196406       14.9821262891
  H         4.5469943068        2.0167560297       14.6497196265
  H         4.7675071482        2.2964182823       12.3753007872
  N         3.8905625256        4.2653446271        0.2695951842
  N         6.7282245662        1.8950622157       16.3938960797
  O         8.1578840909        4.9468755790        8.2541265602
  O         5.8978863123        2.6800308260       10.0614117628
  O         4.7195358537        1.2494892474        8.0552770831
  O         2.5524135844        3.1810933025        6.4617116457
  O         2.4670511491        1.2355111097        8.4032783219
  O         4.8082995099        3.5213621473        6.4371755946
  O         5.9061959221        4.8489563256        8.5706279445
  O         8.1205666300        3.0050397092       10.1308728801
  O         3.6278573788        3.7013996612        8.8336401723
  O         6.9957969463        2.5297001266        7.6649424161
  O         4.7737481851        2.7076102330        9.7042971768
  C         4.4439066353        2.5563678653       10.6575545966
  H         3.6301257411        2.6662805788       10.6358747549
  H         4.6885386880        3.3448682594       10.6781993917
  H         4.5410218510        2.3943431512       11.4445806510
  H         4.9737125511        3.5448973528        9.7452319030
      50
 i =      113, E =      -411.7946723624
 Al         8.6295202179        3.0858786044        8.2464686149
 Al         5.3001179828        3.0760554114        8.0909546628
  C         7.0023591463        5.4741946377        8.3847440222
  C         7.1279650552        2.6690752249       10.8131429727
  C         3.6094063390        0.6572801326        8.2546410764
  C         3.6457086308        3.4641625242        5.8586795237
  C         3.6923384306        3.7069099044        4.4181951265
  C         4.9598362452        3.8525113924        3.8137999875
  C         5.0820432828        4.0456243441        2.4569164427
  C         3.9115697045        4.0937869726        1.6717142813
  C         2.6446607482        3.9794422830        2.2554576907
  C         2.5521939117        3.7898832390        3.6154399117
  C         7.9912173241        2.1812568588       14.4065023036
  C         6.7477285787        2.0593783691       15.0509173459
  C         5.5784038516        2.1055442294       14.2846023449
  C         5.7385959455        2.3092547666       12.9561032868
  C         6.9538217771        2.4557361117       12.2235103301
  C         8.0874073570        2.3765313589       13.0539155765
  C         6.9689908342        6.9405552494        8.3042556361
  C         3.6168891299       -0.8094920281        8.3333142020
  F         8.0253592034        3.6717210350        4.1762633548
  F         2.6141336964        2.4850945037       12.4755447384
  F         5.9421655260       -1.0638721522        8.2067176319
  F         4.6479814659        7.1896961031        8.4441636178
  H         3.5373680975        4.5943363100        9.3141217043
  H         6.9961205677        1.6328505476        7.2186145101
  H         5.8431570292        3.8002014714        4.4502746656
  H         6.0532615025        4.1480351958        1.9913678766
  H         1.7522224367        4.0309301122        1.6458867222
  H         8.8923862033        2.1340211163       14.9989108455
  H         4.5654183344        2.0126482668       14.6683823944
  H         4.7604003620        2.2862715890       12.5071253027
  N         3.9014046425        4.2638786318        0.2833775002
  N         6.7560037292        1.8964124783       16.4251105548
  O         8.1502816696        4.9372340909        8.2454658828
  O         5.9855095657        2.7289574797       10.0398642880
  O         4.7250598065        1.2438944484        7.9786556281
  O         2.5524575482        3.1820707125        6.4532671451
  O         2.4803525175        1.2478620288        8.3976159611
  O         4.8073476153        3.5310145128        6.3849928979
  O         5.8944001953        4.8254569349        8.5657818846
  O         8.1657725972        3.0141692061       10.1387145770
  O         3.6054993887        3.7994722639        8.7288042870
  O         6.9868767100        2.5110006505        7.6340452149
  O         4.7914274421        2.7360654291        9.6461936880
  C         4.3715228555        2.5507537371       10.6603596446
  H         3.4863561150        2.8367060471       10.6184663595
  H         4.7294500104        3.3405644844       10.7743727490
  H         4.4896665546        2.1443431512       11.4823872946
  H         4.9783531313        3.5773823168        9.7101238773
      50
 i =      114, E =      -412.0190572123
 Al         8.6147480559        3.0852387312        8.2323264610
 Al         5.2954661177        3.0877105009        8.0340486421
  C         6.9909955104        5.4724906932        8.3782641650
  C         7.1707525796        2.6512690443       10.8531620802
  C         3.6063083759        0.6504602335        8.2261627651
  C         3.6394252416        3.4650427731        5.8402211118
  C         3.6857054283        3.7100718584        4.4097640477
  C         4.9580663018        3.8530693431        3.8104978236
  C         5.0797316335        4.0441927295        2.4565627604
  C         3.9071890239        4.0962283055        1.6738521911
  C         2.6375125909        3.9801301107        2.2517494578
  C         2.5455760263        3.7864852173        3.6075280093
  C         8.0111098509        2.1804272326       14.4320014121
  C         6.7647460299        2.0561388937       15.0728248162
  C         5.6002037351        2.1089823226       14.2975474233
  C         5.7396125842        2.3027360406       12.9680459448
  C         6.9619285069        2.4516750289       12.2416612026
  C         8.0882405555        2.3714484512       13.0845887027
  C         6.9603749067        6.9309765734        8.3150285471
  C         3.6096264730       -0.8102994108        8.3388112895
  F         8.0086754689        3.6881895444        4.1484044032
  F         2.6103596025        2.4781000488       12.4948663057
  F         5.9327773313       -1.0673679484        8.2202904378
  F         4.6348457995        7.1981850376        8.4616588706
  H         3.5136065782        4.6298202809        9.2709386721
  H         7.0017663949        1.6164879954        7.2103442311
  H         5.8434198201        3.7999102877        4.4446649573
  H         6.0487673208        4.1492292331        1.9887880222
  H         1.7486389747        4.0310232263        1.6381717135
  H         8.9141492259        2.1329644772       15.0185521101
  H         4.5916714752        2.0089540216       14.6866862323
  H         4.7555704694        2.3115569082       12.5469130517
  N         3.9061352314        4.2601386782        0.2922649702
  N         6.7674524440        1.8980391309       16.4370595738
  O         8.1389723941        4.9319550843        8.2480715654
  O         6.0338109536        2.7649065246       10.0245272040
  O         4.7209243171        1.2443835002        7.9435212505
  O         2.5523966852        3.1822234966        6.4482530876
  O         2.4851846051        1.2564193955        8.4029068755
  O         4.8062279534        3.5333130459        6.3609672707
  O         5.8800401953        4.8196588260        8.5634151165
  O         8.1864445512        3.0140358185       10.1545419047
  O         3.5915899797        3.8456409852        8.6755245434
  O         6.9810953056        2.5040179020        7.6095142859
  O         4.8043217722        2.7822455028        9.6239280077
  C         4.3241784588        2.5416879561       10.6509461723
  H         3.4185987276        2.9798515822       10.6034232291
  H         4.7939403138        3.3217233468       10.8726669709
  H         4.4431903337        1.8943431512       11.4516072687
  H         4.9875803019        3.6360551313        9.7191391398
      50
 i =      115, E =      -412.1904709792
 Al         8.6011714698        3.0850277688        8.2092856051
 Al         5.2770467924        3.1038497558        7.9664617532
  C         6.9744982008        5.4790167891        8.3882670309
  C         7.2260958176        2.6249594566       10.9075518817
  C         3.6036423617        0.6525216331        8.2179283750
  C         3.6285392979        3.4711945910        5.8178636113
  C         3.6726177590        3.7078206784        4.3980966080
  C         4.9488667053        3.8534937718        3.8037664162
  C         5.0753735648        4.0470483401        2.4557219874
  C         3.9033148924        4.0941986777        1.6699827409
  C         2.6287791956        3.9788737108        2.2426575764
  C         2.5340570122        3.7948326636        3.5969848046
  C         8.0377963041        2.1785774490       14.4599102626
  C         6.7855197580        2.0579415923       15.0955258208
  C         5.6257256473        2.1036854647       14.3059503861
  C         5.7345417344        2.3018405978       12.9733152974
  C         6.9782060698        2.4349669613       12.2695031949
  C         8.1066096698        2.3635182157       13.1179322019
  C         6.9463130308        6.9288442145        8.3210131924
  C         3.5957534912       -0.8035793691        8.3331068082
  F         8.0278063753        3.6625714979        4.2057925249
  F         2.6174971024        2.4866052879       12.4970361212
  F         5.9189385450       -1.0591871596        8.2484282828
  F         4.6165515244        7.2124500956        8.4882765698
  H         3.4867874732        4.6797056155        9.1979644744
  H         7.0068664169        1.6048139017        7.2044791084
  H         5.8347924169        3.7989930679        4.4366706445
  H         6.0430819874        4.1497508729        1.9862755439
  H         1.7440728707        4.0325695959        1.6235682870
  H         8.9413649902        2.1321686409       15.0451266372
  H         4.6293222351        2.0066958152       14.7185767252
  H         4.7480087363        2.3569230155       12.5671771520
  N         3.9106307261        4.2564339379        0.2984113222
  N         6.7809478912        1.9002999169       16.4482082557
  O         8.1123203255        4.9217634248        8.2391992019
  O         6.1072805171        2.8365999503       10.0025974536
  O         4.7101286489        1.2481417894        7.8751689819
  O         2.5471665567        3.1783903185        6.4316628992
  O         2.4838846511        1.2665486735        8.3925493439
  O         4.8017256024        3.5345946702        6.3342883267
  O         5.8580049283        4.8178185950        8.5447427906
  O         8.2092779048        2.9961160977       10.1722334141
  O         3.5602904828        3.8831343620        8.6396798105
  O         6.9713667729        2.4906576064        7.6083353275
  O         4.8277511522        2.8391473820        9.6099992196
  C         4.2862971698        2.5164198307       10.6557991015
  H         3.3730584442        3.0614468547       10.5990177534
  H         4.8553827509        3.2821535940       11.0021068174
  H         4.3963810470        1.6443431512       11.4071306700
  H         4.9906751762        3.7213111417        9.7472752647
      50
 i =      116, E =      -412.3409429853
 Al         8.5771162099        3.0935435170        8.1654035629
 Al         5.2445731848        3.1252920205        7.8468502601
  C         6.9245852440        5.4925687399        8.3496287199
  C         7.3331636595        2.5706308134       10.9880385385
  C         3.5711898582        0.6644965471        8.1204960349
  C         3.6070291567        3.4580328337        5.7665589808
  C         3.6674289414        3.7270476326        4.3748330335
  C         4.9494545877        3.8572809443        3.7860478108
  C         5.0579997321        4.0455469054        2.4443386025
  C         3.8757885653        4.0978170538        1.6682267912
  C         2.5955243870        3.9843241609        2.2484064648
  C         2.5107621358        3.7697590356        3.5976312880
  C         8.0975617685        2.1760959377       14.5110547818
  C         6.8336939239        2.0387228258       15.1312377581
  C         5.6712211737        2.1017231311       14.3356222618
  C         5.7354713870        2.2898565185       12.9967389801
  C         7.0048980545        2.4208957352       12.3116705020
  C         8.1299416376        2.3404470701       13.1763418537
  C         6.9398731823        6.9367888274        8.3538529504
  C         3.5935005841       -0.7803640357        8.3533532223
  F         8.0023686421        3.7010261380        4.2177867547
  F         2.6406774791        2.4637180854       12.5530721974
  F         5.9185540624       -1.0606535762        8.2189598178
  F         4.6306246652        7.1864042512        8.4450667355
  H         3.4317400534        4.7657049581        9.0480164610
  H         7.0072652564        1.5835820001        7.1941485734
  H         5.8298402535        3.7968711812        4.4251328012
  H         6.0270643138        4.1531271820        1.9805389163
  H         1.7341004100        4.0321227991        1.5947632336
  H         8.9976202306        2.1345428749       15.1023107661
  H         4.6923579926        2.0037697495       14.7827120229
  H         4.7513385756        2.4332406429       12.5975068608
  N         3.9110471694        4.2456485221        0.3104377844
  N         6.7987927698        1.9106610100       16.4702438896
  O         8.0571711944        4.9154635752        8.2562466374
  O         6.2539546693        3.0334595386        9.9609708780
  O         4.6810907442        1.2543245669        7.8098980862
  O         2.5341990937        3.1642317841        6.3933087497
  O         2.4695739038        1.2923346700        8.4129029953
  O         4.7914419516        3.5402584989        6.2737714677
  O         5.8086414121        4.8268600266        8.5327294126
  O         8.2769660447        2.9287199128       10.2194138634
  O         3.5023039464        3.9287666741        8.5617321280
  O         6.9589414244        2.4722456998        7.5926583691
  O         4.8758096591        2.9158062267        9.5954634698
  C         4.2620307392        2.4651552875       10.6865170661
  H         3.3430979760        2.9986506635       10.6066515616
  H         4.8768220546        3.2218198863       11.1838687169
  H         4.3627317010        1.3943431512       11.3578152760
  H         4.9590849347        3.8609805378        9.7852618402
      50
 i =      117, E =      -412.4098943066
 Al         8.5702713952        3.0897149239        8.1198368575
 Al         5.2307449138        3.1292171973        7.7631711005
  C         6.8847899792        5.5128434117        8.4204986486
  C         7.4417438268        2.6489067746       11.0598035679
  C         3.5711794814        0.6840403710        8.2073222753
  C         3.5778985206        3.4841191038        5.7276755417
  C         3.6276751047        3.6902249532        4.3425870708
  C         4.9182475906        3.8683967503        3.7736151351
  C         5.0465327552        4.0527391113        2.4413919273
  C         3.8691814056        4.0987777751        1.6536988161
  C         2.5728214556        3.9654725134        2.2086138255
  C         2.4798102814        3.8259984746        3.5632181886
  C         8.1393363373        2.1575750777       14.5711115055
  C         6.8715186059        2.0353674971       15.1901701918
  C         5.7198612177        2.0798762468       14.3718965224
  C         5.7745328587        2.3061851987       13.0405942507
  C         7.0598368800        2.3716663428       12.3375058937
  C         8.1684213970        2.3104448528       13.2429771109
  C         6.9220761594        6.9527776388        8.3171794386
  C         3.5762142491       -0.7607504308        8.2803568620
  F         7.9633510348        3.7130390404        4.1537466721
  F         2.6935693806        2.4583751860       12.6582790033
  F         5.9258253654       -1.0715787931        8.2805845103
  F         4.5972337877        7.2601012805        8.4992927094
  H         3.3720462839        4.8392285310        8.8490439969
  H         6.9979218894        1.5747015738        7.1909395570
  H         5.8097272286        3.7964634427        4.3958250170
  H         6.0061990962        4.1546528988        1.9588853988
  H         1.7039521331        4.0360274626        1.5705481377
  H         9.0474547978        2.1430914753       15.1558732572
  H         4.7590993895        2.0087563470       14.8601881814
  H         4.7924502295        2.4880274089       12.6439809237
  N         3.8950128047        4.2347654931        0.3101912322
  N         6.8135134039        1.9100699464       16.5143854632
  O         7.9822372466        4.8892849386        8.2036918645
  O         6.4107222549        3.2467425492        9.9680911236
  O         4.6438942463        1.2691869550        7.6949118500
  O         2.5210348815        3.1046153070        6.3392860002
  O         2.4450636368        1.2864598238        8.3219736663
  O         4.7755683293        3.5379489085        6.2316333009
  O         5.7166615502        4.8850497900        8.4258575022
  O         8.4003215272        2.8356439036       10.2922719130
  O         3.4471157039        3.9246660239        8.4921201863
  O         6.9520943401        2.4774014605        7.5616102226
  O         4.9324260629        2.9321948227        9.6069453608
  C         4.2545057097        2.4060675867       10.7524986216
  H         3.3216974962        2.8411423442       10.6383542635
  H         4.8456588542        3.1653824707       11.3405172144
  H         4.3477359253        1.2769377048       11.3491365885
  H         4.9041010298        3.9462323082        9.8160790511
      50
 i =      118, E =      -412.4742054414
 Al         8.5788533116        3.0937990391        8.0616467575
 Al         5.2389658258        3.1068643268        7.7322616366
  C         6.8212247544        5.5112273305        8.2914647545
  C         7.5288011202        2.8951236350       11.1131200065
  C         3.5451694155        0.7096918831        8.0381371951
  C         3.5540994677        3.4143066984        5.6736760572
  C         3.5795496122        3.7368141492        4.3129410022
  C         4.8821379611        3.8533393191        3.7469501322
  C         5.0261383640        4.0712403365        2.4273166858
  C         3.8491525977        4.0826905265        1.6361651555
  C         2.5424763417        3.9897490442        2.1724634414
  C         2.4387641703        3.8165418903        3.5153291667
  C         8.1830330086        2.1487833533       14.6239799248
  C         6.9132959377        2.0084797884       15.2259582291
  C         5.7614308807        2.0857823763       14.4129393118
  C         5.8460768856        2.3153258158       13.0894148549
  C         7.1328168721        2.3583688781       12.3591122401
  C         8.2309444064        2.2552773357       13.2888709422
  C         6.8950801809        6.9671001333        8.3354521402
  C         3.5659587800       -0.7301862958        8.3115889820
  F         7.9129329964        3.7143786004        4.0869234393
  F         2.7717601714        2.4466696809       12.7469470857
  F         5.9103460832       -1.0765998301        8.3516702690
  F         4.5583540411        7.3590827181        8.5383807662
  H         3.3247868759        4.8857994466        8.6338311061
  H         6.9757103053        1.5687604310        7.1903456438
  H         5.7736899793        3.7990375013        4.3698821176
  H         5.9847947519        4.1591040014        1.9412252886
  H         1.6707404872        4.0354816213        1.5381198359
  H         9.0919054299        2.1530149040       15.2120737250
  H         4.8121108782        2.0156715894       14.9257084996
  H         4.8636496684        2.5142641795       12.6999510404
  N         3.8991879030        4.2287240061        0.3068238033
  N         6.8354760554        1.9087565490       16.5429875980
  O         7.9271468871        4.8793322415        8.2089427766
  O         6.5474407688        3.4046249601       10.0380868597
  O         4.6386071900        1.2658594702        7.6960422284
  O         2.4825075998        3.0735615428        6.2627531069
  O         2.4331229430        1.2888978454        8.3177191990
  O         4.7399616574        3.5664965669        6.2080012537
  O         5.6368923050        4.9434739468        8.3385157948
  O         8.5624252470        2.7105861947       10.3550310269
  O         3.4083869590        3.8867129834        8.4386865913
  O         6.9509250761        2.4904868564        7.5191028629
  O         4.9786988537        2.8798667402        9.6428601488
  C         4.2439820973        2.3509168431       10.8474958280
  H         3.2866261620        2.6760630868       10.6917206847
  H         4.7850885001        3.1157003132       11.4634791289
  H         4.3316432936        1.2770367827       11.3787148444
  H         4.8465909293        3.9480893272        9.8358890938
      50
 i =      119, E =      -412.5445410186
 Al         8.5803080399        3.1155912401        8.0504407339
 Al         5.2462172782        3.0663205052        7.7600179871
  C         6.7898909888        5.5060362335        8.2065910609
  C         7.5573853215        2.9985682577       11.0806095671
  C         3.5519335086        0.7334072028        8.0195224200
  C         3.5146294111        3.4266448522        5.6618173337
  C         3.5634796307        3.7374119867        4.2878550790
  C         4.8615597916        3.8792133025        3.7246727737
  C         4.9947305138        4.0547435260        2.4000961902
  C         3.8135360766        4.1145752690        1.6251517360
  C         2.5156080096        4.0038565003        2.1537350265
  C         2.4166311555        3.7955525770        3.4907361387
  C         8.2231789295        2.1152801895       14.6378087867
  C         6.9604170440        1.9962119511       15.2265433918
  C         5.8065755004        2.0828719450       14.4363672565
  C         5.9322326536        2.3375224340       13.1208930160
  C         7.1930554302        2.4913737388       12.3777180930
  C         8.2884632230        2.2266042725       13.2892726913
  C         6.8569223612        6.9829181523        8.3647372581
  C         3.5419023255       -0.7176557031        8.3303670645
  F         7.8725789252        3.6985318207        4.0182562606
  F         2.8703997736        2.4157235564       12.8533408041
  F         5.8703347439       -1.0821624930        8.3722456372
  F         4.5441746722        7.3686147612        8.5468393184
  H         3.3239208163        4.8744635610        8.5253294123
  H         6.9554680517        1.5687416244        7.1933463634
  H         5.7356663135        3.7927628770        4.3662651272
  H         5.9617366821        4.1666976427        1.9374111933
  H         1.6540831970        4.0362638452        1.5001153746
  H         9.1134469625        2.1603332969       15.2551953732
  H         4.8470323851        2.0274322483       14.9342531238
  H         4.9529037871        2.5063939213       12.7385241473
  N         3.9224517534        4.2201786905        0.2916829116
  N         6.8574410470        1.8977564272       16.5495547052
  O         7.9087185033        4.9092441643        8.1825310855
  O         6.6151872931        3.4761823139       10.1277995921
  O         4.6456154356        1.2546340870        7.6549895463
  O         2.4442978289        3.0328968567        6.2226755202
  O         2.4415278322        1.3029596815        8.2666554907
  O         4.6967682403        3.5546579270        6.2021400107
  O         5.6169211883        4.9636303808        8.2266496073
  O         8.6008867102        2.7375633332       10.3971055041
  O         3.3975032412        3.8692931357        8.4114427745
  O         6.9446430436        2.4920168277        7.5090820244
  O         4.9842199250        2.7864419225        9.6858278915
  C         4.2402470260        2.3196546348       10.9378401295
  H         3.2556639896        2.5373283695       10.7563849843
  H         4.7089787136        3.0964793779       11.5118680568
  H         4.3433259507        1.3814038186       11.4280290597
  H         4.7955757643        3.8749857096        9.8353164335
      50
 i =      120, E =      -412.5710592013
 Al         8.5657900606        3.1470421364        8.0506707874
 Al         5.2348336924        2.9859170392        7.8381140417
  C         6.7591958254        5.4988402590        8.1677520280
  C         7.5642021701        3.2447441191       10.9860464536
  C         3.5607280441        0.7568330550        8.0158686273
  C         3.4588551204        3.3759223808        5.6548401352
  C         3.4946372704        3.7604424689        4.2612466082
  C         4.7957999367        3.8771088698        3.7146905079
  C         4.9396108395        4.0881587810        2.3948867534
  C         3.7868225406        4.1222624354        1.5971665413
  C         2.4930054645        4.0314479213        2.0920146688
  C         2.3632542099        3.7831872196        3.4286592654
  C         8.2796599430        2.0234910870       14.6693536902
  C         7.0339425252        1.9565504079       15.2332841018
  C         5.9207558816        2.0663543073       14.4351234841
  C         6.1157445711        2.4638404457       13.1434758027
  C         7.3428051818        2.6739021860       12.4034424964
  C         8.4018940063        2.3236454532       13.3152062180
  C         6.7973266546        7.0048686984        8.3534026942
  C         3.5085989128       -0.7158415569        8.3816625777
  F         7.7764943297        3.7094134553        3.8630515601
  F         3.0359722869        2.4093152059       13.0147873850
  F         5.7895914052       -1.0491539795        8.4365295936
  F         4.5139937305        7.3916116798        8.5092792702
  H         3.3476605458        4.8494081445        8.3818426572
  H         6.9309138121        1.5632149682        7.2028402446
  H         5.6593896593        3.7928255424        4.3636811957
  H         5.9058860371        4.1678617009        1.9247132892
  H         1.6311308366        4.0417445295        1.4302611275
  H         9.1486244792        2.1490862517       15.3182190102
  H         4.9390409820        2.0417317488       14.8996898695
  H         5.1433593689        2.4966497993       12.7742088969
  N         3.9602304568        4.2280542337        0.2567975492
  N         6.8905113017        1.8788873668       16.5814903686
  O         7.8734645351        4.9581592316        8.0547498518
  O         6.7131692447        3.6449237861       10.3200983511
  O         4.6493176230        1.2171334596        7.5702428571
  O         2.3764816382        2.9908023766        6.1824189201
  O         2.4586872465        1.3270756332        8.1697759488
  O         4.6221448863        3.5034933459        6.2065603347
  O         5.6267053236        4.9575614411        8.0347557009
  O         8.6589578298        2.7447233719       10.4582892882
  O         3.3838367541        3.8925675484        8.3449684099
  O         6.9118734161        2.4901996159        7.4958331866
  O         4.9621548808        2.6207515336        9.7693299701
  C         4.2211583475        2.2587881429       11.0940911611
  H         3.1805744192        2.2873283695       10.8784414903
  H         4.5545851205        3.0608791156       11.6114536240
  H         4.3808557227        1.4643636927       11.4973085970
  H         4.6811690177        3.7322797332        9.8405114375
      50
 i =      121, E =      -412.6232504209
 Al         8.5488962185        3.1352551462        8.0592640375
 Al         5.1974468467        3.0158215460        7.8569020669
  C         6.7785176504        5.4916505552        8.1577216189
  C         7.5465515142        2.9947441191       10.9661829819
  C         3.5614268214        0.7392729754        8.0403208697
  C         3.4566635507        3.3832936694        5.6698113674
  C         3.4873278150        3.7342272408        4.2653014627
  C         4.7874587584        3.8819646307        3.7338568588
  C         4.9415440364        4.0901152432        2.4109997549
  C         3.8017055784        4.1300814054        1.6016366401
  C         2.5077126602        4.0169346225        2.0857311821
  C         2.3621653308        3.8087391970        3.4324809383
  C         8.2838562625        2.0488886565       14.6752756567
  C         7.0286403967        1.9432657156       15.2098900157
  C         5.9192981554        2.0843412615       14.4152908836
  C         6.1169712006        2.4715324997       13.1264761338
  C         7.3570638519        2.7005342799       12.4554315562
  C         8.4273586337        2.3721458211       13.3244385833
  C         6.8009657974        6.9939613168        8.3603047193
  C         3.5059897473       -0.7347995247        8.3666704807
  F         7.7841533036        3.7136695300        3.8832283066
  F         3.0394495126        2.4271144774       12.9779433115
  F         5.7869006563       -1.0590515223        8.4102170833
  F         4.5151918289        7.3603957095        8.4824781979
  H         3.3788543584        4.8614968363        8.4263048666
  H         6.9432684748        1.5632285412        7.2095256076
  H         5.6535040849        3.7928682524        4.3790579095
  H         5.9045721511        4.1672771377        1.9355109400
  H         1.6434249442        4.0458937563        1.4294174656
  H         9.1550051035        2.1191915788       15.3081855394
  H         4.9266739777        2.0326898801       14.8479301613
  H         5.1580712649        2.4944726844       12.7365592870
  N         3.9701228919        4.2371510786        0.2517196965
  N         6.8824391690        1.8665046438       16.5666926587
  O         7.9051641519        4.9631898816        8.0638386920
  O         6.6756265176        3.7162464906       10.3009419288
  O         4.6456009544        1.2185055959        7.5930143259
  O         2.3683759109        3.0077273527        6.1910758068
  O         2.4608278391        1.3212143651        8.1904305298
  O         4.6223862123        3.4784387517        6.1984348895
  O         5.6664820119        4.9411431833        8.0671940021
  O         8.5390883234        2.8509081453       10.4137716869
  O         3.3735895844        3.9282150785        8.3645629120
  O         6.8833253416        2.4841344830        7.5180370438
  O         4.9312782927        2.6771062125        9.7634331457
  C         4.2352928497        2.2781337495       11.0633669794
  H         3.1941978743        2.2912721945       10.8758571582
  H         4.5479263740        3.0884382638       11.6045699013
  H         4.4413295921        1.3429052723       11.4661553493
  H         4.6620662777        3.7694794786        9.8440014688
      50
 i =      122, E =      -412.6426936791
 Al         8.5525999615        3.1354632145        8.0221655293
 Al         5.1472784340        3.0547064858        7.8601348053
  C         6.7994834280        5.4910466396        8.1845341832
  C         7.4786120057        3.1478161540       11.0426346347
  C         3.5470416469        0.7103988391        8.1338271975
  C         3.4507424537        3.4624928413        5.6828337671
  C         3.5033280198        3.6612200522        4.2621700513
  C         4.7916523049        3.9219886879        3.7479970212
  C         4.9507133414        4.0544622579        2.4134359447
  C         3.8086515286        4.1741089015        1.6162758581
  C         2.5151972937        3.9850532168        2.0956683570
  C         2.3729674589        3.8481168886        3.4573065733
  C         8.3055488196        2.1385438301       14.6871108987
  C         7.0318386704        1.9601182692       15.1888817989
  C         5.9131504754        2.1228199877       14.3989264284
  C         6.0884360920        2.4307055687       13.1046444026
  C         7.3406089204        2.6501463199       12.4891337511
  C         8.4167242176        2.3625073895       13.3338135938
  C         6.8215181261        6.9791256007        8.3747877350
  C         3.4987587271       -0.7598222396        8.2783547149
  F         7.8224985208        3.7056427978        3.9590284906
  F         3.0143340254        2.4396667662       12.9694075043
  F         5.8215114387       -1.1118520160        8.3184452417
  F         4.5280789108        7.2761154499        8.4487707694
  H         3.3960528057        4.9510451452        8.4249714587
  H         6.9526362129        1.5713460764        7.2224158336
  H         5.6498081822        3.7861129262        4.4023897738
  H         5.9190191051        4.1765933853        1.9623026898
  H         1.6632854099        4.0514268615        1.4269618536
  H         9.1763147359        2.0700856068       15.3073736831
  H         4.9122968213        2.0132301648       14.7953201410
  H         5.1475282662        2.5313349932       12.6726994370
  N         3.9808698294        4.2343452471        0.2508276883
  N         6.8755108211        1.8283591683       16.5406874315
  O         7.9490959406        4.9739363639        8.1112111235
  O         6.6270880881        3.7891094383       10.2808721961
  O         4.6191949452        1.2186087966        7.6195681455
  O         2.3644985605        3.0238994733        6.1785946460
  O         2.4420295615        1.3204592829        8.2342801661
  O         4.6250387809        3.4284680409        6.1892426663
  O         5.6860031571        4.9223854629        8.1207219729
  O         8.5355339316        2.6221207415       10.2848405667
  O         3.3590642350        3.9538291614        8.4335486625
  O         6.8645934665        2.4693153824        7.5839880078
  O         4.9032632644        2.7361272313        9.7386733972
  C         4.2350304894        2.2798652561       11.0000228318
  H         3.2025215638        2.3422026704       10.8460924879
  H         4.5641254441        3.0966215752       11.5942190604
  H         4.4827247457        1.1491873745       11.4067192654
  H         4.6537842144        3.8029090965        9.8421119368
      50
 i =      123, E =      -412.7045603048
 Al         8.5642416466        3.1312962996        8.0588576869
 Al         5.1496011486        3.0209641379        7.9023905865
  C         6.7991445248        5.4863594496        8.2276909874
  C         7.4609876697        3.1632442488       10.9924539385
  C         3.5234221388        0.6964312654        8.0644250062
  C         3.4469582981        3.3576035101        5.6748229922
  C         3.4847854684        3.7441316433        4.2743507548
  C         4.7749434717        3.8725766566        3.7414891317
  C         4.9445203447        4.1064420965        2.4196411706
  C         3.8138638089        4.1251759681        1.6042218843
  C         2.5136033247        4.0306509614        2.0802737812
  C         2.3721581646        3.8066529182        3.4339006273
  C         8.3088760399        2.1127245172       14.6870442320
  C         7.0441151510        1.9911725845       15.2084762977
  C         5.9523311369        2.0969403608       14.3816790804
  C         6.1491189085        2.4788947750       13.0958100135
  C         7.3844667511        2.7108587791       12.4739263462
  C         8.4400789123        2.4085519131       13.3376459648
  C         6.8209099602        6.9724640253        8.3131785369
  C         3.4985520657       -0.7727892897        8.3098166407
  F         7.8188158952        3.7115572856        3.9343126142
  F         3.0464213261        2.4522269648       12.9966461008
  F         5.8261944168       -1.1222057435        8.3150503004
  F         4.5158341945        7.2759838752        8.4401579728
  H         3.3985874897        4.9521361882        8.4025082538
  H         6.9342993954        1.5828638607        7.2452712617
  H         5.6238678800        3.7951599225        4.4112791639
  H         5.9188850633        4.1793765508        1.9688521410
  H         1.6628144079        4.0512847652        1.4043867549
  H         9.1785055733        2.0467565345       15.3173163983
  H         4.9440656015        2.0097607790       14.7637591494
  H         5.2099440658        2.5596752586       12.6447436578
  N         3.9828190891        4.2462383259        0.2400643871
  N         6.8825749277        1.7990567930       16.5624277304
  O         7.9390316345        4.9694816198        8.0644199741
  O         6.6239888837        3.8079122810       10.3463297811
  O         4.6139819969        1.1910509584        7.6596936064
  O         2.3396870470        3.0692049973        6.2052046460
  O         2.4299755919        1.3035492814        8.2490302147
  O         4.5903570787        3.4255863731        6.2255679611
  O         5.6812708876        4.9055228650        8.0666097581
  O         8.4856045035        2.7152410837       10.2658103309
  O         3.3904678398        3.9690404509        8.4268023391
  O         6.8745940329        2.4825031258        7.6055593509
  O         4.8860331204        2.6804428843        9.7546566594
  C         4.2305921279        2.2602621640       11.0187215289
  H         3.1829655744        2.2669778286       10.8577584656
  H         4.5123356742        3.0945216912       11.5842386923
  H         4.5027482775        1.1871917037       11.4158575925
  H         4.6373889256        3.7293452097        9.8342431305
      50
 i =      124, E =      -412.7312510878
 Al         8.5645439037        3.1247669366        8.1285532425
 Al         5.1427396042        2.9899517585        7.9734635425
  C         6.7625773355        5.4551822402        8.0736601391
  C         7.4674639671        3.1687082450       10.9074593436
  C         3.5080041750        0.6729038098        8.0252684879
  C         3.4031898245        3.3629542973        5.7047081406
  C         3.4446889316        3.7132652942        4.2767479036
  C         4.7372843967        3.8782736522        3.7608700543
  C         4.9343886467        4.1254098327        2.4383035458
  C         3.8227713060        4.1129789729        1.5998437136
  C         2.5134198188        4.0305201967        2.0479598107
  C         2.3514376814        3.8388065145        3.4116465196
  C         8.3325396517        2.1020029429       14.7034961295
  C         7.0689117673        1.9645892849       15.2056201582
  C         6.0094784378        2.1198935219       14.3448536966
  C         6.2553518760        2.5714946154       13.0700184788
  C         7.4831882156        2.7822428997       12.4576849622
  C         8.5056019280        2.5001672469       13.3609416071
  C         6.8188408849        6.9550960018        8.3060315771
  C         3.4913892053       -0.8010929142        8.3057361452
  F         7.7825060034        3.7237200807        3.8660260106
  F         3.1314831230        2.5541382734       13.0863874023
  F         5.8145605492       -1.1181319120        8.3190158950
  F         4.4879379216        7.2844828043        8.4385904376
  H         3.4093385686        4.9463249822        8.3372943456
  H         6.9116636590        1.5926354381        7.2906450467
  H         5.5881657977        3.7969493531        4.4262446129
  H         5.9078144524        4.1971632431        1.9816530760
  H         1.6638091597        4.0603352962        1.3683265814
  H         9.2067397348        1.9989164876       15.3385205316
  H         5.0028405136        1.9860609323       14.7107557913
  H         5.3262284597        2.6308293115       12.5841282909
  N         4.0009998318        4.2680109882        0.2299422085
  N         6.8921610765        1.7573174796       16.5700023967
  O         7.9309292120        4.9656593916        8.0768246954
  O         6.6364392285        3.9393107165       10.4763706517
  O         4.6080479855        1.1600351457        7.6674836246
  O         2.2955882782        3.0756650583        6.2533953461
  O         2.4245516730        1.2845636601        8.2257409314
  O         4.5468579530        3.3374741766        6.2585073490
  O         5.6914701572        4.8825329692        8.0979438107
  O         8.4458700293        2.8197774648       10.2494457291
  O         3.4286127669        3.9897500944        8.4010165113
  O         6.8705722735        2.4907710188        7.6589238477
  O         4.8561880933        2.5929101245        9.7836422079
  C         4.2159654216        2.2143001631       11.0533393876
  H         3.1357556772        2.0861116578       10.8693551759
  H         4.3858690146        3.0915506778       11.5811767075
  H         4.5306712513        1.2567049581       11.4257561687
  H         4.5755235955        3.6172571502        9.8231319152
      50
 i =      125, E =      -412.7640981683
 Al         8.5628531818        3.1140718333        8.1408959148
 Al         5.1140613407        2.9970853570        7.9979325851
  C         6.7876965181        5.4464657293        8.1527759797
  C         7.4742125634        3.1997331848       10.9132489306
  C         3.5013324637        0.6591107273        8.0298815168
  C         3.3864076812        3.3371142621        5.7122762961
  C         3.4309219394        3.7198784386        4.2858607914
  C         4.7288900822        3.8833774970        3.7777307497
  C         4.9266900384        4.1094436291        2.4498425309
  C         3.8210437462        4.1335154153        1.6049003369
  C         2.5159021348        4.0297054712        2.0578599844
  C         2.3355879513        3.8221605703        3.4193567316
  C         8.3699581070        2.1368362618       14.7125041143
  C         7.0898082662        1.9516204295       15.1782747411
  C         6.0204640849        2.1612876326       14.3301553387
  C         6.2819266444        2.5821046902       13.0569419029
  C         7.5261744183        2.8053934134       12.4757495054
  C         8.5592329121        2.5120923346       13.3741198690
  C         6.8040761827        6.9327944757        8.2362873495
  C         3.4810305736       -0.8118225629        8.2843954039
  F         7.7457770223        3.7415642004        3.8311780632
  F         3.1902656032        2.6092196528       13.1202288647
  F         5.8039749599       -1.1363363420        8.2980313012
  F         4.4871653386        7.2456773559        8.4340922392
  H         3.4165592757        4.9639625270        8.2852595653
  H         6.9040658956        1.5972840146        7.3275610678
  H         5.5771790518        3.7979501458        4.4486732498
  H         5.9053726858        4.2194470317        2.0103021230
  H         1.6807041607        4.0651759475        1.3584578045
  H         9.2412887586        1.9654812761       15.3534032049
  H         5.0122018984        1.9690950477       14.6720857751
  H         5.3813859206        2.7089781920       12.5185837969
  N         4.0166294269        4.2765182109        0.2279559687
  N         6.8944573664        1.7123375393       16.5402700988
  O         7.9408050925        4.9464888973        8.0627100587
  O         6.6398420824        4.0741795426       10.5447754217
  O         4.6081169542        1.1517810655        7.6871776932
  O         2.2590414477        3.1146352567        6.2638034335
  O         2.4206551560        1.2738778079        8.2518671933
  O         4.5416460371        3.2818432476        6.2497036368
  O         5.6770579594        4.8779338936        8.0641237285
  O         8.4025555056        2.7746583981       10.1515739492
  O         3.4365712541        3.9871535350        8.4200432932
  O         6.8508840907        2.4913803631        7.7112230972
  O         4.8436082519        2.5754441857        9.7865127409
  C         4.2118526010        2.1817265736       11.0422960778
  H         3.1202647646        1.9897926229       10.8518047820
  H         4.3166388742        3.0922696278       11.5745822084
  H         4.5588145662        1.2443273431       11.4061425631
  H         4.5397575230        3.5786559434        9.8165411270
      50
 i =      126, E =      -412.7730731137
 Al         8.5552252426        3.0936254754        8.1738788084
 Al         5.0955012221        3.0205485649        8.0123640993
  C         6.8158972495        5.4410235900        8.1970757698
  C         7.4395458598        3.3446654722       10.9535999711
  C         3.5036453976        0.6333398608        8.0947535651
  C         3.3762310625        3.3301937670        5.7264386865
  C         3.4297680097        3.7172309407        4.3059077271
  C         4.7311036900        3.8769534119        3.7933116905
  C         4.9359526060        4.1069787614        2.4636073772
  C         3.8339719672        4.1322246007        1.6053596456
  C         2.5305747038        4.0312486532        2.0799599954
  C         2.3350454870        3.8057469219        3.4367446042
  C         8.3902961391        2.1450153280       14.6997397541
  C         7.0910353968        1.9864616359       15.1576961677
  C         6.0138843252        2.1605874886       14.3015528152
  C         6.2696105501        2.6017406141       13.0348284760
  C         7.5389931608        2.7678273487       12.4642568484
  C         8.5833314822        2.5296090993       13.3793622911
  C         6.8086990533        6.9122327309        8.2191916321
  C         3.4741936675       -0.8314381727        8.2133271235
  F         7.7662993862        3.7279155486        3.9001820010
  F         3.1906757302        2.6916843974       13.0749570245
  F         5.7928443802       -1.1190805038        8.2478600861
  F         4.4958085555        7.1932142098        8.4175895391
  H         3.4327271515        4.9348781123        8.3159372147
  H         6.8940380065        1.5881582886        7.3727401487
  H         5.5711394752        3.8026559488        4.4814123001
  H         5.9277220632        4.2437905511        2.0556779820
  H         1.7050190563        4.0695629759        1.3724745554
  H         9.2543499501        1.9503556805       15.3457536282
  H         5.0011941713        1.9694617005       14.6203650512
  H         5.4209071018        2.8142044140       12.4101277268
  N         4.0190923243        4.2969075522        0.2274886080
  N         6.8940543522        1.6464399916       16.5052364080
  O         7.9598124460        4.9126908918        8.1140558029
  O         6.6067196970        4.1003286071       10.5974010679
  O         4.6091783747        1.1535430008        7.7329508272
  O         2.2456143719        3.1491146373        6.3014717473
  O         2.4130485752        1.2507236302        8.2673597000
  O         4.5519664469        3.2252290083        6.2344971190
  O         5.6750095390        4.8634248139        8.1134660161
  O         8.2732057244        2.7989198606       10.0007437008
  O         3.4683384539        3.9694343329        8.4604668566
  O         6.8375791559        2.4848019172        7.7575295456
  O         4.8371617746        2.5684348743        9.7639881349
  C         4.2093396501        2.1444200673       10.9778180399
  H         3.1257738788        1.9847339810       10.7978674875
  H         4.2987298740        3.0800287521       11.5272044772
  H         4.5895532786        1.1888196186       11.3592033467
  H         4.5621718089        3.5237995333        9.8042365388
      50
 i =      127, E =      -412.7924591955
 Al         8.5275879305        3.0930800623        8.1999421000
 Al         5.0857655153        3.0186363995        8.0046362496
  C         6.8052376157        5.4414179348        8.1687755922
  C         7.4951590453        3.3314144487       10.9449243994
  C         3.4982279214        0.6295225063        8.0688463950
  C         3.3604956017        3.3289095259        5.7232847854
  C         3.4191755370        3.7035655004        4.3020721538
  C         4.7208013417        3.8775545883        3.7877318173
  C         4.9392124885        4.1176799423        2.4620653472
  C         3.8348530242        4.1202619988        1.6033319494
  C         2.5220370957        4.0287349929        2.0687924287
  C         2.3299374130        3.8197297250        3.4267578658
  C         8.3943374383        2.1201711416       14.7009068203
  C         7.0965730345        1.9671028394       15.1617865243
  C         6.0335073892        2.1558630481       14.2854952862
  C         6.2905864811        2.6269167579       13.0240525196
  C         7.5607668071        2.7971842294       12.4503851914
  C         8.5900756009        2.5344647563       13.3887832588
  C         6.8023003667        6.9168453453        8.2304321201
  C         3.4649302343       -0.8361706841        8.2216619356
  F         7.7757713466        3.7059007453        3.9215094739
  F         3.2113337324        2.7006596514       13.1203826144
  F         5.7788441418       -1.1056116420        8.2330134952
  F         4.4775238359        7.2115872031        8.3926668816
  H         3.4329766417        4.9233096694        8.2703833446
  H         6.8792911668        1.5718349902        7.3847815431
  H         5.5558479229        3.8053105005        4.4820888295
  H         5.9341546623        4.2504696123        2.0619285674
  H         1.6928380964        4.0722480172        1.3687563734
  H         9.2516706723        1.9641879406       15.3505883292
  H         5.0282243762        1.9844838269       14.6194751420
  H         5.4526585535        2.8529921567       12.3971566317
  N         4.0234278247        4.2968066964        0.2318332471
  N         6.8978531245        1.6488094921       16.5077615912
  O         7.9478603794        4.9116992403        8.1167837486
  O         6.6399311072        4.2010335741       10.6402200928
  O         4.6056388729        1.1486620318        7.7321419902
  O         2.2420964192        3.1410488358        6.3146814290
  O         2.4088869922        1.2469486725        8.2485594575
  O         4.5324695013        3.2231147165        6.2347005142
  O         5.6686720698        4.8614305932        8.1013058008
  O         8.3434623118        2.7857989880       10.0564597281
  O         3.4576863131        3.9448095565        8.4601943467
  O         6.8229661597        2.4779657637        7.7455742342
  O         4.8500890657        2.5707927904        9.7753235171
  C         4.2029222599        2.1213528796       10.9893129160
  H         3.1153684716        1.9282713254       10.7954737040
  H         4.2621805931        3.0682651550       11.5588857630
  H         4.5916294888        1.1717341642       11.3584512943
  H         4.5409198799        3.5325744978        9.8173914411
      50
 i =      128, E =      -412.7985769419
 Al         8.5075582959        3.0948701305        8.2240889810
 Al         5.0844358754        3.0043172705        7.9865250912
  C         6.7959393006        5.4378201489        8.1606755032
  C         7.5295748667        3.3517991780       10.9503386614
  C         3.4872353604        0.6322629484        8.0339960104
  C         3.3558132114        3.3418784934        5.7291162655
  C         3.4219446839        3.6768402453        4.3010810829
  C         4.7232569629        3.8932396354        3.7945970862
  C         4.9375256039        4.1010272255        2.4655506057
  C         3.8323562826        4.1389671168        1.6079470724
  C         2.5160019291        4.0099794600        2.0700867184
  C         2.3317852779        3.8268011601        3.4319737879
  C         8.3908586251        2.1274134197       14.6882602663
  C         7.0934537716        1.9034247378       15.1388256487
  C         6.0303181564        2.1917706773       14.2699529392
  C         6.2995523664        2.6258982174       13.0067156085
  C         7.5710914342        2.8419510847       12.4435740463
  C         8.5989141020        2.5285069962       13.3769713692
  C         6.7801332944        6.9164109482        8.2185247499
  C         3.4484688958       -0.8365516112        8.2487226283
  F         7.7666497897        3.7400142636        3.9127842369
  F         3.2270085044        2.7181744229       13.1301751659
  F         5.7688993787       -1.1342461144        8.2358154708
  F         4.4486338651        7.2366358812        8.3552841038
  H         3.4343846199        4.8788890517        8.2802624904
  H         6.8621109306        1.5544312664        7.3954011600
  H         5.5609595439        3.8063391214        4.4806351564
  H         5.9285521389        4.2577627452        2.0651185104
  H         1.6837673461        4.0736364494        1.3749367842
  H         9.2411414489        1.9800092942       15.3465219011
  H         5.0307289447        2.0004993024       14.6205413800
  H         5.4625575842        2.8815676741       12.3995801665
  N         4.0244334585        4.2779923064        0.2359938858
  N         6.8865919694        1.6822314810       16.4924199882
  O         7.9361271490        4.9122646783        8.1123151160
  O         6.6713084058        4.2002226870       10.6647066565
  O         4.5997440067        1.1406869598        7.7202421119
  O         2.2407129881        3.1435428168        6.3124907989
  O         2.3970747448        1.2431819667        8.2339822085
  O         4.5255582194        3.2383915020        6.2407884031
  O         5.6696479569        4.8502161678        8.0867542143
  O         8.3820378197        2.8615822559       10.1363729725
  O         3.4582197420        3.9162317127        8.4650318799
  O         6.8166903031        2.4669256429        7.7338481074
  O         4.8751960541        2.5552558348        9.7800414801
  C         4.2044114677        2.0945568987       10.9932369644
  H         3.1207718178        1.9148509045       10.7904517474
  H         4.2662404796        3.0374751532       11.5752038992
  H         4.5944090248        1.1620344299       11.3610555486
  H         4.5589196106        3.5190099897        9.8271675092
      50
 i =      129, E =      -412.8105999737
 Al         8.4948986821        3.0933737968        8.2402775075
 Al         5.0682919845        2.9905101313        7.9765868075
  C         6.7802619887        5.4228906467        8.1357000309
  C         7.5574638894        3.4051894933       10.9842592152
  C         3.4716357277        0.6249414744        8.0420247707
  C         3.3493713685        3.3361680069        5.7340559334
  C         3.4212172415        3.6845643582        4.3079430813
  C         4.7227140204        3.8800747343        3.8000870858
  C         4.9295637046        4.1107975104        2.4725003631
  C         3.8348086456        4.1324484183        1.5945530474
  C         2.5213717160        4.0161945950        2.0769299630
  C         2.3343048341        3.8094469035        3.4365518854
  C         8.3969167846        2.1027021268       14.6808689217
  C         7.0902899470        1.9231322552       15.1232345371
  C         6.0321764202        2.1716551941       14.2475353011
  C         6.3153667759        2.6706177341       12.9953335754
  C         7.5992007086        2.8666787834       12.4546930170
  C         8.6239892241        2.5600773794       13.3839620161
  C         6.7662085544        6.9058056513        8.2112589285
  C         3.4329480363       -0.8484510208        8.2210493927
  F         7.7639989874        3.7406204779        3.9142572379
  F         3.2586820227        2.7794493755       13.1665047520
  F         5.7430294525       -1.1179912831        8.2148710811
  F         4.4373977888        7.2194385787        8.3103775423
  H         3.4413637340        4.8438310052        8.2758033956
  H         6.8435674607        1.5351614675        7.4269312277
  H         5.5571684205        3.8123924487        4.4911194403
  H         5.9238533312        4.2700509013        2.0834892651
  H         1.6882734160        4.0738300453        1.3825255891
  H         9.2431731291        1.9850425678       15.3472182957
  H         5.0248402099        2.0254750115       14.5962335595
  H         5.4998317056        2.9498289856       12.3691439624
  N         4.0211964530        4.2751500140        0.2203005087
  N         6.8857000359        1.6635677637       16.4736601078
  O         7.9262273040        4.9048388654        8.1251528961
  O         6.6999184016        4.2625512811       10.7227471634
  O         4.5834719729        1.1279692046        7.7042837745
  O         2.2246203216        3.1708982018        6.3066962618
  O         2.3784430895        1.2345650213        8.2384057282
  O         4.5194241702        3.2283334263        6.2436376435
  O         5.6651590726        4.8264743185        8.0914982071
  O         8.3714828019        2.8995040374       10.1337662325
  O         3.4650213115        3.8868804038        8.4893553303
  O         6.8056199030        2.4539524823        7.7469025344
  O         4.8968016234        2.5369576571        9.7842370362
  C         4.2064237145        2.0542911256       10.9848626037
  H         3.1256556844        1.8670732670       10.7730978095
  H         4.2430863614        3.0057588250       11.5829186724
  H         4.6183588954        1.1347493820       11.3522858905
  H         4.5671203385        3.4905578973        9.8342157969
      50
 i =      130, E =      -412.8198917868
 Al         8.4689033760        3.0932333844        8.2690773532
 Al         5.0389200466        2.9683866297        7.9508503309
  C         6.7617250819        5.4021231128        8.1352618477
  C         7.5967034704        3.5050197947       11.0567059335
  C         3.4238660913        0.6080952745        8.0280309821
  C         3.3351838044        3.3512888638        5.7359569767
  C         3.4201108680        3.6843380993        4.3085852796
  C         4.7175882740        3.8670169969        3.7947776084
  C         4.9376985578        4.1330522469        2.4700806437
  C         3.8444211214        4.1002903188        1.5818316735
  C         2.5254202495        4.0209450697        2.0735121534
  C         2.3424904544        3.8099682613        3.4331834791
  C         8.4020238526        2.0994623762       14.6803714985
  C         7.0856746787        1.9257230807       15.1097160337
  C         6.0437152525        2.1889659404       14.2128645478
  C         6.3458975890        2.7115937038       12.9758772294
  C         7.6455221875        2.9242006172       12.4792929573
  C         8.6538171232        2.6021387657       13.4078936352
  C         6.7556048985        6.8893178143        8.1772983557
  C         3.4158385765       -0.8693895456        8.1633417578
  F         7.7838209450        3.6946701893        3.9322602913
  F         3.2778663415        2.9081161715       13.2064312299
  F         5.7427479645       -1.1364682529        8.2124157389
  F         4.4301195455        7.1921513306        8.2576205777
  H         3.4521423433        4.7783322005        8.2758753228
  H         6.8190939276        1.4966065004        7.4893672191
  H         5.5458555363        3.8216158975        4.4979073705
  H         5.9383545292        4.2916379903        2.1025253123
  H         1.6817671828        4.0724593935        1.3945864504
  H         9.2419924483        1.9824144871       15.3570384062
  H         5.0196229019        2.0691800538       14.5417337068
  H         5.5658067982        3.0823023383       12.3179143878
  N         4.0066706686        4.2789393349        0.2064185049
  N         6.8819133655        1.6300883092       16.4632219361
  O         7.9159162146        4.8949879644        8.1581827700
  O         6.7470968897        4.3698429352       10.8162717917
  O         4.5355267941        1.1082374913        7.6979880958
  O         2.2263614803        3.1728810819        6.3179177285
  O         2.3348183074        1.2264308991        8.2660488476
  O         4.5068629237        3.2168053319        6.2439585131
  O         5.6493971182        4.7975933363        8.0843305873
  O         8.3394897578        2.9269350999       10.1168074776
  O         3.4749351117        3.8418706811        8.5201669558
  O         6.7855623303        2.4248307764        7.7817563563
  O         4.9360955672        2.5084453050        9.7853628039
  C         4.2108510004        1.9830853547       10.9611613139
  H         3.1395964996        1.7928919508       10.7368247190
  H         4.2093674079        2.9423304482       11.5902649749
  H         4.6683506068        1.0734175433       11.3325035230
  H         4.5866500006        3.4448359556        9.8440313161
      50
 i =      131, E =      -412.8265015569
 Al         8.4404504951        3.0814150888        8.2883651543
 Al         5.0120946026        2.9526984618        7.9314777341
  C         6.7547354456        5.3919912137        8.1349606747
  C         7.6357043976        3.5672627804       11.1009515976
  C         3.4017376706        0.5961958963        8.0293306818
  C         3.3300794032        3.3310288459        5.7243279524
  C         3.4175395657        3.6946002041        4.3002598589
  C         4.7154417568        3.8803753788        3.7893040371
  C         4.9425388654        4.1167353296        2.4590928743
  C         3.8435831464        4.1187567428        1.5830556927
  C         2.5244622936        4.0084024181        2.0665471823
  C         2.3407450401        3.8028844071        3.4256443974
  C         8.4122297500        2.1057957562       14.6842197963
  C         7.0852466291        1.9259621534       15.0865117331
  C         6.0514193838        2.2094740891       14.1865992697
  C         6.3723707053        2.7774222495       12.9676221039
  C         7.6817196841        2.9612249822       12.4955561554
  C         8.6683189593        2.6593948376       13.4313996922
  C         6.7386548125        6.8858485742        8.1624399308
  C         3.3857443035       -0.8884704660        8.1171414523
  F         7.7713390931        3.6998094942        3.9032980563
  F         3.2815630240        3.0087947548       13.2459502647
  F         5.7279327711       -1.1336831798        8.2254089258
  F         4.4183616446        7.1336649829        8.1941175222
  H         3.4598921460        4.7496237340        8.2493669426
  H         6.8119140602        1.4571869816        7.5408043068
  H         5.5447856035        3.8268625957        4.4918228935
  H         5.9430150391        4.3092502965        2.1025817923
  H         1.6723871790        4.0682737770        1.3986459542
  H         9.2408251542        1.9763955328       15.3776385110
  H         5.0173499112        2.1102831361       14.5014441131
  H         5.6136758458        3.1573962843       12.3052987134
  N         4.0037760867        4.2537894276        0.1978158918
  N         6.8744908935        1.6219783817       16.4448691964
  O         7.9119818337        4.8850318476        8.1770855493
  O         6.7944390028        4.4402619183       10.8890552822
  O         4.5048604332        1.0984734868        7.6743820337
  O         2.2283430253        3.1681208285        6.3184300153
  O         2.3149419380        1.2150382887        8.2718803512
  O         4.4973117228        3.2255774890        6.2391926052
  O         5.6489393326        4.7853529222        8.0746598132
  O         8.3381355921        2.9743432645       10.1516697181
  O         3.4601262172        3.7996340081        8.5658366677
  O         6.7610703410        2.4149249148        7.7690935824
  O         4.9708231856        2.4791769936        9.7973499207
  C         4.2173433315        1.9244504645       10.9603060390
  H         3.1540461442        1.7327723025       10.7252329633
  H         4.1913329633        2.8778160761       11.6116552269
  H         4.7140611139        1.0260358694       11.3333439164
  H         4.6053110813        3.4085944676        9.8627991829
      50
 i =      132, E =      -412.8301703196
 Al         8.4342971774        3.0686579488        8.3057843608
 Al         5.0119158750        2.9296703574        7.9120943405
  C         6.7560655552        5.3826849065        8.1505041666
  C         7.6745540861        3.5946661981       11.1363616336
  C         3.3714400101        0.5816445430        8.0266648052
  C         3.3241872301        3.3342585071        5.7177090680
  C         3.4175003020        3.6939135151        4.2901045297
  C         4.7163721425        3.8968217732        3.7840016841
  C         4.9360646301        4.1133979930        2.4482161258
  C         3.8391932916        4.1215900554        1.5707767227
  C         2.5293615284        4.0025570360        2.0618900812
  C         2.3381999846        3.7938963474        3.4186334896
  C         8.4192279436        2.1337544507       14.6845743288
  C         7.0849830580        1.9303371947       15.0580893667
  C         6.0506893889        2.2525142911       14.1725011748
  C         6.3855415264        2.8186881504       12.9678599939
  C         7.7024316410        3.0166843087       12.5207148011
  C         8.6826670797        2.7149793292       13.4477658446
  C         6.7211506499        6.8815809588        8.1572951622
  C         3.3547761845       -0.9101106614        8.0866761693
  F         7.7661721651        3.7256972805        3.8971746763
  F         3.2837247759        3.1224612791       13.2767659463
  F         5.6930248339       -1.1020033135        8.2344842559
  F         4.3976831380        7.0719911827        8.1090439809
  H         3.4601566938        4.6837191862        8.3015849634
  H         6.8096980428        1.4230642020        7.5838844348
  H         5.5521209223        3.8324080462        4.4778332747
  H         5.9340620589        4.3143226334        2.0905125048
  H         1.6734413723        4.0573251184        1.3956608998
  H         9.2299648924        1.9687788574       15.3997417705
  H         5.0108165354        2.1533079392       14.4674471170
  H         5.6391278375        3.2129552231       12.3133803716
  N         4.0008565851        4.2293817562        0.1764731415
  N         6.8678379340        1.6245788407       16.4210269898
  O         7.9121541953        4.8763510375        8.1651740959
  O         6.8373987516        4.4955770639       10.9524514688
  O         4.4623077954        1.0992893353        7.6602426241
  O         2.2228503352        3.1560529917        6.3030486265
  O         2.2897342395        1.1964826853        8.2918378219
  O         4.4944989940        3.2392457176        6.2347018957
  O         5.6593118375        4.7708366005        8.0796209114
  O         8.3559644760        3.0009981324       10.2100025545
  O         3.4680210720        3.7909663586        8.5666848346
  O         6.7633217734        2.3965307043        7.7565849776
  O         5.0075203117        2.4583349683        9.8067214545
  C         4.2248541560        1.8781605403       10.9559112920
  H         3.1730682014        1.6842128252       10.7051227146
  H         4.1796012389        2.8137413408       11.6225767133
  H         4.7560494851        0.9994120447       11.3391310039
  H         4.6336159974        3.3826733265        9.8806534928
      50
 i =      133, E =      -412.8351591085
 Al         8.4429006085        3.0581712990        8.3086249920
 Al         5.0166445370        2.9151124644        7.9074198168
  C         6.7599010117        5.3742828304        8.1585004964
  C         7.6946479566        3.6078584338       11.1515123754
  C         3.3472762204        0.5717865631        8.0117279220
  C         3.3199665261        3.3549021778        5.7172967352
  C         3.4146458760        3.6828797069        4.2836076471
  C         4.7131669157        3.8979122181        3.7767168564
  C         4.9244597467        4.1370219499        2.4425393842
  C         3.8356033787        4.0914777044        1.5504063365
  C         2.5322426497        4.0015800292        2.0501533963
  C         2.3370985001        3.8082195494        3.4084804966
  C         8.4187198326        2.1605991456       14.6942013339
  C         7.0858537212        1.9368535796       15.0548449326
  C         6.0514320020        2.2855963496       14.1795816253
  C         6.3858760442        2.8235037142       12.9803483500
  C         7.7046842888        3.0597141686       12.5452699551
  C         8.6912707547        2.7488411208       13.4648216743
  C         6.7040370799        6.8715505924        8.1640704286
  C         3.3389215361       -0.9221009306        8.0878731075
  F         7.7708424781        3.7403443382        3.8969035253
  F         3.2763060868        3.1813863318       13.2807088232
  F         5.6665588557       -1.1120241729        8.2381844219
  F         4.3715255792        7.0569000120        8.0467665871
  H         3.4514808710        4.7080319644        8.2462484487
  H         6.8174170320        1.4172826755        7.5949619554
  H         5.5563517212        3.8387450003        4.4609482595
  H         5.9191628495        4.3033041718        2.0687395804
  H         1.6786142659        4.0464737400        1.3785952704
  H         9.2202942726        1.9653235590       15.4127088736
  H         5.0160400969        2.1732218353       14.4629681860
  H         5.6351209611        3.2320291947       12.3396244887
  N         3.9969557326        4.2294670782        0.1570551044
  N         6.8683063118        1.6287762747       16.4163100439
  O         7.9202512272        4.8761219890        8.1450758574
  O         6.8710302261        4.5171376477       10.9788802394
  O         4.4331218782        1.1055745282        7.6541175496
  O         2.2178405693        3.1444916615        6.2930326799
  O         2.2729915435        1.1803977365        8.3257376548
  O         4.4984560418        3.2429942875        6.2306817482
  O         5.6669301943        4.7627733781        8.0943537559
  O         8.3632498574        3.0083329588       10.2382033392
  O         3.4633479571        3.7731072589        8.5862320391
  O         6.7743343624        2.3724701193        7.7697171643
  O         5.0341676431        2.4403124483        9.8187384769
  C         4.2386251186        1.8534189541       10.9644283698
  H         3.1916147360        1.6495497324       10.7006873585
  H         4.1854446648        2.7699553178       11.6338445401
  H         4.7855813950        0.9914550521       11.3548287839
  H         4.6566688758        3.3667290571        9.8955488083
      50
 i =      134, E =      -412.8400748104
 Al         8.4538861044        3.0504188455        8.3091187022
 Al         5.0232467365        2.9079224434        7.9134301998
  C         6.7595507501        5.3697499255        8.1483414760
  C         7.6934782035        3.6254798708       11.1578054475
  C         3.3343343649        0.5626578363        8.0143643703
  C         3.3270947577        3.3329218046        5.7106051531
  C         3.4145271901        3.6948295544        4.2832193262
  C         4.7099081132        3.8992954753        3.7646414493
  C         4.9248729453        4.1258845600        2.4296621284
  C         3.8281810655        4.0970705019        1.5543338351
  C         2.5205456098        3.9846218190        2.0375219161
  C         2.3378987735        3.8240450151        3.4023249103
  C         8.4185135249        2.1756162908       14.7072586980
  C         7.0882546170        1.9502621512       15.0673364024
  C         6.0533290869        2.2794274084       14.1915824478
  C         6.3813341385        2.8515076638       12.9951369735
  C         7.7027130311        3.0581548887       12.5591522351
  C         8.6967973174        2.7752737192       13.4820489196
  C         6.7030440594        6.8626008383        8.1693181573
  C         3.3397041758       -0.9309107215        8.0807005746
  F         7.7728717755        3.7332464215        3.8846675663
  F         3.2690881330        3.1898576616       13.2710432364
  F         5.6762505541       -1.1573534314        8.2351229592
  F         4.3585517998        7.0702338609        8.0271288183
  H         3.4460085718        4.7067157670        8.2466924643
  H         6.8324498019        1.4190756872        7.6086139202
  H         5.5541864959        3.8452534077        4.4483254592
  H         5.9195213708        4.3003553201        2.0498248754
  H         1.6752335329        4.0401086229        1.3564421706
  H         9.2185026804        1.9683785464       15.4157932302
  H         5.0225581259        2.1758249527       14.4740979877
  H         5.6235767237        3.2354870487       12.3519459374
  N         3.9984636112        4.2287939678        0.1610631451
  N         6.8686036589        1.6235110871       16.4205446117
  O         7.9309946791        4.8801271336        8.1597623567
  O         6.8827217272        4.5486159932       10.9867735162
  O         4.4182087413        1.1070011001        7.6510314117
  O         2.2218494887        3.1555391969        6.3063751481
  O         2.2611899235        1.1625081115        8.3360243581
  O         4.4998417632        3.2526417606        6.2359637152
  O         5.6639192120        4.7578120145        8.1022479088
  O         8.3509742090        2.9795213234       10.2197259846
  O         3.4652226860        3.7756096941        8.5757882806
  O         6.7814630321        2.3713787684        7.7773632959
  O         5.0424230853        2.4398336660        9.8250645221
  C         4.2478836647        1.8495140790       10.9672609005
  H         3.2019968963        1.6216897516       10.6936396720
  H         4.1826001688        2.7549420890       11.6341428282
  H         4.8017304400        0.9973813324       11.3637150440
  H         4.6628233538        3.3673852921        9.9019895727
      50
 i =      135, E =      -412.8437437012
 Al         8.4494589518        3.0375047511        8.3235583675
 Al         5.0191331458        2.8863959462        7.9106469296
  C         6.7477283627        5.3550539948        8.1485501227
  C         7.7085997986        3.6702241445       11.1739685513
  C         3.3093791927        0.5455612560        8.0157852346
  C         3.3270367434        3.3461035879        5.7077159969
  C         3.4109066487        3.7126319993        4.2790268099
  C         4.7067900788        3.8968204612        3.7488539683
  C         4.9208536078        4.1199359096        2.4124829180
  C         3.8229646602        4.0819233585        1.5427788644
  C         2.5138322871        3.9850440303        2.0221305912
  C         2.3356035012        3.8130664646        3.3867263150
  C         8.4257049020        2.2082694663       14.7254633283
  C         7.0949509032        1.9704495368       15.0766834236
  C         6.0581377045        2.3016673883       14.2040042893
  C         6.3837380722        2.8894920788       13.0136287942
  C         7.7029979036        3.0917159713       12.5772274095
  C         8.6995920995        2.8149087534       13.5085522566
  C         6.6931111702        6.8410873015        8.1539257645
  C         3.3354430895       -0.9486168993        8.0444113081
  F         7.7570823457        3.7176611384        3.8316720789
  F         3.2551625787        3.2568666452       13.2708902417
  F         5.6621703571       -1.1807974443        8.2402945752
  F         4.3566002384        7.0454748650        7.9538380519
  H         3.4434074122        4.6752531402        8.2538240341
  H         6.8562928902        1.3942962133        7.6594643870
  H         5.5555507209        3.8574840495        4.4294939765
  H         5.9137314797        4.2976649906        2.0215259081
  H         1.6737656605        4.0195145100        1.3341382245
  H         9.2163508187        1.9793784882       15.4310716125
  H         5.0277556236        2.1937944888       14.4802924465
  H         5.6192726202        3.2849853902       12.3680233087
  N         3.9926095526        4.2278823627        0.1522686473
  N         6.8663403987        1.6099906348       16.4176938457
  O         7.9276725614        4.8779265277        8.1749551336
  O         6.9209781473        4.6165259137       11.0222254197
  O         4.3883410997        1.1012094826        7.6373414044
  O         2.2345823814        3.1477126678        6.3274050194
  O         2.2392229139        1.1354118031        8.3469913763
  O         4.5072047065        3.2451871821        6.2268162750
  O         5.6504360792        4.7347940730        8.1095724291
  O         8.3408086847        2.9797939904       10.2299744223
  O         3.4607774929        3.7566442976        8.5718525679
  O         6.7760216729        2.3729435685        7.7626876296
  O         5.0707575856        2.4276453788        9.8389645527
  C         4.2671018439        1.8166818204       10.9684486959
  H         3.2286538011        1.5571703471       10.6758317805
  H         4.1769205269        2.6982235350       11.6416745279
  H         4.8485978153        0.9871685226       11.3783814928
  H         4.6872523644        3.3521404642        9.9208943927
      50
 i =      136, E =      -412.8481085968
 Al         8.4532515410        3.0390647755        8.3171171117
 Al         5.0174184675        2.8891494468        7.9127219752
  C         6.7426669731        5.3559853285        8.1584360218
  C         7.6885110615        3.6545119305       11.1516522715
  C         3.3191048951        0.5451030801        8.0122906119
  C         3.3378800207        3.3555722829        5.7089497069
  C         3.4090922776        3.7190912053        4.2776670733
  C         4.7076458195        3.9015743773        3.7450304184
  C         4.9182419868        4.1027684612        2.4060142563
  C         3.8221464750        4.0820639057        1.5373943690
  C         2.5144564543        3.9814671504        2.0193531794
  C         2.3304220098        3.8002188813        3.3835242203
  C         8.4262207943        2.2220156439       14.7282833366
  C         7.0975148866        1.9900179619       15.0896440003
  C         6.0509781257        2.3094457851       14.2238706153
  C         6.3603068472        2.8939437730       13.0270219386
  C         7.6691466536        3.0799955315       12.5649618021
  C         8.6736338900        2.8172793799       13.5037059707
  C         6.7025820723        6.8349922055        8.1388124533
  C         3.3525937875       -0.9444340359        8.0265192026
  F         7.7592647500        3.7169923355        3.8453930247
  F         3.2389887166        3.2299055731       13.2583137640
  F         5.6750158574       -1.1920718294        8.2402012856
  F         4.3727659215        7.0683795893        7.9385383509
  H         3.4420781805        4.6714684403        8.2736827564
  H         6.8766736317        1.4036511698        7.6575876058
  H         5.5607502846        3.8609785911        4.4198799436
  H         5.9073080300        4.2842208262        2.0026356584
  H         1.6769226138        4.0033786543        1.3293171136
  H         9.2164791258        2.0031421295       15.4314599544
  H         5.0248549037        2.1826738002       14.5154939662
  H         5.5742685424        3.2670820775       12.3930315583
  N         3.9927269395        4.2290217749        0.1528837189
  N         6.8674360054        1.6142602296       16.4185277241
  O         7.9150004001        4.8764337603        8.1661429529
  O         6.9156437878        4.6037389459       10.9831254201
  O         4.4022066923        1.0998689263        7.6424999122
  O         2.2451711783        3.1469489081        6.3293927858
  O         2.2489954210        1.1329959951        8.3497751871
  O         4.5242477959        3.2460163365        6.2151737122
  O         5.6427530756        4.7279470841        8.1257925486
  O         8.3324031570        2.9810805616       10.2338319220
  O         3.4493504002        3.7531659563        8.5609685020
  O         6.7741308940        2.3688206144        7.7741188398
  O         5.0684983547        2.4419374337        9.8399304756
  C         4.2807855039        1.8262432240       10.9653032832
  H         3.2481764208        1.5618546084       10.6720456211
  H         4.1980745118        2.6870699504       11.6327836565
  H         4.8614335142        1.0019825160       11.3899771848
  H         4.7016731687        3.3670666746        9.9266688611
      50
 i =      137, E =      -412.8517673393
 Al         8.4504697663        3.0333697889        8.3183231231
 Al         5.0098289922        2.8899422847        7.9201660443
  C         6.7362228991        5.3483310972        8.1635452210
  C         7.6788348676        3.6840206144       11.1530068120
  C         3.3243181490        0.5304548486        7.9935959671
  C         3.3519391099        3.3491645136        5.7099569959
  C         3.4056245737        3.7140786964        4.2725832802
  C         4.7038741089        3.9157405530        3.7364885065
  C         4.9109121468        4.0875953146        2.3935008972
  C         3.8169133087        4.0691466303        1.5240668239
  C         2.5113366460        3.9496864189        2.0082543900
  C         2.3250964972        3.8021139613        3.3783666364
  C         8.4302970010        2.2612479479       14.7269018238
  C         7.1008141410        2.0020788965       15.0920282286
  C         6.0460981722        2.3634440921       14.2349100632
  C         6.3429801351        2.9397607155       13.0354489080
  C         7.6501239716        3.1338219546       12.5718647538
  C         8.6704212718        2.8612101070       13.4995478591
  C         6.6876629788        6.8241163046        8.0985904050
  C         3.3344719817       -0.9585313196        7.9702902101
  F         7.7715045644        3.7444624664        3.8802302467
  F         3.2457147213        3.2730211997       13.2408304189
  F         5.6501934896       -1.1771377642        8.2274410018
  F         4.3599521235        7.0598946095        7.8429599853
  H         3.4450392771        4.6418692555        8.2798573853
  H         6.8897135127        1.3925581187        7.6966670224
  H         5.5599883011        3.8738728342        4.4056544064
  H         5.8962505559        4.2645228231        1.9795581677
  H         1.6747717569        3.9725861615        1.3189542419
  H         9.2143704875        2.0462936556       15.4413998821
  H         5.0256283109        2.1920150491       14.5484629060
  H         5.5365124864        3.3125446511       12.4160869396
  N         3.9948246502        4.2219530239        0.1484616112
  N         6.8655223055        1.6181513963       16.4062386269
  O         7.8949837656        4.8604948420        8.1491194079
  O         6.9463341474        4.6755322361       10.9964441219
  O         4.4043278914        1.1018269667        7.6467922636
  O         2.2466895859        3.1542278927        6.3145819917
  O         2.2573610560        1.1164124736        8.3629313223
  O         4.5395393704        3.2479617064        6.2090805800
  O         5.6390951189        4.7117455482        8.1710164837
  O         8.2937587933        3.0006909805       10.2359860796
  O         3.4340775272        3.7182178481        8.5638343521
  O         6.7650800993        2.3450040376        7.8009665725
  O         5.0935370430        2.4474564330        9.8576711223
  C         4.3094439786        1.7882027431       10.9575481249
  H         3.2915257411        1.4863072183       10.6441385479
  H         4.1981080964        2.6144249881       11.6377076990
  H         4.9208258475        0.9865981583       11.4094633852
  H         4.7394047422        3.3638803359        9.9611783126
      50
 i =      138, E =      -412.8557126145
 Al         8.4464457629        3.0317019565        8.3168395808
 Al         5.0173244022        2.8876041905        7.9235953241
  C         6.7285913463        5.3384248882        8.1449222045
  C         7.6777489115        3.7224339601       11.1650866566
  C         3.3297914197        0.5350456300        7.9730969663
  C         3.3502059399        3.3591150414        5.7073578660
  C         3.4126773355        3.7091734337        4.2649940110
  C         4.7086864625        3.9094672182        3.7267986920
  C         4.9024700870        4.0961610411        2.3860729392
  C         3.8068236791        4.0401056667        1.5138966842
  C         2.5036310562        3.9335280493        2.0106968851
  C         2.3227269802        3.8013502014        3.3837287702
  C         8.4319430925        2.2829201578       14.7255398159
  C         7.1015941301        2.0343631901       15.0944057056
  C         6.0445806972        2.3756003956       14.2421508935
  C         6.3309326780        2.9813644708       13.0438060771
  C         7.6417318784        3.1774260303       12.5817272043
  C         8.6692932821        2.8845498663       13.4947529387
  C         6.6718449708        6.8201663589        8.0806837632
  C         3.3237591351       -0.9543410190        7.9350151097
  F         7.7579050821        3.7419542106        3.8604963708
  F         3.2546575394        3.3112718856       13.2366066254
  F         5.6457207425       -1.1977601432        8.2340226639
  F         4.3440108087        7.0985850264        7.8152707473
  H         3.4418458290        4.6273254160        8.2709447538
  H         6.8840978814        1.3694718898        7.7278638999
  H         5.5610542463        3.8837838804        4.4006496940
  H         5.8876968102        4.2470139112        1.9700627569
  H         1.6677129407        3.9494771945        1.3179038963
  H         9.2217090872        2.0868919013       15.4419026436
  H         5.0281078299        2.2094822952       14.5771941808
  H         5.5162743600        3.3444033514       12.4348099076
  N         3.9950143242        4.2151367061        0.1457390066
  N         6.8662232216        1.6227269674       16.4000769781
  O         7.8838578886        4.8469198990        8.1388922681
  O         6.9834840989        4.7420227757       11.0081419083
  O         4.4118549681        1.1036268111        7.6443294345
  O         2.2430748499        3.1431634209        6.2933384545
  O         2.2617931440        1.1108303769        8.3696413859
  O         4.5329729425        3.2494945175        6.2142996033
  O         5.6307606688        4.7077605046        8.1855203580
  O         8.2738570226        3.0146231772       10.2499312410
  O         3.4274933093        3.6956241708        8.5545479093
  O         6.7682597935        2.3409031783        7.7798668105
  O         5.1198670951        2.4537685057        9.8728427360
  C         4.3311860143        1.7519086961       10.9562999554
  H         3.3238017974        1.4116135086       10.6225684549
  H         4.1923680243        2.5556935764       11.6560049524
  H         4.9577263577        0.9648937778       11.4214676497
  H         4.7662907405        3.3701475015        9.9932930879
      50
 i =      139, E =      -412.8592164371
 Al         8.4419796919        3.0300891385        8.3262575309
 Al         5.0318686263        2.8865355488        7.9322132728
  C         6.7237151128        5.3283330546        8.1218164296
  C         7.6633509837        3.7623877678       11.1702430572
  C         3.3431786517        0.5436761482        7.9744065520
  C         3.3470996943        3.3550819282        5.7075900638
  C         3.4206502056        3.7113680246        4.2665173155
  C         4.7110605373        3.8981266474        3.7237053906
  C         4.9035446474        4.0890800557        2.3839902997
  C         3.8063497786        4.0178227766        1.5096335942
  C         2.5007965176        3.9182815767        2.0086402369
  C         2.3342221209        3.7921681056        3.3820716708
  C         8.4250692047        2.3217623854       14.7247034833
  C         7.0977595227        2.0643349951       15.0999098705
  C         6.0432695464        2.4057629867       14.2474117397
  C         6.3142000819        2.9977913402       13.0460159745
  C         7.6261438097        3.2091402544       12.5811398574
  C         8.6494926993        2.9162969580       13.4894703947
  C         6.6690730959        6.8211409517        8.0721945072
  C         3.3242987928       -0.9471732648        7.9209695884
  F         7.7568481141        3.6981528953        3.8219724516
  F         3.2438191051        3.2910053018       13.2225830570
  F         5.6410684235       -1.1851985922        8.2276180876
  F         4.3480066362        7.1059890255        7.7870822784
  H         3.4380454497        4.6222936801        8.2746950048
  H         6.8585236737        1.3559556195        7.7403554007
  H         5.5610264716        3.8906331693        4.4006675134
  H         5.8869968623        4.2347468368        1.9675368178
  H         1.6534465318        3.9244133241        1.3286868918
  H         9.2348583033        2.1328374872       15.4264609053
  H         5.0327775320        2.2281532614       14.5986934679
  H         5.4956402749        3.3790262344       12.4431743300
  N         3.9899508413        4.2050571326        0.1445126212
  N         6.8673834530        1.6290957945       16.4031933262
  O         7.8792083549        4.8297274286        8.1275081103
  O         7.0117358596        4.7979849499       11.0031767754
  O         4.4281808911        1.1041069439        7.6455913649
  O         2.2423451397        3.1386719053        6.2926095765
  O         2.2731715259        1.1114772762        8.3690388175
  O         4.5210919996        3.2530372367        6.2295243027
  O         5.6207466275        4.7055660025        8.1918499093
  O         8.2412429380        3.0253142750       10.2528669937
  O         3.4291513226        3.6818285579        8.5447189073
  O         6.7816442396        2.3320922515        7.7622210264
  O         5.1426526184        2.4654532497        9.8831833388
  C         4.3567859258        1.7162970698       10.9442839261
  H         3.3632954085        1.3431984054       10.5938204870
  H         4.1895507497        2.5004495538       11.6651699736
  H         4.9923953859        0.9419103873       11.4250292648
  H         4.7981364783        3.3790060887       10.0247299279
      50
 i =      140, E =      -412.8615394940
 Al         8.4283792197        3.0253319279        8.3538135820
 Al         5.0304606953        2.8774327560        7.9395723687
  C         6.7241273043        5.3106213246        8.1169771545
  C         7.6631195835        3.8226060233       11.1799091952
  C         3.3339326017        0.5380222478        7.9743313710
  C         3.3388638866        3.3563077554        5.7106262797
  C         3.4176320288        3.7063114964        4.2678499110
  C         4.7055362911        3.8958980206        3.7275833018
  C         4.9089439911        4.0622606598        2.3826201483
  C         3.8129676425        4.0045726405        1.5051266060
  C         2.5071814246        3.8983751803        2.0058601760
  C         2.3364707273        3.7603474401        3.3761383247
  C         8.4137672873        2.3777188649       14.7254273010
  C         7.0876126072        2.1087474588       15.0912515204
  C         6.0369552343        2.4390553092       14.2384785038
  C         6.3032268344        3.0708616726       13.0446343629
  C         7.6196929481        3.2612728336       12.5789397244
  C         8.6244144496        2.9767166316       13.4949248890
  C         6.6611051631        6.8112878409        8.0547759680
  C         3.3174845929       -0.9576149383        7.9045155940
  F         7.7596783588        3.6626546044        3.8241119674
  F         3.2167249640        3.3576892173       13.2248677644
  F         5.6372141197       -1.2045863016        8.2228194821
  F         4.3539602750        7.0546598697        7.7061098250
  H         3.4390443159        4.6029926821        8.3017569708
  H         6.8256172940        1.3323081954        7.7753436359
  H         5.5601795824        3.8976930498        4.3998011152
  H         5.8905496379        4.2322273029        1.9694583677
  H         1.6437079886        3.8894121927        1.3442509811
  H         9.2457066943        2.1828633005       15.4065664030
  H         5.0290508322        2.2772763205       14.5922199882
  H         5.4969169977        3.4562785538       12.4349600072
  N         3.9851069506        4.1809991147        0.1336045293
  N         6.8680323654        1.6367922280       16.3938186292
  O         7.8846073012        4.8145166592        8.1078296113
  O         7.0574837191        4.8939628632       11.0285253690
  O         4.4232069197        1.0969962262        7.6586982728
  O         2.2415459538        3.1361043150        6.3034148077
  O         2.2713715599        1.1095059889        8.3895166629
  O         4.5140119157        3.2463355137        6.2366363504
  O         5.6172948753        4.6889894885        8.1984437387
  O         8.1996633574        3.0477282374       10.2559226684
  O         3.4310164790        3.6600097121        8.5671178101
  O         6.7888771188        2.3038881054        7.7721862661
  O         5.1817283176        2.4660025967        9.8998241692
  C         4.3943067736        1.6484721625       10.9199263978
  H         3.4244018610        1.2415555282       10.5474583943
  H         4.1779236062        2.4074866246       11.6718149794
  H         5.0615812656        0.9003926229       11.4247892638
  H         4.8501907008        3.3662986049       10.0698814377
      50
 i =      141, E =      -412.8646849810
 Al         8.4183659557        3.0223823912        8.3617193830
 Al         5.0219967490        2.8734667579        7.9489227165
  C         6.7284052132        5.3073324048        8.1138635725
  C         7.6509407906        3.8519909444       11.1670295120
  C         3.3317187708        0.5288953880        7.9979648850
  C         3.3405827058        3.3366094355        5.7127674791
  C         3.4123258477        3.6998349948        4.2719559571
  C         4.7015112671        3.8871600286        3.7340728450
  C         4.9124686216        4.0452793644        2.3863649819
  C         3.8128069032        3.9888786429        1.5142538153
  C         2.5076613431        3.8745407000        2.0151448591
  C         2.3267186878        3.7316193470        3.3842680653
  C         8.3965940206        2.4150325123       14.7142903870
  C         7.0802983946        2.1201316462       15.0839719902
  C         6.0224878028        2.4855002290       14.2417832939
  C         6.2883048719        3.0976605630       13.0450070678
  C         7.6038045188        3.2940792118       12.5708712517
  C         8.6110162539        3.0071478709       13.4805516974
  C         6.6716634030        6.8098578359        8.0607974700
  C         3.3228262221       -0.9708167971        7.8966513552
  F         7.7553659425        3.6206485527        3.8566160742
  F         3.2096382336        3.3978894128       13.2193362120
  F         5.6345168755       -1.1870721292        8.2223084027
  F         4.3628647900        7.0283370226        7.6833091302
  H         3.4402094298        4.6076671180        8.3371681667
  H         6.8120446133        1.3205233820        7.7961139406
  H         5.5585009975        3.8968683455        4.4057937350
  H         5.8969955073        4.2257061640        1.9790863874
  H         1.6432883618        3.8645130908        1.3533413095
  H         9.2436191791        2.2290477365       15.3800334588
  H         5.0146130635        2.3094278405       14.5867529144
  H         5.4830977528        3.4904645117       12.4356975423
  N         3.9858397796        4.1674151235        0.1369197610
  N         6.8704671457        1.6689198813       16.3928324115
  O         7.8911773338        4.8153301892        8.0695872871
  O         7.0792992136        4.9420702813       11.0162982548
  O         4.4252879318        1.0856819353        7.6868987424
  O         2.2407658103        3.1401507504        6.3088246281
  O         2.2761579002        1.1114738208        8.3865443140
  O         4.5204910128        3.2453077348        6.2330115741
  O         5.6273544460        4.6759298521        8.2042913150
  O         8.1673408544        3.0637798148       10.2465999707
  O         3.4243108064        3.6572259637        8.5908841481
  O         6.7888537771        2.3047912671        7.7609539917
  O         5.1993875856        2.4671854526        9.9114125493
  C         4.4263891280        1.6143822014       10.9041611973
  H         3.4755539854        1.1871817611       10.5218903632
  H         4.1769193987        2.3545346370       11.6678094539
  H         5.1066358345        0.8917565160       11.4246768976
  H         4.8825576670        3.3624502055       10.0990003412
      50
 i =      142, E =      -412.8689974515
 Al         8.4248438636        3.0247352130        8.3409416957
 Al         5.0161328721        2.8880168271        7.9740670010
  C         6.7450665879        5.3236264274        8.1204276989
  C         7.6263829086        3.8284987435       11.1201376823
  C         3.3366884273        0.5245561989        8.0208963817
  C         3.3532249554        3.3288386106        5.7269527888
  C         3.4116302938        3.6684216237        4.2845288992
  C         4.7011328834        3.8761326570        3.7491493816
  C         4.9123806118        4.0361885838        2.4011789189
  C         3.8115383592        3.9796609331        1.5350262405
  C         2.5080327069        3.8460687340        2.0289674488
  C         2.3249943243        3.7085435956        3.3984614438
  C         8.3684495383        2.4234143509       14.6928347425
  C         7.0687941487        2.1381055872       15.0873686281
  C         5.9995404379        2.5009236549       14.2533372974
  C         6.2665040171        3.0935157302       13.0462993941
  C         7.5732067507        3.2911971662       12.5474136354
  C         8.5943372803        3.0063561156       13.4470287206
  C         6.6905809893        6.8181343957        8.0832529665
  C         3.3410784929       -0.9752300441        7.9355946706
  F         7.7453162954        3.5947389743        3.8616631214
  F         3.1895247621        3.3570172678       13.1639226442
  F         5.6338391077       -1.1576956370        8.2384845256
  F         4.3903622738        7.0009786597        7.7544638192
  H         3.4389549831        4.6395570283        8.4067003557
  H         6.8156859519        1.3504482792        7.7622501464
  H         5.5563339902        3.8808567902        4.4238479255
  H         5.9026699452        4.2127314862        2.0004048599
  H         1.6526845793        3.8502861643        1.3574715487
  H         9.2252286188        2.2668875745       15.3460824481
  H         4.9876183183        2.3297893307       14.5814392272
  H         5.4500406917        3.4605548357       12.4448568616
  N         3.9821034958        4.1648760224        0.1500950668
  N         6.8716519914        1.7198737385       16.4093319945
  O         7.9105791615        4.8376358677        8.0372366196
  O         7.0672231777        4.9203311911       10.9557140590
  O         4.4397159713        1.0845841283        7.7483256562
  O         2.2470492354        3.1341939823        6.3075733006
  O         2.2869194594        1.1219594195        8.3768435638
  O         4.5439649903        3.2331394618        6.2329674555
  O         5.6554446906        4.6840395174        8.2175391322
  O         8.1534687641        3.0579156565       10.2140844542
  O         3.4152580840        3.6853887153        8.6221002262
  O         6.7879794163        2.3138165503        7.7753183930
  O         5.1916312776        2.4745590944        9.9203371071
  C         4.4530686363        1.6279308083       10.8994893706
  H         3.5168325862        1.1962900246       10.5199885202
  H         4.1896394279        2.3576930964       11.6504370410
  H         5.1156531076        0.9256928913       11.4246076067
  H         4.8947597026        3.3762618180       10.1152193912
      50
 i =      143, E =      -412.8726394838
 Al         8.4263138376        3.0216038112        8.3266121228
 Al         5.0218462426        2.9018470153        8.0008311660
  C         6.7491261054        5.3355185839        8.1225522969
  C         7.6064628546        3.8421662481       11.0876612259
  C         3.3372674159        0.5272389524        8.0362199083
  C         3.3669947391        3.3145153580        5.7370877991
  C         3.4124058509        3.6379088347        4.2940764200
  C         4.7027250665        3.8632917887        3.7600817272
  C         4.9065789144        4.0147626723        2.4125135120
  C         3.8141029715        3.9675449217        1.5387927970
  C         2.5134783173        3.8040189333        2.0322517204
  C         2.3282084220        3.6697448070        3.4013278319
  C         8.3521177394        2.4789602775       14.6737003405
  C         7.0566096176        2.1978142001       15.0892624238
  C         5.9753606775        2.5385946848       14.2616114490
  C         6.2292024668        3.1218221100       13.0461362321
  C         7.5278012000        3.3100154678       12.5216178726
  C         8.5629680510        3.0166330727       13.4113833019
  C         6.6981393141        6.8243271249        8.0936769561
  C         3.3504902058       -0.9718866980        7.9537350035
  F         7.7395021676        3.5441001539        3.8444581201
  F         3.1538664082        3.3534188906       13.0916566897
  F         5.6291245201       -1.1424965013        8.2415881912
  F         4.4060040102        7.0016286471        7.7992272158
  H         3.4306328760        4.6494636840        8.4750908682
  H         6.8213807162        1.3519787551        7.7674470178
  H         5.5542188982        3.8676427258        4.4385395117
  H         5.8971014782        4.1912228732        2.0121259552
  H         1.6605415507        3.8103498788        1.3602836511
  H         9.2084215428        2.3280928752       15.3289184218
  H         4.9653455782        2.3725683899       14.5963152239
  H         5.3901165633        3.4756601225       12.4649241130
  N         3.9703546387        4.1525163385        0.1501906046
  N         6.8687501623        1.7708529522       16.4151924587
  O         7.9045429592        4.8411452455        7.9843064821
  O         7.0911755263        4.9586652020       10.9016546978
  O         4.4547620967        1.0892050025        7.8091766134
  O         2.2603867689        3.1179525468        6.3110575375
  O         2.2810351954        1.1197780915        8.3897206743
  O         4.5512610804        3.2386650672        6.2573002554
  O         5.6679566708        4.6925991573        8.2690151724
  O         8.1270527162        3.0487104273       10.1988695319
  O         3.4090213231        3.6862342913        8.6455454734
  O         6.7890957366        2.3219308452        7.7686762231
  O         5.2137484176        2.4905473408        9.9414938800
  C         4.5023869120        1.6088293149       10.8880422255
  H         3.5931805290        1.1396717744       10.4903920008
  H         4.1973768718        2.3073857483       11.6472465855
  H         5.1632213125        0.9321974231       11.4285263950
  H         4.9378757368        3.3999400695       10.1636519299
      50
 i =      144, E =      -412.8780153640
 Al         8.4228980334        3.0158278594        8.3169932137
 Al         5.0338024956        2.9096142058        8.0239901736
  C         6.7440328363        5.3447097406        8.1232186412
  C         7.6059881088        3.9026300275       11.0780346662
  C         3.3326309586        0.5343100340        8.0574834953
  C         3.3725705861        3.3052828483        5.7435792529
  C         3.4186028010        3.6108029859        4.2973865506
  C         4.7060843026        3.8337699130        3.7553810069
  C         4.9010244776        4.0033097724        2.4133670681
  C         3.8136616974        3.9311858015        1.5321939070
  C         2.5143208743        3.7616453875        2.0326274600
  C         2.3336027341        3.6114848008        3.4001208167
  C         8.3466766424        2.5448134401       14.6573857076
  C         7.0394619159        2.2765333607       15.0826845207
  C         5.9507739509        2.6023407492       14.2581777381
  C         6.1857347013        3.1897379084       13.0378090139
  C         7.4802469731        3.3567634195       12.5003607446
  C         8.5260186890        3.0708728216       13.3824173452
  C         6.6899273448        6.8333378729        8.0891627801
  C         3.3382879379       -0.9641296524        7.9575352035
  F         7.7436946443        3.5010812112        3.8391129683
  F         3.1080628306        3.3627741949       13.0070513994
  F         5.6177153006       -1.1275619250        8.2408211530
  F         4.3810527582        7.0447773114        7.7693503186
  H         3.4174820882        4.6250557457        8.5350222738
  H         6.8270819983        1.3420920020        7.7920919439
  H         5.5474280182        3.8568030850        4.4467960695
  H         5.8906925547        4.1675263253        2.0149425479
  H         1.6650653033        3.7477756519        1.3549363628
  H         9.1894550833        2.4069046485       15.3304170928
  H         4.9469496786        2.4414653609       14.6195512077
  H         5.3208398146        3.5408999459       12.4868803352
  N         3.9654394314        4.1388578768        0.1467682190
  N         6.8654047526        1.8358621234       16.4068103253
  O         7.8871238765        4.8385702203        7.9584124050
  O         7.1561977317        5.0520927456       10.8743524218
  O         4.4565250751        1.0992505467        7.8381191765
  O         2.2787767166        3.0621820006        6.3139650248
  O         2.2549928638        1.1036614214        8.3955231195
  O         4.5457717429        3.2416300724        6.2864999588
  O         5.6599547557        4.7095558714        8.3175021841
  O         8.0993149938        3.0564330202       10.2076971980
  O         3.4079461403        3.6547757415        8.6586254999
  O         6.7865200194        2.3103471470        7.7781922591
  O         5.2688683049        2.5020080573        9.9749173205
  C         4.5675524713        1.5551026436       10.8742207566
  H         3.6959417176        1.0235369778       10.4371793950
  H         4.1946296529        2.2058764734       11.6618298670
  H         5.2474688343        0.9030681869       11.4322970472
  H         5.0094165004        3.4205430693       10.2396495755
      50
 i =      145, E =      -412.8813413619
 Al         8.4191280220        3.0181222843        8.3135840107
 Al         5.0439498996        2.9216641548        8.0493610623
  C         6.7524320513        5.3584280586        8.1332843978
  C         7.6027980319        3.9159280794       11.0590866002
  C         3.3307615563        0.5443789665        8.0856597098
  C         3.3689047358        3.2742379345        5.7574283733
  C         3.4230292877        3.5794709404        4.3079148311
  C         4.7053591707        3.8039599948        3.7607967432
  C         4.9118608680        3.9992752930        2.4227478492
  C         3.8280242441        3.9202027864        1.5337948944
  C         2.5273108609        3.7393290136        2.0367768961
  C         2.3417645371        3.5897456025        3.4074217399
  C         8.3300130277        2.5714595284       14.6370661263
  C         7.0146141010        2.3166061793       15.0768092315
  C         5.9364250820        2.6248563384       14.2352017905
  C         6.1663954022        3.2077366330       13.0083567448
  C         7.4582563053        3.3754519658       12.4732532745
  C         8.5051091846        3.0600013156       13.3493129527
  C         6.6874352905        6.8499917744        8.1064247213
  C         3.3257393625       -0.9491030395        7.9936981195
  F         7.7607195224        3.4890079154        3.8638769385
  F         3.0895067236        3.3257187735       12.9599696315
  F         5.6222043551       -1.1148294658        8.2278653897
  F         4.3666046583        7.0625128850        7.8228314492
  H         3.4152277942        4.6265217190        8.5775790887
  H         6.8259649774        1.3438426021        7.7907924446
  H         5.5386005884        3.8325789110        4.4612147565
  H         5.9017044714        4.1711126685        2.0342042225
  H         1.6767538694        3.7218455940        1.3596991950
  H         9.1644642126        2.4231855456       15.3194014090
  H         4.9341006113        2.4816125272       14.6097718050
  H         5.2970306224        3.5660293954       12.4672141904
  N         3.9673296329        4.1527738294        0.1480238290
  N         6.8622878486        1.8798474917       16.4081259561
  O         7.8907840770        4.8495049983        7.9432187942
  O         7.1621248355        5.0395571377       10.8463515823
  O         4.4519654813        1.1118136183        7.8660522850
  O         2.2772381911        3.0275818933        6.3343100205
  O         2.2302978592        1.1021243180        8.3807258103
  O         4.5299299103        3.2409727576        6.3227283829
  O         5.6587128673        4.7413462414        8.3352705062
  O         8.0997819207        3.0648830474       10.2085872130
  O         3.4233564973        3.6528551571        8.6714750823
  O         6.7795885250        2.3322821375        7.7640593396
  O         5.2775553013        2.5003148216        9.9893653437
  C         4.5879774673        1.5521308586       10.8693269459
  H         3.7357575880        1.0184862972       10.4240594840
  H         4.1903327705        2.1926687254       11.6605168473
  H         5.2713558700        0.8902874620       11.4173128400
  H         5.0371325948        3.4226162717       10.2708181412
      50
 i =      146, E =      -412.8843366332
 Al         8.4155997802        3.0206326166        8.3110943672
 Al         5.0337527920        2.9179350395        8.0804937471
  C         6.7530401366        5.3604220121        8.1319016522
  C         7.6031517864        3.9421726124       11.0448032241
  C         3.3102053600        0.5471759171        8.1107322593
  C         3.3583476141        3.2199220833        5.7768740350
  C         3.4269492600        3.5396182089        4.3205398679
  C         4.7037084622        3.7706002863        3.7727538503
  C         4.9241431383        3.9753356149        2.4319714383
  C         3.8464800027        3.9177058150        1.5341393721
  C         2.5454099322        3.7077239839        2.0324962621
  C         2.3581509521        3.5661303913        3.4080972822
  C         8.3132732503        2.6041663951       14.6130638850
  C         6.9919724229        2.3652386309       15.0653707025
  C         5.9237798925        2.6878621750       14.2137238565
  C         6.1588594295        3.2491053081       12.9803223761
  C         7.4511390879        3.4082995767       12.4570765764
  C         8.5025920928        3.0832717235       13.3173730109
  C         6.6751990066        6.8566452386        8.1266263536
  C         3.3065579650       -0.9381703057        8.0246371572
  F         7.7822447138        3.4667678883        3.8593843704
  F         3.0844910729        3.3350254480       12.8975498626
  F         5.6240124244       -1.1188063716        8.2388755896
  F         4.3379182216        7.0941399260        7.8962978146
  H         3.4210410097        4.6214096056        8.6255379467
  H         6.8135178573        1.3653748520        7.7833589679
  H         5.5324261176        3.7987026184        4.4749691884
  H         5.9135297182        4.1877948981        2.0564326624
  H         1.6910910088        3.6834919334        1.3589450592
  H         9.1384965935        2.4407258046       15.3034820350
  H         4.9165886153        2.5411242541       14.5828723023
  H         5.2975921515        3.6327471931       12.4324048775
  N         3.9700243556        4.1740027889        0.1456740707
  N         6.8520081752        1.9300975498       16.4047513480
  O         7.8912344594        4.8588111277        7.9125972441
  O         7.1889345493        5.0830471840       10.8439731035
  O         4.4198530823        1.1206580659        7.8901030164
  O         2.2543525106        2.9792086212        6.3475683850
  O         2.1928690198        1.0999761239        8.3739539112
  O         4.5180137409        3.2337136793        6.3451256584
  O         5.6596439439        4.7488012425        8.3376399535
  O         8.0817341760        3.0832679929       10.2022620736
  O         3.4366877034        3.6476482102        8.6994715890
  O         6.7607133162        2.3428346932        7.7880500944
  O         5.2937492865        2.4821610509       10.0183195121
  C         4.6184893048        1.5326469694       10.8724601158
  H         3.7909994972        0.9683746319       10.4088571960
  H         4.1611276019        2.1593387014       11.6652634210
  H         5.3314638552        0.8740056772       11.4018174980
  H         5.0684243692        3.4040084972       10.3144874338
      50
 i =      147, E =      -412.8879207352
 Al         8.4146092966        3.0163666306        8.3015365131
 Al         5.0184876413        2.9067233288        8.0755869897
  C         6.7468586744        5.3526827421        8.1346709356
  C         7.6066141642        3.9455957333       11.0545308095
  C         3.2968633402        0.5411338638        8.0963213761
  C         3.3584115141        3.2278926021        5.7723538927
  C         3.4276926143        3.5203148803        4.3085510505
  C         4.7110639512        3.7655107438        3.7765902307
  C         4.9306405066        3.9700760364        2.4312635319
  C         3.8486124702        3.9183603330        1.5380479094
  C         2.5483727306        3.7035086433        2.0311295277
  C         2.3543334605        3.5709273481        3.4068968157
  C         8.3100396573        2.6066360480       14.6145977954
  C         6.9911445844        2.3717445544       15.0564827906
  C         5.9155115231        2.7074187480       14.2202039116
  C         6.1578622932        3.2787282266       12.9870182270
  C         7.4560340293        3.4104764312       12.4659936155
  C         8.5038799679        3.1042170020       13.3267518259
  C         6.6676735373        6.8490554067        8.1218650606
  C         3.3039065538       -0.9412759685        8.0399699807
  F         7.7775291505        3.4357268591        3.8465478779
  F         3.0899520384        3.3585670760       12.9144808681
  F         5.6167786202       -1.1224934426        8.2369531186
  F         4.3357930655        7.0765794344        7.8991170180
  H         3.4297667380        4.6176688110        8.6355929196
  H         6.8042512712        1.3719688373        7.7788370386
  H         5.5482652485        3.7877979700        4.4681576160
  H         5.9191097343        4.1967035010        2.0556988315
  H         1.6932816807        3.6771910066        1.3590448352
  H         9.1435853975        2.4385201642       15.2909678033
  H         4.9042741808        2.5612647650       14.5761448758
  H         5.3128429464        3.6534064934       12.4201029138
  N         3.9742088923        4.1818713068        0.1492762899
  N         6.8453350361        1.9462540225       16.3951408042
  O         7.8885215110        4.8508504802        7.9308663780
  O         7.2005477767        5.0961777133       10.8525152880
  O         4.4018920142        1.1197637681        7.8929466366
  O         2.2530366283        2.9747807128        6.3413070485
  O         2.1906208998        1.1014426925        8.3934194489
  O         4.5236399004        3.2357486478        6.3294941954
  O         5.6593711550        4.7281755202        8.3236857159
  O         8.0676394900        3.0895934407       10.1907747826
  O         3.4294116617        3.6474926046        8.7097027821
  O         6.7503019162        2.3477322955        7.7808495157
  O         5.3000238372        2.4710519749       10.0233177879
  C         4.6227476541        1.5253992458       10.8756935427
  H         3.8031403535        0.9685282138       10.4081049166
  H         4.1594258153        2.1437916920       11.6659571987
  H         5.3510236707        0.8710995644       11.3982623004
  H         5.0793722965        3.3881848465       10.3198772481
      50
 i =      148, E =      -412.8885978614
 Al         8.4193671492        3.0193993853        8.2766180766
 Al         5.0096066334        2.9035230794        8.0584763349
  C         6.7347328338        5.3465753257        8.1258452426
  C         7.6147675738        3.9224218717       11.0596629791
  C         3.2925228048        0.5412130915        8.0989283142
  C         3.3655610208        3.2391939048        5.7524940263
  C         3.4281245631        3.5338773950        4.2914348671
  C         4.7210829387        3.7569317921        3.7687251101
  C         4.9313304384        3.9811253287        2.4242379925
  C         3.8432684193        3.9328821469        1.5382489726
  C         2.5465036415        3.7281701934        2.0295610074
  C         2.3476592903        3.5520522511        3.3958986018
  C         8.3090415424        2.5971901914       14.6327607539
  C         6.9986619505        2.3617578893       15.0651883768
  C         5.9163800865        2.7155876048       14.2403201390
  C         6.1669777837        3.2693332530       13.0031206929
  C         7.4678913269        3.4027708307       12.4772974177
  C         8.5048304498        3.0840752531       13.3525989339
  C         6.6646594273        6.8422909529        8.1291768172
  C         3.3059325402       -0.9449709832        8.0413581431
  F         7.7677386887        3.4597838509        3.8404434472
  F         3.1024903167        3.3472142616       12.9707179868
  F         5.6161040695       -1.1340268307        8.2456469270
  F         4.3412743118        7.0570450176        7.9315215504
  H         3.4363850142        4.6260748049        8.6113874321
  H         6.8002027295        1.3827053181        7.7513036958
  H         5.5657832575        3.7764404495        4.4547209105
  H         5.9203519931        4.2025761422        2.0471241885
  H         1.6959280348        3.6881446138        1.3524655484
  H         9.1570661636        2.4147047579       15.2852236223
  H         4.9044271255        2.5617738586       14.5859170491
  H         5.3325661262        3.6462885926       12.4179211026
  N         3.9740151613        4.1898022551        0.1510674052
  N         6.8452102372        1.9464858436       16.4004741876
  O         7.8837306752        4.8477231961        7.9615526434
  O         7.2012146844        5.0818898706       10.8530097863
  O         4.3881441902        1.1274848988        7.8726720142
  O         2.2617879616        2.9761748030        6.3239102777
  O         2.1986091784        1.1108960907        8.3951131882
  O         4.5330689953        3.2395400719        6.2997871168
  O         5.6521824562        4.7142056529        8.3041366210
  O         8.0724169861        3.0751038378       10.1728769107
  O         3.4157124905        3.6564789316        8.6926799795
  O         6.7449844703        2.3492431272        7.7682647714
  O         5.2946869164        2.4687215325       10.0168604966
  C         4.6072740315        1.5394946985       10.8884712135
  H         3.7836707080        0.9990507893       10.4188519980
  H         4.1635114522        2.1570338197       11.6722710296
  H         5.3327969851        0.8760849172       11.3944046023
  H         5.0702584051        3.3856943903       10.3073033131
      50
 i =      149, E =      -412.8907143554
 Al         8.4183511985        3.0228328730        8.2611695388
 Al         5.0143676553        2.9138854838        8.0756693172
  C         6.7359078367        5.3510267447        8.1361444764
  C         7.6150187919        3.9379670861       11.0392465160
  C         3.2860427253        0.5493778953        8.1189054554
  C         3.3747452179        3.2228401753        5.7556162277
  C         3.4396528229        3.5042355826        4.2938883476
  C         4.7288898500        3.7339673547        3.7637083049
  C         4.9333681744        3.9696008330        2.4217490438
  C         3.8420879515        3.9288883444        1.5399631089
  C         2.5492060246        3.6951823139        2.0328793437
  C         2.3581682562        3.5141488785        3.3984347343
  C         8.2882687828        2.6334409715       14.6193067184
  C         6.9818447990        2.4213740690       15.0692140510
  C         5.8966186316        2.7651216651       14.2435680766
  C         6.1409759857        3.3078650265       12.9971704610
  C         7.4405586591        3.4265076695       12.4561346452
  C         8.4781109482        3.1038872675       13.3323752264
  C         6.6654525357        6.8465983782        8.1380197017
  C         3.3072058181       -0.9392536350        8.0636180789
  F         7.7805350315        3.4143140278        3.8498849846
  F         3.0760189701        3.3369994525       12.9248611067
  F         5.6101955246       -1.1176927210        8.2370984720
  F         4.3414682677        7.0637891624        7.9683138062
  H         3.4349784714        4.6277512475        8.6562764361
  H         6.7951019657        1.3837692787        7.7447351777
  H         5.5688509660        3.7490758316        4.4571961517
  H         5.9250665970        4.1945373642        2.0536974759
  H         1.7046167653        3.6560736233        1.3491816284
  H         9.1405173505        2.4542987534       15.2665294959
  H         4.8873260512        2.6217510932       14.5985129234
  H         5.2977446861        3.6839983592       12.4193013961
  N         3.9659705035        4.1899220777        0.1516293050
  N         6.8420718055        1.9965798571       16.4055499454
  O         7.8828607496        4.8526321443        7.9386456580
  O         7.2325096024        5.1069696208       10.8228946314
  O         4.3826044071        1.1425375131        7.8921753347
  O         2.2720398861        2.9485451925        6.3243351060
  O         2.1855952074        1.1142970002        8.3972798159
  O         4.5360611368        3.2386897240        6.3133626130
  O         5.6503333832        4.7235541878        8.3333060806
  O         8.0607120824        3.0835302676       10.1668537608
  O         3.4118745706        3.6497007240        8.7051136158
  O         6.7415699277        2.3524356759        7.7602446226
  O         5.3222470630        2.4752029135       10.0367480502
  C         4.6419719257        1.5173970609       10.8834254319
  H         3.8459907122        0.9559054481       10.3865070209
  H         4.1650064757        2.1038228669       11.6782233197
  H         5.3726271860        0.8644394225       11.3881601544
  H         5.1205243711        3.3936435813       10.3556583797
      50
 i =      150, E =      -412.8919389044
 Al         8.4180718233        3.0263247266        8.2665681194
 Al         5.0169386660        2.9131205281        8.0825309208
  C         6.7376987850        5.3532715521        8.1460856986
  C         7.6229132826        3.9546280461       11.0344962771
  C         3.2769672037        0.5534888672        8.1178616578
  C         3.3764146110        3.2053987682        5.7594837219
  C         3.4476629748        3.4802799772        4.2970159687
  C         4.7294647642        3.7306610922        3.7561959210
  C         4.9342244133        3.9723674019        2.4172742033
  C         3.8446984531        3.9303216419        1.5314236045
  C         2.5537649875        3.6788986434        2.0243245071
  C         2.3726394750        3.5287807693        3.3957198268
  C         8.2862158276        2.6378854956       14.6161577535
  C         6.9756000014        2.4454835722       15.0708364249
  C         5.8990182858        2.7917633158       14.2343632312
  C         6.1439128369        3.3290994480       12.9860461952
  C         7.4455730248        3.4355102375       12.4497232626
  C         8.4777369484        3.1273173697       13.3315981636
  C         6.6655078624        6.8505405024        8.1431915400
  C         3.3002980714       -0.9390584532        8.0746075205
  F         7.7934748534        3.4117559458        3.8384142114
  F         3.0787296523        3.3553265941       12.9368579478
  F         5.6211247164       -1.1333053089        8.2232442864
  F         4.3298089904        7.0662957813        7.9778109496
  H         3.4356661646        4.6185051999        8.6558108129
  H         6.7929655358        1.3797020893        7.7492168556
  H         5.5675961033        3.7277910850        4.4506881514
  H         5.9244438171        4.1984362270        2.0492161786
  H         1.7106177652        3.6541600941        1.3408065296
  H         9.1296077423        2.4464393328       15.2737398292
  H         4.8907185865        2.6580480932       14.5960304377
  H         5.3006444237        3.7116776573       12.4074487688
  N         3.9591218007        4.2104007758        0.1461609141
  N         6.8337062321        1.9970382113       16.4042496504
  O         7.8804232320        4.8541240847        7.9224100842
  O         7.2412447937        5.1112191832       10.8346182570
  O         4.3774492212        1.1439641960        7.8883499498
  O         2.2691329124        2.9475656144        6.3311769102
  O         2.1727657730        1.1132755937        8.4015115379
  O         4.5319021811        3.2359599653        6.3240356989
  O         5.6492112229        4.7252133999        8.3318325406
  O         8.0618363218        3.1008513676       10.1726386840
  O         3.4182118161        3.6442154700        8.6962538541
  O         6.7406633084        2.3532673353        7.7651704612
  O         5.3276435541        2.4674039864       10.0442484228
  C         4.6407993824        1.5077840798       10.8876124648
  H         3.8532662637        0.9410862891       10.3747159571
  H         4.1517512493        2.0850634177       11.6836604764
  H         5.3814672303        0.8537197577       11.3809433652
  H         5.1355976636        3.3794265190       10.3710872371
      50
 i =      151, E =      -412.8934943501
 Al         8.4189351635        3.0302240259        8.2579970775
 Al         5.0126248512        2.9175099014        8.0927041863
  C         6.7388765281        5.3574415449        8.1481927094
  C         7.6202645112        3.9589781849       11.0239465852
  C         3.2762126182        0.5580521150        8.1252329091
  C         3.3792103930        3.1954581092        5.7580836808
  C         3.4502419368        3.4590343744        4.2931278494
  C         4.7339042479        3.7106438317        3.7559686451
  C         4.9409066231        3.9710919587        2.4204823791
  C         3.8522113600        3.9286654334        1.5312896100
  C         2.5617308500        3.6790656889        2.0222496367
  C         2.3752841225        3.5123617192        3.3918710400
  C         8.2816855049        2.6546072670       14.6133912542
  C         6.9668884003        2.4637850340       15.0661260210
  C         5.8916371405        2.8241746097       14.2305834330
  C         6.1427736788        3.3547665841       12.9767363153
  C         7.4475782332        3.4423491450       12.4428319194
  C         8.4769707396        3.1289415738       13.3253706003
  C         6.6655641477        6.8562317164        8.1526607100
  C         3.2957650739       -0.9366086452        8.1017660987
  F         7.7975382051        3.4013117001        3.8403850204
  F         3.0785146424        3.3393683556       12.9278066994
  F         5.6246093727       -1.1263203155        8.2319102004
  F         4.3232627359        7.0660739909        8.0358756652
  H         3.4392435524        4.6229256612        8.6655858382
  H         6.7871210829        1.3864448365        7.7372579778
  H         5.5758557699        3.6977274456        4.4453138682
  H         5.9274400526        4.2057532342        2.0485542463
  H         1.7174576922        3.6473188959        1.3394072340
  H         9.1236922680        2.4415025256       15.2709457543
  H         4.8836618622        2.7046040180       14.5979869377
  H         5.3034048697        3.7274563009       12.3914538235
  N         3.9571363316        4.2335678218        0.1493272681
  N         6.8236999549        2.0214749044       16.3994957639
  O         7.8787753696        4.8555112098        7.9208203253
  O         7.2467695446        5.1209364725       10.8288917775
  O         4.3805868387        1.1427546233        7.8940662826
  O         2.2706316194        2.9378837892        6.3320548176
  O         2.1700775559        1.1188661062        8.3942611245
  O         4.5320560272        3.2294751064        6.3244587670
  O         5.6505450066        4.7276910269        8.3273933420
  O         8.0512450642        3.0936912249       10.1562542398
  O         3.4173119221        3.6485631317        8.6921949881
  O         6.7356555859        2.3609575011        7.7686720937
  O         5.3265125110        2.4658554810       10.0540917494
  C         4.6423634722        1.5071840010       10.8957224484
  H         3.8670685625        0.9356066096       10.3681159978
  H         4.1374513959        2.0748632907       11.6901679753
  H         5.3898111352        0.8492092142       11.3701901769
  H         5.1464028177        3.3734792475       10.3902912978
      50
 i =      152, E =      -412.8955781602
 Al         8.4130024067        3.0353922408        8.2512899681
 Al         5.0003095533        2.9207194375        8.0996401352
  C         6.7393650898        5.3516485263        8.1466998512
  C         7.6201280528        3.9828130010       11.0190965875
  C         3.2678809332        0.5576706677        8.1402190638
  C         3.3911621608        3.1789635027        5.7493191974
  C         3.4618183061        3.4371956597        4.2830097509
  C         4.7473503241        3.6704903304        3.7451967089
  C         4.9496072674        3.9593703431        2.4136543707
  C         3.8568082583        3.9357709364        1.5285996132
  C         2.5698665841        3.6699953354        2.0178144692
  C         2.3846626662        3.4741318064        3.3839793513
  C         8.2645468075        2.6897204667       14.6113750233
  C         6.9490867779        2.5178147329       15.0633262203
  C         5.8776246073        2.8988516789       14.2321288272
  C         6.1368501378        3.4016848579       12.9699316289
  C         7.4461968258        3.4817389318       12.4410675253
  C         8.4702426115        3.1492380524       13.3238428699
  C         6.6565279032        6.8526365622        8.1682510670
  C         3.2847479159       -0.9431778921        8.1227924378
  F         7.8095779599        3.3620966114        3.8430565102
  F         3.0750644310        3.3582483067       12.9378983405
  F         5.6120886755       -1.1166970995        8.2541443114
  F         4.3139255857        7.0450243389        8.0904697109
  H         3.4446741278        4.6208956691        8.6916661493
  H         6.7729322293        1.3891304103        7.7213007493
  H         5.5969819481        3.6514631087        4.4269934962
  H         5.9319922727        4.2147973350        2.0387082990
  H         1.7215958671        3.6315794251        1.3390782515
  H         9.1101941838        2.4529461006       15.2590650821
  H         4.8672957782        2.8107384203       14.6043416693
  H         5.3038250760        3.7821994990       12.3764827032
  N         3.9492373583        4.2564987978        0.1488019516
  N         6.8120901155        2.0660811329       16.3926390514
  O         7.8830202060        4.8561395648        7.9288643014
  O         7.2760861386        5.1671189506       10.8266532794
  O         4.3777831107        1.1356999970        7.9141599132
  O         2.2785382181        2.9396269083        6.3277598099
  O         2.1683537651        1.1285782600        8.3942834546
  O         4.5417030616        3.2313284853        6.3164350373
  O         5.6528970089        4.7197172627        8.3305593648
  O         8.0280272540        3.1052721470       10.1514995730
  O         3.4056224227        3.6465474387        8.6937565618
  O         6.7288750364        2.3551864904        7.7789439369
  O         5.3405857431        2.4651565033       10.0750308722
  C         4.6545014535        1.4824011833       10.9051129521
  H         3.9102131252        0.9061027245       10.3440472264
  H         4.1196917393        2.0170095589       11.7076286120
  H         5.4228057704        0.8288349740       11.3566992907
  H         5.1842202108        3.3618082982       10.4384031283
      50
 i =      153, E =      -412.8967161404
 Al         8.4111537516        3.0372758805        8.2480483697
 Al         5.0002824337        2.9234881522        8.0962964019
  C         6.7393694721        5.3511309783        8.1557247763
  C         7.6196365268        3.9689479794       11.0224388974
  C         3.2693469380        0.5552063786        8.1472661879
  C         3.4016975056        3.1892194160        5.7455054175
  C         3.4778352607        3.4346014067        4.2777191142
  C         4.7617261715        3.6592775158        3.7333175517
  C         4.9516416613        3.9553512063        2.4025451917
  C         3.8527998384        3.9491127079        1.5265068497
  C         2.5686947167        3.6769810970        2.0171762282
  C         2.3993784672        3.4673400934        3.3816714305
  C         8.2578959191        2.6806910422       14.6104525355
  C         6.9431039772        2.5314383048       15.0685277832
  C         5.8719478285        2.9163987475       14.2411573524
  C         6.1322539549        3.3991660781       12.9745119121
  C         7.4401241590        3.4713568037       12.4431848291
  C         8.4674840059        3.1473285558       13.3246408180
  C         6.6565569342        6.8488284039        8.1822410119
  C         3.2855461658       -0.9463042895        8.1348818507
  F         7.8325741131        3.3660974813        3.8566232767
  F         3.0646895497        3.3422769999       12.9230769737
  F         5.6101379196       -1.1250254240        8.2353602611
  F         4.3069134812        7.0514034189        8.1053206791
  H         3.4429863300        4.6259254573        8.6978530420
  H         6.7785224763        1.3870496840        7.7077438453
  H         5.6125768968        3.6319189507        4.4137140027
  H         5.9337829305        4.2165114509        2.0273734184
  H         1.7200536409        3.6410395147        1.3388670633
  H         9.0979594260        2.4479305523       15.2589396470
  H         4.8587679995        2.8480540742       14.6137185172
  H         5.2981366575        3.7803244084       12.3803024664
  N         3.9453379348        4.2688529357        0.1496368906
  N         6.8100065011        2.0800205593       16.3931530910
  O         7.8823681431        4.8563652504        7.9384972850
  O         7.2697246034        5.1488615077       10.8167714117
  O         4.3804402179        1.1316331492        7.9216927120
  O         2.2900117072        2.9471727865        6.3238986933
  O         2.1737186826        1.1337197411        8.3969248463
  O         4.5536751963        3.2351477350        6.3105812565
  O         5.6525198964        4.7170536624        8.3337859799
  O         8.0358204471        3.0961475888       10.1622562028
  O         3.3990112742        3.6504689982        8.6888944628
  O         6.7291088919        2.3626267343        7.7633313402
  O         5.3341812204        2.4726560253       10.0773277294
  C         4.6451509636        1.4922826402       10.9136056074
  H         3.9096390478        0.9386865136       10.3449887189
  H         4.1251850574        2.0152784126       11.7128857213
  H         5.4086838991        0.8301544717       11.3541690665
  H         5.1900707232        3.3657576995       10.4481853607
      50
 i =      154, E =      -412.8971095433
 Al         8.4152740060        3.0347449408        8.2511085726
 Al         5.0093978139        2.9273619914        8.1018556393
  C         6.7385815275        5.3529343000        8.1584259003
  C         7.6118021545        3.9719942920       11.0187706251
  C         3.2791699188        0.5521069172        8.1471413381
  C         3.4057250059        3.1975896110        5.7468852193
  C         3.4813173253        3.4352030936        4.2768823653
  C         4.7635896621        3.6686386826        3.7284020193
  C         4.9488654207        3.9557312600        2.3959021082
  C         3.8468858439        3.9427541795        1.5247319434
  C         2.5649996448        3.6732532954        2.0212399400
  C         2.3968072747        3.4820982909        3.3885068093
  C         8.2580117741        2.6812370989       14.6110053599
  C         6.9460352940        2.5268095479       15.0756303866
  C         5.8730062965        2.9107569328       14.2504002278
  C         6.1255802033        3.4011812649       12.9838273472
  C         7.4257036772        3.4717132578       12.4420085460
  C         8.4573316799        3.1442331224       13.3212183434
  C         6.6651241415        6.8483746178        8.1773022039
  C         3.2956768823       -0.9467890383        8.1285067569
  F         7.8216177687        3.3765924941        3.8429390431
  F         3.0523062026        3.3346349385       12.9140101273
  F         5.6143371235       -1.1210149722        8.2285574150
  F         4.3164697142        7.0571791511        8.0640043113
  H         3.4349723048        4.6296337938        8.7018217805
  H         6.7858762050        1.3871666458        7.7073644045
  H         5.6133847864        3.6383340023        4.4093028591
  H         5.9315467050        4.2038100306        2.0191779845
  H         1.7164605179        3.6477684014        1.3429706092
  H         9.0953257496        2.4561992598       15.2626015231
  H         4.8608485923        2.8460215297       14.6250955205
  H         5.2850547043        3.7668793978       12.3954489278
  N         3.9458652935        4.2689401945        0.1499930302
  N         6.8161262720        2.0778622357       16.3985317511
  O         7.8772555036        4.8542713795        7.9180489415
  O         7.2620069478        5.1451214129       10.8090117467
  O         4.3915022755        1.1308290196        7.9339522576
  O         2.2959272893        2.9516689711        6.3192502570
  O         2.1812461839        1.1277694758        8.3957572488
  O         4.5544017113        3.2323579806        6.3211249265
  O         5.6498594064        4.7233134634        8.3447175963
  O         8.0331467757        3.0938339009       10.1629592779
  O         3.3994021039        3.6532988764        8.6866378491
  O         6.7374737212        2.3594009635        7.7664015350
  O         5.3280553892        2.4809183779       10.0780971199
  C         4.6452995624        1.4935774653       10.9139029479
  H         3.9086846210        0.9315117385       10.3439463446
  H         4.1273531968        2.0132590467       11.7128990850
  H         5.4025449861        0.8340525615       11.3616071047
  H         5.1875346969        3.3739704544       10.4522792739
      50
 i =      155, E =      -412.8977499537
 Al         8.4156932032        3.0365183934        8.2480768505
 Al         5.0094824640        2.9343020439        8.1118318529
  C         6.7378584743        5.3558430565        8.1647682697
  C         7.6117493097        3.9863767582       11.0100119117
  C         3.2798733072        0.5542529645        8.1562545940
  C         3.4132075601        3.1828059600        5.7466068024
  C         3.4913627760        3.4159789363        4.2749414837
  C         4.7727279986        3.6504005807        3.7236695289
  C         4.9549276946        3.9534125385        2.3927551890
  C         3.8501953488        3.9444439200        1.5229216987
  C         2.5708677771        3.6677211196        2.0226660639
  C         2.4048581791        3.4756991974        3.3907535846
  C         8.2495429641        2.6929591762       14.6064428137
  C         6.9357394082        2.5535543917       15.0743918810
  C         5.8643034006        2.9518207767       14.2511572948
  C         6.1196035736        3.4277434938       12.9786276579
  C         7.4173501123        3.4829933818       12.4324937736
  C         8.4439857345        3.1526375232       13.3149847205
  C         6.6638916211        6.8510484248        8.1820123207
  C         3.2921647852       -0.9451779950        8.1505210210
  F         7.8317869406        3.3501569397        3.8459097795
  F         3.0429782475        3.3406784936       12.9227053865
  F         5.6174206458       -1.1210475104        8.2379087152
  F         4.3173094363        7.0468159486        8.1040525788
  H         3.4315139261        4.6313501965        8.7215072365
  H         6.7810701255        1.3941440548        7.6920064764
  H         5.6252123334        3.6093868232        4.4005174601
  H         5.9353063721        4.2031798645        2.0148511069
  H         1.7201371939        3.6494333061        1.3472543626
  H         9.0843726175        2.4560839370       15.2592844017
  H         4.8524920397        2.9051332625       14.6296523037
  H         5.2818767079        3.7943500930       12.3867489557
  N         3.9411015260        4.2905942201        0.1509365234
  N         6.8085594708        2.1011180464       16.3969043470
  O         7.8738534771        4.8549100650        7.9139671712
  O         7.2685074869        5.1554100815       10.8013147266
  O         4.3915668870        1.1348762307        7.9447401363
  O         2.3033065193        2.9429361159        6.3173408371
  O         2.1781972190        1.1296107808        8.3946701695
  O         4.5566607425        3.2272807147        6.3288229258
  O         5.6492630065        4.7281856671        8.3534375147
  O         8.0259806823        3.1051981965       10.1563149290
  O         3.3992282665        3.6560862149        8.6892800615
  O         6.7367132700        2.3625371706        7.7727591129
  O         5.3275821911        2.4805885728       10.0890698677
  C         4.6487009979        1.4847770649       10.9205706630
  H         3.9273938339        0.9153573031       10.3316862331
  H         4.1126965934        1.9906448180       11.7208881360
  H         5.4118631479        0.8244188886       11.3518840674
  H         5.2021873963        3.3678689615       10.4795044169
      50
 i =      156, E =      -412.8982156943
 Al         8.4141632383        3.0352213008        8.2572921378
 Al         5.0066802673        2.9332043241        8.1016891097
  C         6.7361175797        5.3519240270        8.1659185601
  C         7.6144075144        3.9798173265       11.0164455726
  C         3.2815759384        0.5557559893        8.1487097955
  C         3.4132421089        3.1814628235        5.7461457559
  C         3.4887206157        3.4273690420        4.2761560678
  C         4.7718572957        3.6537418889        3.7251648146
  C         4.9589229777        3.9520827315        2.3933736362
  C         3.8536966544        3.9537705014        1.5241675910
  C         2.5713759538        3.6848719059        2.0216966347
  C         2.4032875387        3.4835571402        3.3889234804
  C         8.2504929499        2.6836728122       14.6096809375
  C         6.9356720344        2.5474369214       15.0742622904
  C         5.8669086307        2.9468966447       14.2505534586
  C         6.1258773374        3.4206216226       12.9791100474
  C         7.4257474795        3.4789637152       12.4381051668
  C         8.4513646909        3.1458231916       13.3217933117
  C         6.6597160792        6.8467320718        8.1752920640
  C         3.2943271038       -0.9416693078        8.1420074641
  F         7.8332438541        3.3631615312        3.8529323809
  F         3.0530796331        3.3533954606       12.9481252638
  F         5.6141344900       -1.1248383627        8.2441468747
  F         4.3224162482        7.0510185764        8.0936471873
  H         3.4282275603        4.6293496023        8.7136777767
  H         6.7831900865        1.3943401019        7.6909874417
  H         5.6301735592        3.6119861223        4.3938200941
  H         5.9359860292        4.2038084832        2.0068977366
  H         1.7154950670        3.6662491588        1.3523257542
  H         9.0856634945        2.4395051110       15.2627912356
  H         4.8573212826        2.9037689203       14.6319629236
  H         5.2888266612        3.7968031707       12.3877863174
  N         3.9361837427        4.2933505263        0.1531316267
  N         6.8011765832        2.0845911205       16.3953402742
  O         7.8751476097        4.8543469981        7.9362288063
  O         7.2621640995        5.1489541774       10.8023547547
  O         4.3886526413        1.1358579383        7.9202305070
  O         2.3047717027        2.9487121707        6.3203783882
  O         2.1783453457        1.1275707373        8.3962861645
  O         4.5599913242        3.2305855298        6.3218746076
  O         5.6499903482        4.7231801065        8.3651377421
  O         8.0354825378        3.1024231183       10.1643683294
  O         3.3988525577        3.6567031238        8.6904964479
  O         6.7381509484        2.3646932352        7.7733953804
  O         5.3188794562        2.4765618360       10.0812946863
  C         4.6402602588        1.4871367038       10.9221313273
  H         3.9140557725        0.9240459086       10.3386455820
  H         4.1108502416        1.9993474384       11.7186457339
  H         5.4040519983        0.8252814247       11.3495364375
  H         5.1887769212        3.3619624584       10.4679740302
      50
 i =      157, E =      -412.8987234936
 Al         8.4113765853        3.0334835281        8.2642703196
 Al         5.0056880255        2.9361198249        8.1044632826
  C         6.7378627533        5.3506891201        8.1713831951
  C         7.6035870546        3.9848802601       11.0098270382
  C         3.2829641445        0.5522398455        8.1555405655
  C         3.4194422581        3.1776651220        5.7496302670
  C         3.4917885040        3.4235904278        4.2781458735
  C         4.7757138165        3.6399909112        3.7233793854
  C         4.9631366701        3.9411431221        2.3911885703
  C         3.8555623214        3.9520439536        1.5252964083
  C         2.5732228889        3.6880680211        2.0239663681
  C         2.4045093620        3.4683963954        3.3891039360
  C         8.2374034333        2.7017962546       14.6058121295
  C         6.9234622975        2.5767059387       15.0763066505
  C         5.8552334278        2.9801814828       14.2559587998
  C         6.1116737688        3.4422846075       12.9798887478
  C         7.4111682842        3.4965448386       12.4360552078
  C         8.4407365574        3.1614228323       13.3161288190
  C         6.6586660067        6.8456505545        8.1822954281
  C         3.2911119079       -0.9446083118        8.1327562346
  F         7.8304367992        3.3716319807        3.8512012552
  F         3.0351450862        3.3581284986       12.9195620731
  F         5.6144283814       -1.1333872173        8.2333881223
  F         4.3187177060        7.0513530799        8.0823176356
  H         3.4226890889        4.6280895818        8.7386491659
  H         6.7857835761        1.3955958304        7.6900995819
  H         5.6399716418        3.6008729731        4.3851566367
  H         5.9379129401        4.1939204592        1.9962641783
  H         1.7134240348        3.6639780810        1.3586835231
  H         9.0760554969        2.4533259644       15.2532054131
  H         4.8490401671        2.9456976505       14.6458729365
  H         5.2678851781        3.8224227813       12.3946187435
  N         3.9285255356        4.3013156050        0.1563448643
  N         6.7920408085        2.1011138290       16.3944941730
  O         7.8769706067        4.8555007566        7.9312513162
  O         7.2694164968        5.1696237128       10.7789518737
  O         4.3893643143        1.1345928414        7.9307478181
  O         2.3137111798        2.9413046351        6.3270760392
  O         2.1791261644        1.1251945768        8.4004962248
  O         4.5700372889        3.2361143629        6.3191389304
  O         5.6566474997        4.7168737831        8.4027520125
  O         8.0237935976        3.0968541154       10.1662305052
  O         3.3949034843        3.6545015209        8.6962615718
  O         6.7407243921        2.3694698887        7.7706938441
  O         5.3204774977        2.4793724705       10.0862929214
  C         4.6559594405        1.4742574685       10.9187014456
  H         3.9446844771        0.9003909978       10.3256026723
  H         4.1083541829        1.9686825683       11.7158794704
  H         5.4291835576        0.8215075680       11.3460735067
  H         5.2038201875        3.3608073384       10.4883385915
      50
 i =      158, E =      -412.8995390943
 Al         8.4120857885        3.0353211642        8.2624169913
 Al         5.0070819424        2.9351286903        8.1048377053
  C         6.7378584873        5.3513036691        8.1794817788
  C         7.6075968727        3.9883289791       11.0090309746
  C         3.2801285067        0.5510200632        8.1498475829
  C         3.4171962373        3.1841204616        5.7485164300
  C         3.4960729934        3.4166089562        4.2752341969
  C         4.7790401567        3.6385154374        3.7190834968
  C         4.9590695204        3.9391045754        2.3862394576
  C         3.8485823164        3.9604642855        1.5248569656
  C         2.5701008950        3.6892732360        2.0282113219
  C         2.4050030318        3.4744319876        3.3929763591
  C         8.2347756147        2.6949015757       14.6049199578
  C         6.9215379557        2.5739203056       15.0754373759
  C         5.8542400154        2.9843185064       14.2573077950
  C         6.1140939853        3.4536342520       12.9809285764
  C         7.4148755202        3.4987990920       12.4364778299
  C         8.4432003433        3.1618123722       13.3165017294
  C         6.6612597740        6.8481194569        8.1891428152
  C         3.2899499893       -0.9472943478        8.1385538532
  F         7.8262629342        3.3682204845        3.8445180110
  F         3.0420809546        3.3416692926       12.9280805273
  F         5.6119732911       -1.1196496392        8.2322118150
  F         4.3132385797        7.0539306686        8.0926038294
  H         3.4212287257        4.6301920933        8.7366695779
  H         6.7833999142        1.3982426298        7.6777891635
  H         5.6404682396        3.5921343510        4.3855623124
  H         5.9384293702        4.1918895357        1.9995441980
  H         1.7129989773        3.6771138292        1.3606033329
  H         9.0727840461        2.4471209160       15.2510489872
  H         4.8457251647        2.9619846973       14.6453474563
  H         5.2745174894        3.8254166067       12.3928471183
  N         3.9291965517        4.3074407221        0.1550735896
  N         6.7945185405        2.1110978230       16.3953776018
  O         7.8745816780        4.8558678508        7.9197554369
  O         7.2683758584        5.1618642546       10.7778706746
  O         4.3868647636        1.1331430466        7.9306070991
  O         2.3105849865        2.9398316396        6.3194960806
  O         2.1792925550        1.1291041307        8.4007790080
  O         4.5663106557        3.2370162279        6.3213065253
  O         5.6575795477        4.7168260656        8.3993899780
  O         8.0303548608        3.0982163956       10.1666302320
  O         3.3959638725        3.6567772606        8.6941050391
  O         6.7418743319        2.3678095826        7.7724102805
  O         5.3156903414        2.4754243554       10.0870069335
  C         4.6518247484        1.4728162337       10.9238956041
  H         3.9419095246        0.9018387320       10.3287413348
  H         4.1039428970        1.9672448739       11.7206549024
  H         5.4245833717        0.8152528797       11.3422578510
  H         5.2006929705        3.3559311530       10.4918357589
      50
 i =      159, E =      -412.8996937252
 Al         8.4127238798        3.0320037501        8.2656344298
 Al         5.0112191232        2.9354278632        8.1073877592
  C         6.7395292180        5.3498444047        8.1832490250
  C         7.6119726744        3.9939367450       11.0097273813
  C         3.2807994104        0.5517891111        8.1467685079
  C         3.4156903858        3.1854257690        5.7489097854
  C         3.4960537356        3.4175430452        4.2760127105
  C         4.7780445123        3.6386829327        3.7180081382
  C         4.9548188399        3.9429172747        2.3855027053
  C         3.8435199849        3.9592355782        1.5243569519
  C         2.5653775992        3.6948425955        2.0308333205
  C         2.4049322800        3.4866240963        3.3960720275
  C         8.2363765881        2.6939275412       14.6039664462
  C         6.9229084764        2.5699757433       15.0726780895
  C         5.8550516297        2.9894733467       14.2582451914
  C         6.1157171387        3.4613466140       12.9828337433
  C         7.4163863463        3.5047338994       12.4377247024
  C         8.4437409393        3.1637895242       13.3172797877
  C         6.6609196788        6.8470066228        8.1849915950
  C         3.2909824579       -0.9472211105        8.1336967571
  F         7.8299199743        3.3671336445        3.8546445873
  F         3.0439765178        3.3425359378       12.9321143448
  F         5.6161798843       -1.1270873192        8.2444848816
  F         4.3197566675        7.0420347821        8.0791257768
  H         3.4202348357        4.6273161891        8.7350643907
  H         6.7842468082        1.3973442987        7.6734095850
  H         5.6377246462        3.5915313693        4.3865692216
  H         5.9366009112        4.1837411351        2.0010750417
  H         1.7092721481        3.6925146592        1.3627164968
  H         9.0721094716        2.4407710826       15.2517461640
  H         4.8454981766        2.9691720784       14.6438561652
  H         5.2788487226        3.8349007741       12.3935824025
  N         3.9269220075        4.3128288476        0.1546092135
  N         6.7928537043        2.1119830874       16.3937035175
  O         7.8743891425        4.8522614425        7.9208249274
  O         7.2669277696        5.1614265247       10.7819386760
  O         4.3872374261        1.1350793484        7.9260214325
  O         2.3054192751        2.9484883320        6.3147160453
  O         2.1788831006        1.1256080332        8.3975034224
  O         4.5619850583        3.2349233165        6.3284417225
  O         5.6601928964        4.7164171771        8.4022750028
  O         8.0345973697        3.1041398421       10.1649597575
  O         3.3988020694        3.6540588493        8.6952910512
  O         6.7437044844        2.3660639658        7.7717743664
  O         5.3121785535        2.4710954921       10.0870637448
  C         4.6502900189        1.4668484905       10.9251554391
  H         3.9398835647        0.8930516086       10.3289218154
  H         4.0991324622        1.9631645940       11.7221421910
  H         5.4233885778        0.8101155480       11.3413492090
  H         5.1967454463        3.3494842622       10.4943164526
      50
 i =      160, E =      -412.9000451379
 Al         8.4120332934        3.0307109254        8.2685139395
 Al         5.0109198169        2.9362046555        8.1099618754
  C         6.7412875715        5.3489180320        8.1868520893
  C         7.6133117679        3.9959263991       11.0070964462
  C         3.2789578378        0.5531271674        8.1476159377
  C         3.4172151635        3.1793283003        5.7494881216
  C         3.4943496630        3.4145680313        4.2767198912
  C         4.7770828483        3.6321862074        3.7184592664
  C         4.9567815415        3.9396789795        2.3865016806
  C         3.8453474641        3.9652378021        1.5253047654
  C         2.5660268948        3.7013572490        2.0296579017
  C         2.4054000636        3.4865633919        3.3938477051
  C         8.2326750114        2.6988870869       14.6028674022
  C         6.9180055482        2.5832300367       15.0724646831
  C         5.8528254618        3.0087713669       14.2576005477
  C         6.1146399247        3.4736947232       12.9807161621
  C         7.4155415579        3.5130581122       12.4361231565
  C         8.4405449499        3.1636239766       13.3167287202
  C         6.6597076955        6.8464104577        8.1861868977
  C         3.2910184029       -0.9455087890        8.1363867823
  F         7.8299806137        3.3700058312        3.8511409289
  F         3.0403784035        3.3522107346       12.9311184488
  F         5.6135759796       -1.1238782065        8.2356680150
  F         4.3163297639        7.0515040357        8.0897775374
  H         3.4202515618        4.6251341384        8.7400464857
  H         6.7848979147        1.4000713709        7.6659744939
  H         5.6392324794        3.5810847928        4.3833933359
  H         5.9370905862        4.1788924052        1.9987331977
  H         1.7072958731        3.7026459140        1.3653801397
  H         9.0672522720        2.4348829901       15.2493233290
  H         4.8438644510        2.9925713928       14.6446035048
  H         5.2792963737        3.8555972464       12.3902071932
  N         3.9217231457        4.3231683602        0.1560981439
  N         6.7856527706        2.1184713021       16.3929427269
  O         7.8761279182        4.8523940123        7.9296483789
  O         7.2691235158        5.1643859234       10.7776816266
  O         4.3855314473        1.1361908348        7.9267132211
  O         2.3064549684        2.9478204062        6.3181427156
  O         2.1749937233        1.1239750557        8.3955486902
  O         4.5630180746        3.2342250619        6.3298869062
  O         5.6618478729        4.7156429938        8.4054318876
  O         8.0344240830        3.1062305943       10.1627074502
  O         3.3999381360        3.6517703705        8.6967230219
  O         6.7420884945        2.3671191238        7.7745975121
  O         5.3097513201        2.4655596815       10.0892052266
  C         4.6527589880        1.4602330715       10.9273266733
  H         3.9477561952        0.8840100346       10.3264408444
  H         4.0931726822        1.9525088486       11.7229861919
  H         5.4305540441        0.8058728517       11.3363887756
  H         5.1990242972        3.3408300325       10.5025973867
      50
 i =      161, E =      -412.9002449637
 Al         8.4106870088        3.0316209682        8.2722059522
 Al         5.0116270731        2.9365356774        8.1098767926
  C         6.7427117039        5.3480523288        8.1853514108
  C         7.6113402978        3.9944863567       11.0065398605
  C         3.2780777944        0.5530461185        8.1456741010
  C         3.4179576885        3.1793319005        5.7498149486
  C         3.4912273394        3.4148328537        4.2765752314
  C         4.7746504121        3.6270778499        3.7176409056
  C         4.9568868592        3.9326687416        2.3857290628
  C         3.8445985446        3.9741557016        1.5263986015
  C         2.5646881127        3.7127660780        2.0300449486
  C         2.4022614108        3.4845949180        3.3922908988
  C         8.2256067003        2.7006058617       14.6017737390
  C         6.9116327134        2.6005167088       15.0755351676
  C         5.8500404339        3.0298749440       14.2604797067
  C         6.1118485506        3.4891885994       12.9822136037
  C         7.4143016491        3.5166683027       12.4379896386
  C         8.4392015102        3.1694841921       13.3165706096
  C         6.6586067912        6.8466268553        8.1901364703
  C         3.2897698642       -0.9462819374        8.1356174828
  F         7.8248834381        3.3676633850        3.8457089636
  F         3.0422314242        3.3389639094       12.9291562060
  F         5.6121865711       -1.1235579280        8.2373091719
  F         4.3143055455        7.0511878245        8.0898156034
  H         3.4196539477        4.6246278126        8.7439980393
  H         6.7862046046        1.4003549393        7.6575170479
  H         5.6396451935        3.5709708347        4.3785981162
  H         5.9362595581        4.1690947381        1.9934508964
  H         1.7027759271        3.7169027703        1.3693381477
  H         9.0613950659        2.4329333674       15.2436120892
  H         4.8425097617        3.0187157887       14.6507310946
  H         5.2755122367        3.8763092743       12.3939528968
  N         3.9157380047        4.3328576632        0.1575865919
  N         6.7797951377        2.1269883823       16.3948853099
  O         7.8793857390        4.8560680993        7.9303101679
  O         7.2737077908        5.1703121964       10.7670358669
  O         4.3852135385        1.1359101131        7.9284391505
  O         2.3092807197        2.9413260571        6.3205001538
  O         2.1752339879        1.1252951859        8.3960356755
  O         4.5673586277        3.2354681712        6.3241086207
  O         5.6635077353        4.7147148122        8.4041679526
  O         8.0342038439        3.1013524081       10.1669263180
  O         3.3993929759        3.6506672967        8.6945769792
  O         6.7423003875        2.3692049009        7.7709643759
  O         5.3074106291        2.4623044474       10.0907374716
  C         4.6579843508        1.4519532664       10.9299630409
  H         3.9592267074        0.8724076803       10.3250088359
  H         4.0906651367        1.9372227950       11.7257572174
  H         5.4400616836        0.7995388301       11.3324148478
  H         5.2013283275        3.3355907575       10.5127192403
      50
 i =      162, E =      -412.9004998246
 Al         8.4115263255        3.0297736335        8.2758175546
 Al         5.0122241960        2.9341984448        8.1088572325
  C         6.7430197257        5.3481708540        8.1842994925
  C         7.6143300732        3.9975842375       11.0088905754
  C         3.2768919168        0.5507969357        8.1439705776
  C         3.4166376692        3.1825818982        5.7495903697
  C         3.4915954677        3.4182101414        4.2766619043
  C         4.7738736050        3.6268729127        3.7154419987
  C         4.9535162089        3.9307662419        2.3832858401
  C         3.8395122818        3.9776602065        1.5267389024
  C         2.5599851335        3.7228724847        2.0335122491
  C         2.4013523967        3.4884299162        3.3948215382
  C         8.2234860458        2.7018430117       14.6018739589
  C         6.9090310637        2.6025100238       15.0742886209
  C         5.8483296729        3.0392876938       14.2611751266
  C         6.1122171395        3.5017448778       12.9838725376
  C         7.4151579393        3.5224966201       12.4392929251
  C         8.4379797199        3.1723785652       13.3183187690
  C         6.6616151218        6.8475755910        8.1884742303
  C         3.2903741704       -0.9490937035        8.1294103159
  F         7.8252367275        3.3711815247        3.8504170089
  F         3.0398543067        3.3450710479       12.9281644507
  F         5.6137261958       -1.1187728827        8.2352893910
  F         4.3164981185        7.0459151621        8.0854063373
  H         3.4202188511        4.6222973487        8.7447930310
  H         6.7871207537        1.4005150444        7.6519724128
  H         5.6373116847        3.5677672054        4.3781142586
  H         5.9353936893        4.1605517586        1.9928039444
  H         1.6982320161        3.7328921662        1.3722399602
  H         9.0585265485        2.4278239561       15.2421710398
  H         4.8406232983        3.0332346335       14.6515440437
  H         5.2781846316        3.8907140832       12.3959605568
  N         3.9141207241        4.3385196088        0.1577706454
  N         6.7787874693        2.1324708283       16.3938576355
  O         7.8792845411        4.8545725828        7.9281027651
  O         7.2749053936        5.1691194141       10.7663959958
  O         4.3843818404        1.1337332872        7.9279603266
  O         2.3088380104        2.9420144032        6.3199914559
  O         2.1749414162        1.1231078816        8.3987532827
  O         4.5668231734        3.2361106623        6.3230334640
  O         5.6640222736        4.7128025315        8.4004108486
  O         8.0370917992        3.1016648179       10.1690717969
  O         3.4012101693        3.6477465759        8.6969802370
  O         6.7431948141        2.3665641387        7.7734261715
  O         5.3059005283        2.4580567772       10.0907763645
  C         4.6597705629        1.4444115203       10.9304413988
  H         3.9636222888        0.8676395465       10.3251462689
  H         4.0915080377        1.9272017691       11.7270982749
  H         5.4441941260        0.7931823021       11.3310038386
  H         5.2021525032        3.3288592514       10.5176114598
      50
 i =      163, E =      -412.9006501813
 Al         8.4148733086        3.0258096858        8.2779844539
 Al         5.0148409507        2.9325819507        8.1119182780
  C         6.7430966961        5.3463036009        8.1806217230
  C         7.6201011760        4.0054210719       11.0091147758
  C         3.2769655598        0.5494405711        8.1438568952
  C         3.4149238814        3.1820518903        5.7489574099
  C         3.4891894523        3.4208317752        4.2759989941
  C         4.7705188837        3.6241921528        3.7124946399
  C         4.9474161140        3.9292996492        2.3802799222
  C         3.8327753244        3.9840057885        1.5251867745
  C         2.5536384178        3.7377078861        2.0356855608
  C         2.3987006388        3.4985933244        3.3962330301
  C         8.2228234440        2.7057479205       14.6021347393
  C         6.9071319559        2.6087883328       15.0728971327
  C         5.8471402179        3.0595997196       14.2638241392
  C         6.1145738288        3.5237514587       12.9868576851
  C         7.4163610857        3.5387231988       12.4404064872
  C         8.4367171738        3.1760510926       13.3199059969
  C         6.6591653242        6.8452207850        8.1813471824
  C         3.2891682939       -0.9503070708        8.1250664320
  F         7.8254405122        3.3679018359        3.8515383215
  F         3.0419297404        3.3449771612       12.9323589492
  F         5.6140861453       -1.1271821740        8.2341923951
  F         4.3127851177        7.0500814682        8.0794394052
  H         3.4232155645        4.6171204889        8.7444979582
  H         6.7898416286        1.4010915156        7.6437831854
  H         5.6318843666        3.5607250933        4.3769974543
  H         5.9324728348        4.1451073800        1.9908076788
  H         1.6916884822        3.7597577691        1.3751196363
  H         9.0542090237        2.4187555908       15.2420963463
  H         4.8386794743        3.0598730237       14.6541620384
  H         5.2844434383        3.9205108257       12.3976913639
  N         3.9122759154        4.3513102240        0.1569734461
  N         6.7768812400        2.1411322775       16.3916408599
  O         7.8786246320        4.8501860323        7.9263862009
  O         7.2793762800        5.1722211646       10.7691811950
  O         4.3827900464        1.1350016691        7.9246391551
  O         2.3054041848        2.9450542923        6.3174935856
  O         2.1735996240        1.1177477000        8.3983552856
  O         4.5637582022        3.2337218465        6.3247424262
  O         5.6623677005        4.7133480413        8.3975551317
  O         8.0392499620        3.1060093821       10.1669844562
  O         3.4055072960        3.6429468234        8.6974598029
  O         6.7428685107        2.3648703603        7.7758042798
  O         5.3039038568        2.4504545427       10.0940023213
  C         4.6636593085        1.4311353419       10.9339294550
  H         3.9718299358        0.8508528041       10.3245107547
  H         4.0889459333        1.9089850803       11.7321698646
  H         5.4538247089        0.7818901368       11.3289813910
  H         5.2044143738        3.3165804675       10.5298505280
      50
 i =      164, E =      -412.9008277009
 Al         8.4165011490        3.0253577210        8.2795928291
 Al         5.0172563456        2.9312990492        8.1122769961
  C         6.7429662616        5.3457002757        8.1786207112
  C         7.6220775149        4.0053059712       11.0095904857
  C         3.2778320866        0.5495499454        8.1437609887
  C         3.4147788288        3.1813390477        5.7477412255
  C         3.4871355110        3.4209343716        4.2745532679
  C         4.7683778066        3.6217297263        3.7103340845
  C         4.9459869579        3.9271601147        2.3782951660
  C         3.8297973317        3.9922472919        1.5259113714
  C         2.5496622886        3.7490541730        2.0362743321
  C         2.3962582329        3.5065502740        3.3963086953
  C         8.2204130816        2.7060421160       14.6009229243
  C         6.9046853596        2.6202230823       15.0744528316
  C         5.8462825044        3.0770629520       14.2670804265
  C         6.1137299481        3.5371132375       12.9893846009
  C         7.4151479443        3.5408557359       12.4409480755
  C         8.4348941575        3.1795058282       13.3193940331
  C         6.6595701332        6.8440002549        8.1761589307
  C         3.2911141238       -0.9498978265        8.1268245848
  F         7.8247917714        3.3726268743        3.8523137677
  F         3.0402752084        3.3446396817       12.9296477917
  F         5.6131904738       -1.1246211832        8.2401544041
  F         4.3168931570        7.0465992739        8.0867330490
  H         3.4253026895        4.6148737259        8.7446197841
  H         6.7915419798        1.4012170859        7.6356146935
  H         5.6298811317        3.5535499229        4.3740184432
  H         5.9316751914        4.1326289762        1.9863109687
  H         1.6859471375        3.7816607001        1.3785102771
  H         9.0491805394        2.4135834590       15.2405083487
  H         4.8376056389        3.0837557430       14.6579203309
  H         5.2853643860        3.9415372433       12.4008089213
  N         3.9081928712        4.3608144829        0.1583943102
  N         6.7729353673        2.1468217526       16.3919921406
  O         7.8795342143        4.8506601289        7.9275673055
  O         7.2823381964        5.1726998035       10.7652807279
  O         4.3844074046        1.1342579683        7.9246735775
  O         2.3062247206        2.9449876005        6.3181404517
  O         2.1738040771        1.1166288259        8.3981891378
  O         4.5628860607        3.2344631861        6.3242599783
  O         5.6611167312        4.7137333284        8.3970323896
  O         8.0407532132        3.1075334466       10.1690613835
  O         3.4080398310        3.6402289134        8.6956805099
  O         6.7438990044        2.3654783640        7.7740438146
  O         5.3020444746        2.4467237095       10.0951954764
  C         4.6677312211        1.4234678584       10.9360100120
  H         3.9802245624        0.8410245025       10.3230995191
  H         4.0894798982        1.8961311549       11.7342629096
  H         5.4602756267        0.7774775666       11.3269046603
  H         5.2069655739        3.3096552731       10.5388067129
      50
 i =      165, E =      -412.9009682666
 Al         8.4169213102        3.0254078592        8.2813534598
 Al         5.0168131447        2.9291669239        8.1117619757
  C         6.7439932325        5.3467007686        8.1755909500
  C         7.6225051411        4.0068769087       11.0098719115
  C         3.2788258741        0.5475119610        8.1432009237
  C         3.4134067888        3.1821200513        5.7482097763
  C         3.4830114013        3.4237787347        4.2745986229
  C         4.7644093878        3.6202400799        3.7101767191
  C         4.9445501465        3.9228004070        2.3778925597
  C         3.8285121929        4.0003273694        1.5263878463
  C         2.5467996236        3.7648655402        2.0368497100
  C         2.3926984862        3.5100761963        3.3954060680
  C         8.2169260322        2.7094672130       14.6004373737
  C         6.9019555815        2.6303912001       15.0763606858
  C         5.8464990903        3.0939004096       14.2689091282
  C         6.1146748483        3.5523815393       12.9909359122
  C         7.4167157412        3.5441976735       12.4421147648
  C         8.4359699892        3.1823993331       13.3191434560
  C         6.6621421592        6.8448387811        8.1740672013
  C         3.2915313915       -0.9516663802        8.1253805849
  F         7.8223132313        3.3694136305        3.8506185247
  F         3.0424032499        3.3442255540       12.9305426462
  F         5.6140503279       -1.1223699580        8.2337764254
  F         4.3177981031        7.0437278786        8.0864655137
  H         3.4294646695        4.6114298972        8.7457393320
  H         6.7922196580        1.4016576570        7.6291863246
  H         5.6271495574        3.5484384633        4.3714281566
  H         5.9299737163        4.1201389633        1.9813487778
  H         1.6803384630        3.8041046432        1.3827554481
  H         9.0452130458        2.4098850075       15.2374703552
  H         4.8387690151        3.1067732423       14.6615999616
  H         5.2881932944        3.9628700739       12.4041891783
  N         3.9034114801        4.3696412914        0.1592773681
  N         6.7688011002        2.1503224547       16.3930163271
  O         7.8818165867        4.8526387143        7.9282090987
  O         7.2867903365        5.1778616529       10.7619237678
  O         4.3862340482        1.1316064099        7.9276395336
  O         2.3064555395        2.9420910414        6.3196660066
  O         2.1752489555        1.1157076191        8.3978569731
  O         4.5634088413        3.2329285203        6.3205587020
  O         5.6632171959        4.7123624455        8.3960153897
  O         8.0394137959        3.1067966029       10.1706791664
  O         3.4089680154        3.6367865707        8.6967635909
  O         6.7439714424        2.3649448631        7.7745545984
  O         5.3008283722        2.4423632673       10.0961491361
  C         4.6747279605        1.4137879057       10.9367094211
  H         3.9913242696        0.8279636712       10.3224151275
  H         4.0924106287        1.8810386820       11.7355703364
  H         5.4717987181        0.7722373292       11.3256775453
  H         5.2095022142        3.3016413322       10.5471729745
      50
 i =      166, E =      -412.9010850051
 Al         8.4183616808        3.0239755867        8.2807146667
 Al         5.0170323718        2.9264233020        8.1107949551
  C         6.7454271519        5.3471343266        8.1730142742
  C         7.6245949670        4.0090518288       11.0094307048
  C         3.2803307184        0.5455187900        8.1434158803
  C         3.4124635605        3.1814510772        5.7486363495
  C         3.4800829276        3.4273697112        4.2747841006
  C         4.7608866691        3.6193500212        3.7087538142
  C         4.9411193274        3.9167503188        2.3755243194
  C         3.8250212667        4.0098087618        1.5257375931
  C         2.5425977092        3.7835424505        2.0385875433
  C         2.3898978699        3.5167971997        3.3956435444
  C         8.2142491411        2.7123287237       14.6012550978
  C         6.8986113538        2.6421173050       15.0773233174
  C         5.8453518376        3.1127390295       14.2720032452
  C         6.1155471368        3.5681639790       12.9934742285
  C         7.4161580567        3.5521760612       12.4425075648
  C         8.4337569549        3.1832837231       13.3195697159
  C         6.6633912765        6.8446436963        8.1740678451
  C         3.2915838028       -0.9524414215        8.1238814886
  F         7.8215895371        3.3703975652        3.8505037951
  F         3.0382063702        3.3411540760       12.9271641388
  F         5.6131605688       -1.1198901682        8.2376916888
  F         4.3141460376        7.0503260967        8.0826043681
  H         3.4349710121        4.6061193679        8.7481991131
  H         6.7946928564        1.4023409760        7.6215009238
  H         5.6242090622        3.5427472203        4.3681567015
  H         5.9272467845        4.1040472262        1.9749304193
  H         1.6743092470        3.8334789569        1.3874111595
  H         9.0413524922        2.4061952203       15.2355038694
  H         4.8391833706        3.1356214953       14.6681627186
  H         5.2913693710        3.9871212965       12.4103548262
  N         3.8997731002        4.3831743147        0.1596454663
  N         6.7657044346        2.1578033574       16.3923449553
  O         7.8836486676        4.8527567905        7.9270946323
  O         7.2927630097        5.1803070092       10.7564777643
  O         4.3866147333        1.1309545066        7.9278031198
  O         2.3061993498        2.9399719343        6.3209664345
  O         2.1763324061        1.1133151755        8.3992614953
  O         4.5630705852        3.2345924200        6.3191354230
  O         5.6657997940        4.7116954417        8.3973545450
  O         8.0404026208        3.1036336762       10.1732669858
  O         3.4096433932        3.6316268061        8.6986781108
  O         6.7440532128        2.3653250990        7.7729373939
  O         5.3001867986        2.4370009023       10.0975643536
  C         4.6850265695        1.4025752541       10.9378250687
  H         4.0068806739        0.8141018491       10.3231771895
  H         4.1005153246        1.8617978468       11.7372304626
  H         5.4875407170        0.7665658459       11.3259199232
  H         5.2139525868        3.2924553194       10.5579626685
      50
 i =      167, E =      -412.9012998697
 Al         8.4203699447        3.0221108254        8.2786056242
 Al         5.0180610673        2.9229237849        8.1108755753
  C         6.7458856764        5.3450869872        8.1715552898
  C         7.6291043108        4.0153066618       11.0078713963
  C         3.2813584879        0.5443527047        8.1442804582
  C         3.4102687662        3.1808941393        5.7484304583
  C         3.4775518757        3.4304820093        4.2739093370
  C         4.7576541761        3.6158341320        3.7053800379
  C         4.9364601310        3.9126657939        2.3713005761
  C         3.8186428939        4.0199684556        1.5257339338
  C         2.5357106217        3.8060498398        2.0418275223
  C         2.3864415018        3.5260082660        3.3967602713
  C         8.2125906629        2.7148619881       14.6008405166
  C         6.8969569950        2.6536089747       15.0775629308
  C         5.8458126650        3.1383685823       14.2759121633
  C         6.1192266842        3.5899743445       12.9961990845
  C         7.4187563103        3.5626351723       12.4424429594
  C         8.4352479763        3.1892311835       13.3193411832
  C         6.6628029984        6.8416776566        8.1744311324
  C         3.2925040342       -0.9525423470        8.1229511278
  F         7.8200802439        3.3727972265        3.8501536089
  F         3.0404463223        3.3413387269       12.9283701728
  F         5.6114976380       -1.1252838600        8.2345938635
  F         4.3156008631        7.0492850229        8.0854278171
  H         3.4428674801        4.5977218418        8.7484389632
  H         6.7953125973        1.4036484196        7.6120890856
  H         5.6203389724        3.5354566972        4.3650213749
  H         5.9250275976        4.0841674859        1.9686683390
  H         1.6672092784        3.8721552160        1.3921254240
  H         9.0379018813        2.4016177825       15.2329655795
  H         4.8411126893        3.1731627497       14.6750639202
  H         5.2997433093        4.0211712097       12.4149961583
  N         3.8965579210        4.4031446482        0.1613780365
  N         6.7628458821        2.1701497668       16.3911343457
  O         7.8843375530        4.8503978617        7.9249013462
  O         7.3033008529        5.1879593034       10.7539883198
  O         4.3856219321        1.1321413401        7.9246789725
  O         2.3040204801        2.9393854271        6.3216667451
  O         2.1764902214        1.1103693852        8.3998525234
  O         4.5599735391        3.2337167704        6.3197999510
  O         5.6657284189        4.7118203414        8.3972486387
  O         8.0396940929        3.1043250747       10.1734132472
  O         3.4117025971        3.6237898573        8.6996606124
  O         6.7442283181        2.3644630062        7.7725646807
  O         5.3012868515        2.4287454739       10.0998440165
  C         4.6997556933        1.3855906594       10.9385906867
  H         4.0278343409        0.7892359731       10.3222114048
  H         4.1099307177        1.8352708602       11.7398756623
  H         5.5104110961        0.7574278090       11.3255728119
  H         5.2208077754        3.2783220783       10.5724442635
      50
 i =      168, E =      -412.9015364663
 Al         8.4218206254        3.0204355865        8.2731211529
 Al         5.0185903985        2.9164928043        8.1113294942
  C         6.7450082492        5.3435529565        8.1741060894
  C         7.6351400513        4.0259118400       11.0030938932
  C         3.2819385481        0.5415492455        8.1449665393
  C         3.4087916691        3.1815950017        5.7485501077
  C         3.4755358379        3.4308230519        4.2726447568
  C         4.7551501963        3.6092096656        3.7016362994
  C         4.9315915874        3.9066289992        2.3666240052
  C         3.8119760464        4.0394050568        1.5266008645
  C         2.5287226379        3.8334031513        2.0465153463
  C         2.3832064203        3.5397224981        3.3986921673
  C         8.2117788319        2.7216664511       14.5981983809
  C         6.8970431697        2.6723531834       15.0789500789
  C         5.8501113998        3.1701950135       14.2798973800
  C         6.1248214816        3.6191488654       12.9979792963
  C         7.4229004770        3.5774355564       12.4403570755
  C         8.4388691528        3.1938443744       13.3160322868
  C         6.6655340017        6.8399669147        8.1730080172
  C         3.2940699487       -0.9544417669        8.1265315831
  F         7.8200583247        3.3707878380        3.8523521885
  F         3.0449749868        3.3436827919       12.9299394229
  F         5.6145090825       -1.1270154346        8.2365721773
  F         4.3159217498        7.0477782094        8.0862859377
  H         3.4524567364        4.5851816266        8.7477386484
  H         6.7943197409        1.4043770388        7.6020282905
  H         5.6174628975        3.5249642346        4.3612892809
  H         5.9220649993        4.0590935273        1.9612775456
  H         1.6598133306        3.9257470352        1.4002561429
  H         9.0346837425        2.3964451750       15.2298215327
  H         4.8467231954        3.2263471181       14.6830977492
  H         5.3126869099        4.0662977188       12.4180462467
  N         3.8892695156        4.4322163540        0.1644681134
  N         6.7568131340        2.1854074273       16.3907354019
  O         7.8825642344        4.8473146037        7.9258218164
  O         7.3187839365        5.2007991418       10.7517157130
  O         4.3865665379        1.1296814339        7.9254569828
  O         2.3014318489        2.9414067924        6.3215491147
  O         2.1760054180        1.1062625033        8.3984892508
  O         4.5576986422        3.2294612692        6.3212262931
  O         5.6644482113        4.7106958683        8.3972231541
  O         8.0352143627        3.1108562512       10.1696891865
  O         3.4142558458        3.6112557767        8.7006751870
  O         6.7445107560        2.3636560415        7.7718965797
  O         5.3035050354        2.4157645855       10.1024343195
  C         4.7230359722        1.3606178426       10.9373731303
  H         4.0598272145        0.7501706011       10.3194431240
  H         4.1250568334        1.7974951234       11.7409245150
  H         5.5452280005        0.7471097927       11.3252433458
  H         5.2312041763        3.2560033364       10.5912638912
      50
 i =      169, E =      -412.9017327451
 Al         8.4199284500        3.0205407976        8.2676395183
 Al         5.0169080624        2.9133125766        8.1098561938
  C         6.7450358305        5.3412044442        8.1789122239
  C         7.6378767809        4.0347155299       10.9991536277
  C         3.2815909359        0.5410966096        8.1461482461
  C         3.4101060652        3.1810216254        5.7477448925
  C         3.4763496249        3.4294005601        4.2718701526
  C         4.7561262926        3.6054876589        3.6996822818
  C         4.9314202203        3.9051221896        2.3645029723
  C         3.8111308950        4.0491862514        1.5275346273
  C         2.5283891511        3.8489157194        2.0498038171
  C         2.3831751582        3.5456826304        3.3994891642
  C         8.2129444685        2.7225704676       14.5976774053
  C         6.8979391939        2.6803294257       15.0792695695
  C         5.8539986364        3.1869954865       14.2804778984
  C         6.1290079672        3.6297032615       12.9967080511
  C         7.4258737240        3.5822856242       12.4375787745
  C         8.4393305243        3.1960806572       13.3153806769
  C         6.6644191982        6.8383708490        8.1784984201
  C         3.2941900846       -0.9550616271        8.1294169971
  F         7.8196841404        3.3701917766        3.8521624761
  F         3.0427762207        3.3424242936       12.9298104474
  F         5.6127883552       -1.1273194087        8.2351765129
  F         4.3168858524        7.0450640066        8.0864404288
  H         3.4542208230        4.5792033675        8.7479921355
  H         6.7925786047        1.4030603651        7.5998240287
  H         5.6201853175        3.5186786387        4.3572543465
  H         5.9209344414        4.0502192292        1.9569600019
  H         1.6588180863        3.9523260234        1.4071740283
  H         9.0368141979        2.3974458548       15.2283092151
  H         4.8532834908        3.2516741962       14.6866422094
  H         5.3212284478        4.0817195317       12.4177691353
  N         3.8858808279        4.4506310587        0.1672023799
  N         6.7543301923        2.1951123512       16.3910020175
  O         7.8828894117        4.8472551226        7.9264256208
  O         7.3286675069        5.2120082140       10.7502143768
  O         4.3870600753        1.1278958064        7.9239120860
  O         2.3010918441        2.9450274773        6.3205182021
  O         2.1749113533        1.1047404136        8.3964911892
  O         4.5591293944        3.2315204890        6.3210220016
  O         5.6638956304        4.7096511287        8.3981627730
  O         8.0317676457        3.1154398134       10.1685322086
  O         3.4124360649        3.6062464928        8.7012389125
  O         6.7444450124        2.3615056653        7.7719791909
  O         5.3052799858        2.4087898431       10.1022295727
  C         4.7393208325        1.3466944373       10.9342774739
  H         4.0807537093        0.7280504595       10.3195504260
  H         4.1390156650        1.7767642833       11.7393625600
  H         5.5681619388        0.7438566444       11.3261656306
  H         5.2359473066        3.2440034242       10.5985871980
      50
 i =      170, E =      -412.9018978817
 Al         8.4154375750        3.0212534092        8.2641392831
 Al         5.0147518847        2.9124040624        8.1089905137
  C         6.7445942202        5.3403544112        8.1858698807
  C         7.6391606019        4.0467174133       10.9967606034
  C         3.2799960937        0.5401955060        8.1448207116
  C         3.4114989089        3.1818702813        5.7467875498
  C         3.4800672931        3.4266022363        4.2714312924
  C         4.7599574557        3.6013575601        3.6973758246
  C         4.9352808466        3.9044494977        2.3627129395
  C         3.8133140325        4.0608497731        1.5303833399
  C         2.5308849279        3.8615458847        2.0529417343
  C         2.3865823108        3.5457914013        3.3994328772
  C         8.2147623940        2.7228131663       14.5940976091
  C         6.8993140186        2.6891754991       15.0785219930
  C         5.8588813262        3.1963925448       14.2782087386
  C         6.1333552929        3.6334355506       12.9925541574
  C         7.4300788892        3.5864398581       12.4355784649
  C         8.4437698326        3.1979649460       13.3119580666
  C         6.6629266055        6.8390965265        8.1853393435
  C         3.2926914685       -0.9561743960        8.1328933699
  F         7.8211023187        3.3750912111        3.8521699250
  F         3.0466258748        3.3423674523       12.9299145303
  F         5.6131244683       -1.1248548086        8.2361666527
  F         4.3150368909        7.0459074836        8.0855989740
  H         3.4492099348        4.5792564775        8.7474868925
  H         6.7899628846        1.3999383214        7.6022117064
  H         5.6266084071        3.5105679018        4.3519250867
  H         5.9230630675        4.0512939399        1.9545757063
  H         1.6602077877        3.9698225553        1.4146658404
  H         9.0403958043        2.4005398427       15.2255180339
  H         4.8606665732        3.2680449459       14.6869339147
  H         5.3281129886        4.0878498207       12.4131403621
  N         3.8864332580        4.4688246362        0.1717391429
  N         6.7543103546        2.2031506245       16.3909140154
  O         7.8812530890        4.8474166930        7.9267423404
  O         7.3381159410        5.2280364948       10.7513226394
  O         4.3860042952        1.1272338986        7.9236923873
  O         2.3030992893        2.9442361759        6.3211489176
  O         2.1732508541        1.1036335795        8.3951841233
  O         4.5609019460        3.2319173088        6.3209767808
  O         5.6631183710        4.7087609774        8.4018459937
  O         8.0264304006        3.1214149555       10.1684712532
  O         3.4098543985        3.6068329762        8.7012745689
  O         6.7439326508        2.3591254404        7.7714573101
  O         5.3065235816        2.4028227262       10.1006475172
  C         4.7557708072        1.3340046106       10.9291284173
  H         4.1010868217        0.7063204327       10.3207971637
  H         4.1533831078        1.7599799618       11.7363008121
  H         5.5908263313        0.7421743364       11.3268633987
  H         5.2379357912        3.2333928525       10.6021987939
      50
 i =      171, E =      -412.9019926664
 Al         8.4145827170        3.0232794132        8.2631331533
 Al         5.0155975146        2.9161433269        8.1089137356
  C         6.7447601665        5.3423139436        8.1878752494
  C         7.6373755646        4.0406984444       10.9964743224
  C         3.2796495652        0.5416419641        8.1465642473
  C         3.4157058982        3.1802486181        5.7447046721
  C         3.4846622715        3.4272189862        4.2716150595
  C         4.7655299722        3.5996528726        3.6969821054
  C         4.9405161845        3.9102490286        2.3641183259
  C         3.8179575988        4.0646216304        1.5326912217
  C         2.5363668742        3.8597103597        2.0544218046
  C         2.3902903202        3.5436172380        3.4001091011
  C         8.2155727128        2.7196390544       14.5922848054
  C         6.9004648216        2.6828591298       15.0777491180
  C         5.8593853448        3.1840825472       14.2760866547
  C         6.1325159771        3.6198382201       12.9897278730
  C         7.4291461855        3.5806855683       12.4349831236
  C         8.4431029513        3.1905683199       13.3103425209
  C         6.6627905289        6.8413807864        8.1905375176
  C         3.2929253242       -0.9554818585        8.1344902442
  F         7.8213435759        3.3714195842        3.8500402254
  F         3.0435158967        3.3411228150       12.9249217604
  F         5.6157119629       -1.1238395525        8.2372062113
  F         4.3165825091        7.0451667104        8.0859134806
  H         3.4383315365        4.5896498379        8.7463397857
  H         6.7905481289        1.3997282289        7.6046137027
  H         5.6343451168        3.5067808611        4.3489421687
  H         5.9272392742        4.0646073316        1.9564703739
  H         1.6651054190        3.9629541710        1.4168945352
  H         9.0432984173        2.3998679746       15.2239158294
  H         4.8607315438        3.2523752483       14.6827233451
  H         5.3245306462        4.0646501059       12.4082216931
  N         3.8914045685        4.4711133571        0.1742121186
  N         6.7584661195        2.2025911371       16.3920993058
  O         7.8810115645        4.8497799554        7.9290714945
  O         7.3315051476        5.2194814523       10.7515107493
  O         4.3847759015        1.1294392781        7.9215039749
  O         2.3075760231        2.9431807429        6.3194977213
  O         2.1732321103        1.1054705559        8.3951984752
  O         4.5647465134        3.2341176232        6.3202836796
  O         5.6633702204        4.7091884594        8.4027058005
  O         8.0279394727        3.1205025195       10.1682184409
  O         3.4090960579        3.6169753101        8.6984460171
  O         6.7451357728        2.3587921224        7.7722157350
  O         5.3019175855        2.4051616242       10.0962128400
  C         4.7536541951        1.3406545090       10.9262325319
  H         4.0969158288        0.7174216263       10.3250584692
  H         4.1596077789        1.7712704290       11.7318874546
  H         5.5835265250        0.7484730058       11.3272105263
  H         5.2322195986        3.2361200038       10.5938927242
      50
 i =      172, E =      -412.9021392383
 Al         8.4155507972        3.0221131298        8.2642138484
 Al         5.0172064520        2.9175664846        8.1106165049
  C         6.7451857383        5.3424433901        8.1843433445
  C         7.6405320674        4.0446542546       10.9978036917
  C         3.2785962024        0.5421784642        8.1456677382
  C         3.4170249149        3.1783595761        5.7442983691
  C         3.4850810398        3.4244246611        4.2711680694
  C         4.7656479809        3.5973719084        3.6955121478
  C         4.9398383017        3.9105498074        2.3637377328
  C         3.8176970068        4.0735408886        1.5320834615
  C         2.5360343297        3.8686179314        2.0550207518
  C         2.3909552077        3.5478960376        3.4000410724
  C         8.2139630858        2.7223860984       14.5915504344
  C         6.8987602414        2.6909382101       15.0776572901
  C         5.8574729540        3.1978407655       14.2780487547
  C         6.1315391881        3.6325993285       12.9910518190
  C         7.4280639125        3.5885518291       12.4354710708
  C         8.4398623297        3.1955093938       13.3110720450
  C         6.6610190834        6.8407737285        8.1880124454
  C         3.2925606929       -0.9550791494        8.1321615029
  F         7.8233898944        3.3709689890        3.8524310426
  F         3.0423373348        3.3404057096       12.9259317027
  F         5.6127075429       -1.1220452811        8.2367470609
  F         4.3166823322        7.0468958045        8.0861636793
  H         3.4345553428        4.5904297335        8.7475225938
  H         6.7924531820        1.3996278627        7.6019221341
  H         5.6351759749        3.4955353904        4.3450815433
  H         5.9278975204        4.0609556286        1.9546043820
  H         1.6628720931        3.9776109830        1.4190910211
  H         9.0408106191        2.3976509817       15.2209137695
  H         4.8576764166        3.2692539477       14.6840309309
  H         5.3227872540        4.0780225474       12.4086553583
  N         3.8906578890        4.4824189491        0.1742513789
  N         6.7583666700        2.2106267550       16.3923097205
  O         7.8812588655        4.8494451582        7.9261969663
  O         7.3371012603        5.2249533594       10.7514966119
  O         4.3838790683        1.1303806201        7.9252486346
  O         2.3084709118        2.9404305449        6.3171868942
  O         2.1718532624        1.1034589392        8.3973712406
  O         4.5660127012        3.2338350058        6.3192298075
  O         5.6636018984        4.7088172885        8.4006016269
  O         8.0284312596        3.1206040152       10.1685212355
  O         3.4098655748        3.6168491945        8.6975740856
  O         6.7449271904        2.3600830661        7.7706294737
  O         5.3013028076        2.4013151235       10.0972918883
  C         4.7607446262        1.3301816800       10.9268576702
  H         4.1085416022        0.6997028488       10.3237157855
  H         4.1617095275        1.7566416097       11.7345623106
  H         5.5936127535        0.7414936346       11.3257320117
  H         5.2344101188        3.2294562721       10.6029400730
      50
 i =      173, E =      -412.9022411716
 Al         8.4162096335        3.0210413475        8.2679266357
 Al         5.0174382460        2.9193206590        8.1115186957
  C         6.7454475962        5.3433533765        8.1801133353
  C         7.6440116672        4.0458433345       11.0005830375
  C         3.2776217231        0.5413911057        8.1454988764
  C         3.4160977436        3.1770044436        5.7444266628
  C         3.4850299269        3.4235169215        4.2706648831
  C         4.7656584246        3.5962526073        3.6946690383
  C         4.9398348471        3.9156202587        2.3643384510
  C         3.8177609853        4.0800092106        1.5332091470
  C         2.5351885344        3.8796428748        2.0563587409
  C         2.3907405240        3.5522554951        3.4003696295
  C         8.2136228003        2.7232370436       14.5899273201
  C         6.8986584911        2.6958440439       15.0763822467
  C         5.8567159082        3.2045584106       14.2779290973
  C         6.1319409043        3.6396375018       12.9913955873
  C         7.4293815805        3.5912693795       12.4361191236
  C         8.4406971668        3.2002215288       13.3111387186
  C         6.6613001023        6.8406766656        8.1818488781
  C         3.2910522068       -0.9562537609        8.1291047466
  F         7.8227618208        3.3734594902        3.8507095043
  F         3.0457842020        3.3420852679       12.9270053372
  F         5.6134526205       -1.1230859965        8.2374565124
  F         4.3143239776        7.0473362717        8.0848928079
  H         3.4324835568        4.5898892834        8.7472683397
  H         6.7942003623        1.4009170321        7.6025961616
  H         5.6345555530        3.4873901042        4.3434557209
  H         5.9294815587        4.0602702540        1.9545314635
  H         1.6620367907        3.9912810156        1.4196412680
  H         9.0385299860        2.3943447401       15.2182400823
  H         4.8561106913        3.2740782041       14.6827623026
  H         5.3216419805        4.0854415175       12.4080631137
  N         3.8909961348        4.4896203085        0.1757867045
  N         6.7584914605        2.2149305860       16.3918069859
  O         7.8820679089        4.8498216015        7.9253899865
  O         7.3403375812        5.2261476728       10.7541340929
  O         4.3814597190        1.1315614102        7.9254216441
  O         2.3074798762        2.9412161765        6.3186576409
  O         2.1704530547        1.1016185350        8.3989327046
  O         4.5644768680        3.2334048236        6.3191423847
  O         5.6644293757        4.7088715226        8.4006780082
  O         8.0304742188        3.1216421181       10.1706883684
  O         3.4103039712        3.6156584955        8.6986925666
  O         6.7441108259        2.3611187655        7.7722221099
  O         5.2999106172        2.3968413672       10.0963564324
  C         4.7673886076        1.3217080834       10.9261635369
  H         4.1172867821        0.6848103215       10.3248557187
  H         4.1665488625        1.7472597093       11.7351116106
  H         5.6030979072        0.7364656620       11.3254003280
  H         5.2337955465        3.2225283169       10.6071146854
      50
 i =      174, E =      -412.9023267267
 Al         8.4163326135        3.0210795410        8.2689116269
 Al         5.0164577145        2.9225176537        8.1128250573
  C         6.7448995694        5.3435441252        8.1779448233
  C         7.6446654709        4.0456371270       11.0022840604
  C         3.2779208537        0.5426005323        8.1454056411
  C         3.4164406509        3.1766961576        5.7444637962
  C         3.4872745490        3.4214689678        4.2699057618
  C         4.7682587287        3.5954511319        3.6945670373
  C         4.9426020661        3.9221522666        2.3661874178
  C         3.8205647969        4.0861579732        1.5356822036
  C         2.5378002091        3.8811331598        2.0572893799
  C         2.3925982998        3.5525032736        3.4007496031
  C         8.2141273051        2.7238481862       14.5899927687
  C         6.9003434244        2.6955958298       15.0764918702
  C         5.8577778638        3.1970569681       14.2760978881
  C         6.1323170050        3.6337292128       12.9900272545
  C         7.4302202184        3.5908242546       12.4362373856
  C         8.4415755758        3.1989720131       13.3113917821
  C         6.6610526643        6.8398986706        8.1788356728
  C         3.2914099365       -0.9554669616        8.1294256300
  F         7.8242071300        3.3735007344        3.8515268349
  F         3.0471956490        3.3417358262       12.9272198964
  F         5.6127326845       -1.1246556305        8.2360391161
  F         4.3151407265        7.0471321757        8.0851656211
  H         3.4281051706        4.5940532417        8.7454871518
  H         6.7939250589        1.4024923235        7.6080869731
  H         5.6368312330        3.4815443246        4.3424717593
  H         5.9319164193        4.0711691246        1.9571398458
  H         1.6667323083        3.9914880041        1.4180918973
  H         9.0396175451        2.3947286193       15.2165772665
  H         4.8563458544        3.2616062038       14.6797700773
  H         5.3190930129        4.0720140047       12.4042888486
  N         3.8946339581        4.4926733645        0.1784138087
  N         6.7615786841        2.2148635674       16.3927653668
  O         7.8816028621        4.8495243873        7.9244916789
  O         7.3400488302        5.2265518575       10.7593704076
  O         4.3817849643        1.1317272151        7.9250444649
  O         2.3073880755        2.9416658640        6.3182479485
  O         2.1704123992        1.1020982837        8.3984515733
  O         4.5638368665        3.2313550058        6.3198269227
  O         5.6640662573        4.7091070054        8.3994075955
  O         8.0302414552        3.1217668744       10.1700313084
  O         3.4081765239        3.6193290623        8.6979649118
  O         6.7434590383        2.3629411577        7.7726119611
  O         5.2977398933        2.3971792242       10.0941789552
  C         4.7716848249        1.3205935514       10.9245056966
  H         4.1210152459        0.6776315935       10.3283371214
  H         4.1736698580        1.7487260324       11.7344554863
  H         5.6076686185        0.7364595338       11.3270222248
  H         5.2300394960        3.2220856380       10.6051606321
      50
 i =      175, E =      -412.9023906376
 Al         8.4170788075        3.0219073777        8.2683333418
 Al         5.0159974910        2.9242533482        8.1134005325
  C         6.7438134272        5.3441146792        8.1772892725
  C         7.6477853964        4.0463282601       11.0047871109
  C         3.2774832293        0.5430854695        8.1466260468
  C         3.4176427086        3.1744520106        5.7444216896
  C         3.4885864761        3.4198192643        4.2692046761
  C         4.7704532903        3.5927025052        3.6949129965
  C         4.9453505762        3.9265586665        2.3683245385
  C         3.8233663124        4.0941844890        1.5382920021
  C         2.5404648924        3.8876138713        2.0586426720
  C         2.3938391756        3.5527770165        3.4005426454
  C         8.2141351460        2.7267338746       14.5905333343
  C         6.9010455967        2.6967130266       15.0766146074
  C         5.8575601944        3.1962731309       14.2752412831
  C         6.1317746027        3.6318259135       12.9888874356
  C         7.4306241043        3.5898559546       12.4365893326
  C         8.4420503284        3.2001344192       13.3116963470
  C         6.6621555418        6.8401955277        8.1793488484
  C         3.2915850371       -0.9552188611        8.1300345944
  F         7.8248185081        3.3718325287        3.8502031495
  F         3.0467481812        3.3423328828       12.9268227269
  F         5.6134728791       -1.1255012753        8.2364173556
  F         4.3152740588        7.0463562226        8.0865553724
  H         3.4253651147        4.5963198876        8.7457757713
  H         6.7924571072        1.4035251043        7.6120803654
  H         5.6397507035        3.4723454781        4.3407380511
  H         5.9336595845        4.0807688466        1.9593633390
  H         1.6711298861        3.9995487543        1.4181292579
  H         9.0394238119        2.3946790308       15.2160203161
  H         4.8554653029        3.2585547720       14.6780500988
  H         5.3167908004        4.0631519150       12.4013807810
  N         3.8962404949        4.5040940772        0.1816878104
  N         6.7630392194        2.2206636527       16.3938690754
  O         7.8808113683        4.8499319391        7.9253782724
  O         7.3441112440        5.2279331801       10.7644525365
  O         4.3810176527        1.1314391857        7.9240584914
  O         2.3077352647        2.9400946445        6.3168019637
  O         2.1697036856        1.1033861120        8.3987348132
  O         4.5639360600        3.2322230001        6.3214000075
  O         5.6634852283        4.7100657329        8.4004656643
  O         8.0307075978        3.1237436840       10.1709621062
  O         3.4066862768        3.6215976278        8.6982691446
  O         6.7437178892        2.3642347112        7.7719258440
  O         5.2972862553        2.3953072899       10.0926551546
  C         4.7820078914        1.3152213100       10.9231954440
  H         4.1336562496        0.6656148413       10.3324339565
  H         4.1869636877        1.7425009561       11.7345554318
  H         5.6205205393        0.7359918761       11.3291861610
  H         5.2297615237        3.2182227874       10.6074857079
      50
 i =      176, E =      -412.9024373714
 Al         8.4176913817        3.0225733477        8.2697723102
 Al         5.0155525380        2.9255751299        8.1134915801
  C         6.7444468503        5.3443986984        8.1784810225
  C         7.6479592805        4.0444575258       11.0057884757
  C         3.2789439882        0.5435772236        8.1464357909
  C         3.4173241053        3.1741343746        5.7449957931
  C         3.4880691603        3.4189561703        4.2692133154
  C         4.7705380822        3.5917877045        3.6963230591
  C         4.9465276266        3.9291461196        2.3706463243
  C         3.8240790816        4.0976477893        1.5412438683
  C         2.5408227044        3.8890776094        2.0598176257
  C         2.3928005402        3.5539318050        3.4013501777
  C         8.2152439435        2.7260481363       14.5927409897
  C         6.9012656108        2.6975668937       15.0773622459
  C         5.8564466947        3.1924300802       14.2749717998
  C         6.1310580807        3.6250079497       12.9882824329
  C         7.4304409873        3.5864747991       12.4368752859
  C         8.4421285487        3.1996074394       13.3129912821
  C         6.6630605419        6.8407636186        8.1794480550
  C         3.2923512885       -0.9543395799        8.1300645350
  F         7.8236963544        3.3722231184        3.8508589092
  F         3.0457985172        3.3411043295       12.9269885153
  F         5.6132151350       -1.1244866080        8.2356138832
  F         4.3158980861        7.0467312186        8.0860323819
  H         3.4267614430        4.5974956030        8.7457998156
  H         6.7911923787        1.4041214900        7.6150405764
  H         5.6394144470        3.4697580096        4.3425066755
  H         5.9345931779        4.0869127724        1.9630391912
  H         1.6730661662        4.0033668715        1.4177014554
  H         9.0399531859        2.3949597341       15.2186815812
  H         4.8541209962        3.2513459777       14.6775232436
  H         5.3150435862        4.0551786593       12.3995048210
  N         3.8970013061        4.5095681294        0.1849544112
  N         6.7631348113        2.2211841130       16.3945129634
  O         7.8814384756        4.8497978748        7.9265452101
  O         7.3436519382        5.2259224432       10.7674638795
  O         4.3833040277        1.1306818039        7.9246899959
  O         2.3077460367        2.9411719138        6.3181264373
  O         2.1715396834        1.1058850424        8.3985714525
  O         4.5642004887        3.2316879749        6.3211640803
  O         5.6640601779        4.7109110896        8.4013262776
  O         8.0304598030        3.1245623790       10.1703936806
  O         3.4065970660        3.6232735581        8.6981115927
  O         6.7442034657        2.3649445563        7.7726744444
  O         5.2953748668        2.3959748144       10.0911615005
  C         4.7866702849        1.3148325452       10.9230570864
  H         4.1389382437        0.6625640774       10.3362008901
  H         4.1947133429        1.7429174640       11.7345610608
  H         5.6264127524        0.7380216064       11.3307073157
  H         5.2279411862        3.2177848449       10.6073730039
      50
 i =      177, E =      -412.9025009806
 Al         8.4184769632        3.0237649007        8.2707228505
 Al         5.0153940599        2.9254809517        8.1133730074
  C         6.7450956227        5.3445694174        8.1802523758
  C         7.6478299133        4.0440563642       11.0063415817
  C         3.2802456340        0.5445585525        8.1469881094
  C         3.4165419156        3.1731380396        5.7461496985
  C         3.4872161718        3.4161533891        4.2698447629
  C         4.7692994508        3.5894405251        3.6975328244
  C         4.9460452963        3.9296920098        2.3726148506
  C         3.8231761038        4.1006403363        1.5440432779
  C         2.5399810064        3.8902783351        2.0602335761
  C         2.3927663899        3.5529829217        3.4011116232
  C         8.2135621847        2.7308288168       14.5963807455
  C         6.8995473253        2.7027142745       15.0813349058
  C         5.8543042538        3.1933477275       14.2764703811
  C         6.1280542500        3.6242180665       12.9888290398
  C         7.4283951377        3.5852244901       12.4378212816
  C         8.4411769201        3.1993061879       13.3143686746
  C         6.6633680782        6.8420394580        8.1813262407
  C         3.2926704064       -0.9528399866        8.1316277342
  F         7.8243602447        3.3720326670        3.8500234323
  F         3.0436770491        3.3412144984       12.9263319996
  F         5.6128536197       -1.1236851111        8.2365776278
  F         4.3160742940        7.0465179266        8.0857272666
  H         3.4317384536        4.5974956721        8.7484347367
  H         6.7896533409        1.4042910093        7.6164927059
  H         5.6367901892        3.4665079291        4.3455350304
  H         5.9343504169        4.0901355920        1.9674900619
  H         1.6733324110        4.0073798276        1.4172593129
  H         9.0371909162        2.3976146388       15.2230635937
  H         4.8517649813        3.2517060783       14.6794533663
  H         5.3120329760        4.0506215332       12.3991983940
  N         3.8951762946        4.5173752876        0.1888819641
  N         6.7613411652        2.2250266732       16.3975212199
  O         7.8821204027        4.8502208142        7.9266247214
  O         7.3465873725        5.2262043020       10.7681681921
  O         4.3851878368        1.1304806537        7.9243664114
  O         2.3072357326        2.9412149872        6.3195038322
  O         2.1739004589        1.1100916036        8.3985464856
  O         4.5647191167        3.2322822370        6.3206522133
  O         5.6649194009        4.7114436539        8.4020041405
  O         8.0294449287        3.1243861917       10.1704403243
  O         3.4069629144        3.6239135848        8.6975465265
  O         6.7448240031        2.3655455447        7.7722353916
  O         5.2951533591        2.3970747758       10.0916699930
  C         4.7949656986        1.3126941828       10.9250671132
  H         4.1509173224        0.6561924530       10.3393296036
  H         4.2033447004        1.7376829692       11.7370908868
  H         5.6388061231        0.7398216376       11.3321500930
  H         5.2300284499        3.2175505905       10.6123693084
      50
 i =      178, E =      -412.9025790382
 Al         8.4191458488        3.0262482569        8.2721298817
 Al         5.0152366342        2.9239562318        8.1132089444
  C         6.7447584228        5.3453067488        8.1815236412
  C         7.6481400506        4.0434977928       11.0076174250
  C         3.2800069429        0.5467925695        8.1484571815
  C         3.4148775499        3.1714159343        5.7465636927
  C         3.4843812015        3.4116344370        4.2702754710
  C         4.7667553080        3.5867947458        3.7009322727
  C         4.9444595483        3.9306484915        2.3771587896
  C         3.8223435567        4.1040317853        1.5479739053
  C         2.5396698218        3.8895293880        2.0620466126
  C         2.3898405563        3.5498359313        3.4021124255
  C         8.2114351312        2.7362180928       14.6012730953
  C         6.8969752530        2.7093282986       15.0861266287
  C         5.8505742162        3.1948062443       14.2781554551
  C         6.1245145795        3.6202338914       12.9889450614
  C         7.4260138547        3.5840470825       12.4395134961
  C         8.4397809276        3.2024875017       13.3169678741
  C         6.6634727710        6.8447869837        8.1834475351
  C         3.2926239889       -0.9503907754        8.1326413112
  F         7.8221529580        3.3720683153        3.8516004314
  F         3.0421498070        3.3414130645       12.9270076706
  F         5.6138353329       -1.1227851806        8.2372826185
  F         4.3160012382        7.0475276294        8.0862159880
  H         3.4389590658        4.5980832358        8.7529913913
  H         6.7879973171        1.4038901225        7.6191747601
  H         5.6323240275        3.4639461922        4.3515106544
  H         5.9332832007        4.0954515258        1.9760033375
  H         1.6737747526        4.0085577209        1.4184471206
  H         9.0327905999        2.4041799072       15.2309129875
  H         4.8475325511        3.2497223630       14.6803937877
  H         5.3084356333        4.0455018443       12.3979733796
  N         3.8931166038        4.5255127514        0.1944455820
  N         6.7588439615        2.2310597729       16.4015024236
  O         7.8818096133        4.8516057374        7.9274432902
  O         7.3514626584        5.2268927913       10.7704591143
  O         4.3859022365        1.1304835526        7.9248354259
  O         2.3061923434        2.9407096295        6.3200261930
  O         2.1758766922        1.1173611940        8.3999234452
  O         4.5634811987        3.2330029696        6.3215209695
  O         5.6655367574        4.7112475134        8.4024655137
  O         8.0285566220        3.1237174614       10.1703869597
  O         3.4089016221        3.6250816184        8.6981195751
  O         6.7451251273        2.3658856177        7.7723692882
  O         5.2957704600        2.3980813490       10.0930585142
  C         4.8067887017        1.3099631440       10.9291190845
  H         4.1682152625        0.6470552413       10.3438110405
  H         4.2134651344        1.7313299244       11.7415878813
  H         5.6571940990        0.7439723723       11.3338747479
  H         5.2334895618        3.2168663374       10.6192569873
      50
 i =      179, E =      -412.9026529202
 Al         8.4188862507        3.0284981423        8.2742184531
 Al         5.0154624896        2.9233586068        8.1125638560
  C         6.7440987745        5.3458819817        8.1814780009
  C         7.6478084123        4.0423937901       11.0079090962
  C         3.2798736078        0.5504025837        8.1502402925
  C         3.4133101663        3.1697021237        5.7472789621
  C         3.4828515837        3.4082373091        4.2722374955
  C         4.7644984820        3.5838748810        3.7033985156
  C         4.9430398169        3.9333929494        2.3814430431
  C         3.8212714680        4.1077902109        1.5523063560
  C         2.5383315152        3.8923429729        2.0642456271
  C         2.3898057287        3.5482645594        3.4030317424
  C         8.2091909634        2.7450617952       14.6059147816
  C         6.8944968042        2.7168942257       15.0903072395
  C         5.8469554898        3.1975753517       14.2803871992
  C         6.1217316486        3.6205264466       12.9895497570
  C         7.4240523632        3.5828893824       12.4406651561
  C         8.4379124064        3.2049173308       13.3196364839
  C         6.6614448456        6.8467115428        8.1837544529
  C         3.2916352083       -0.9475102647        8.1331886354
  F         7.8227048066        3.3722236141        3.8515833344
  F         3.0418225031        3.3411537356       12.9290619849
  F         5.6131841438       -1.1219012516        8.2374883880
  F         4.3158534330        7.0487738264        8.0859262432
  H         3.4447339068        4.5991842074        8.7578834347
  H         6.7890973408        1.4034583145        7.6208398469
  H         5.6284079208        3.4607284434        4.3558559224
  H         5.9326811723        4.0991669844        1.9829707127
  H         1.6715219346        4.0125973862        1.4216753060
  H         9.0286428561        2.4122358038       15.2385346212
  H         4.8431502681        3.2517499731       14.6815398234
  H         5.3054943629        4.0423963597       12.3965041241
  N         3.8920037771        4.5357092961        0.2014896346
  N         6.7566813105        2.2402742896       16.4053497246
  O         7.8809026802        4.8525024327        7.9268689946
  O         7.3570530448        5.2276184467       10.7708849695
  O         4.3870958439        1.1316110445        7.9262448823
  O         2.3049231923        2.9404638145        6.3205360811
  O         2.1782336787        1.1248025747        8.4018098774
  O         4.5627964618        3.2315376107        6.3211627787
  O         5.6649924752        4.7117913883        8.4035253816
  O         8.0278658450        3.1227384625       10.1713744460
  O         3.4108788792        3.6265546771        8.6978846822
  O         6.7448905482        2.3658242187        7.7732992649
  O         5.2954176917        2.3979542585       10.0937383257
  C         4.8212620427        1.3052322238       10.9333891614
  H         4.1896613242        0.6345773551       10.3483722264
  H         4.2248394973        1.7218153014       11.7458826797
  H         5.6796488265        0.7495614357       11.3348609396
  H         5.2372903500        3.2136193028       10.6267787482
      50
 i =      180, E =      -412.9027302025
 Al         8.4183301229        3.0299372669        8.2752363461
 Al         5.0158348268        2.9222169409        8.1112835481
  C         6.7428308071        5.3467013609        8.1796838446
  C         7.6490529359        4.0435819452       11.0078181457
  C         3.2794337086        0.5536570609        8.1514461887
  C         3.4119925658        3.1678068746        5.7468754008
  C         3.4815438056        3.4060585918        4.2735704751
  C         4.7630924379        3.5824402005        3.7052483813
  C         4.9416579512        3.9355713712        2.3849372515
  C         3.8204437924        4.1179869916        1.5560592192
  C         2.5374761077        3.9004821034        2.0681847962
  C         2.3887877916        3.5499847423        3.4050103115
  C         8.2067628869        2.7531390491       14.6096722281
  C         6.8918843073        2.7295288586       15.0947062594
  C         5.8448113345        3.2061556932       14.2825356063
  C         6.1212803654        3.6238722043       12.9899432979
  C         7.4235595524        3.5873033487       12.4420685096
  C         8.4369725456        3.2096219701       13.3223901500
  C         6.6589378400        6.8478907492        8.1827345161
  C         3.2895660188       -0.9459071182        8.1344093570
  F         7.8213967231        3.3716437112        3.8510623571
  F         3.0419222177        3.3426861126       12.9286115138
  F         5.6133805654       -1.1233502363        8.2370806821
  F         4.3152273405        7.0481728135        8.0856608405
  H         3.4486127986        4.6001370578        8.7629111187
  H         6.7924985017        1.4033651120        7.6212330188
  H         5.6265083891        3.4558051172        4.3577036442
  H         5.9320910762        4.1006283348        1.9872614453
  H         1.6685003753        4.0243793569        1.4283637753
  H         9.0248256373        2.4239330760       15.2447152744
  H         4.8405273670        3.2609905350       14.6819540566
  H         5.3050213687        4.0453297779       12.3951395630
  N         3.8910878572        4.5499620230        0.2081870358
  N         6.7556698707        2.2524892900       16.4102415721
  O         7.8793252006        4.8528767647        7.9260640038
  O         7.3664434740        5.2304346914       10.7709317584
  O         4.3872529197        1.1331178027        7.9255088834
  O         2.3037161522        2.9401887207        6.3205911546
  O         2.1803147585        1.1303269098        8.4033302285
  O         4.5615416303        3.2299932282        6.3205675655
  O         5.6639068705        4.7122223804        8.4026758951
  O         8.0276822895        3.1203051072       10.1722030641
  O         3.4126725099        3.6276991038        8.6979443880
  O         6.7443342222        2.3658417193        7.7735120392
  O         5.2953966124        2.3946606760       10.0940194472
  C         4.8422659252        1.2951938115       10.9375694190
  H         4.2200090019        0.6136416287       10.3535022941
  H         4.2406627102        1.7047545464       11.7503607297
  H         5.7117031586        0.7551715960       11.3355775548
  H         5.2427884155        3.2049473437       10.6363339498
      50
 i =      181, E =      -412.9028346437
 Al         8.4181060263        3.0307969751        8.2749632368
 Al         5.0161355810        2.9217114823        8.1095126600
  C         6.7416311817        5.3471543698        8.1776878533
  C         7.6509523674        4.0434177771       11.0075327507
  C         3.2787015845        0.5556693816        8.1527498698
  C         3.4124848352        3.1675134213        5.7462132652
  C         3.4828306979        3.4059376417        4.2744424133
  C         4.7647064519        3.5825074686        3.7057676287
  C         4.9420871291        3.9411860212        2.3870943658
  C         3.8209041935        4.1266955201        1.5589941511
  C         2.5377558568        3.9086854234        2.0726545377
  C         2.3895689377        3.5525552070        3.4075651767
  C         8.2057405937        2.7646334408       14.6117782043
  C         6.8914766750        2.7389730290       15.0973774482
  C         5.8447294635        3.2130026779       14.2836362113
  C         6.1208289259        3.6282496455       12.9899163606
  C         7.4228007686        3.5887313774       12.4423433973
  C         8.4358385453        3.2142845365       13.3237476563
  C         6.6574236857        6.8471895315        8.1814339867
  C         3.2883274625       -0.9458990591        8.1351298963
  F         7.8216339475        3.3722890073        3.8521795559
  F         3.0426930156        3.3418108303       12.9292613615
  F         5.6133071074       -1.1244454652        8.2359662858
  F         4.3146022123        7.0491941720        8.0860176847
  H         3.4481047998        4.6028219324        8.7683662662
  H         6.7971779435        1.4039584423        7.6227600700
  H         5.6285867013        3.4526926467        4.3568236998
  H         5.9326684834        4.1039010334        1.9884261034
  H         1.6669510437        4.0328901093        1.4354071970
  H         9.0237351378        2.4390588004       15.2495421418
  H         4.8397549801        3.2677518196       14.6802515235
  H         5.3034650227        4.0437368620       12.3935472079
  N         3.8918240034        4.5617337085        0.2137135084
  N         6.7565538805        2.2655817510       16.4148643627
  O         7.8783874784        4.8531428529        7.9254444889
  O         7.3769933113        5.2324255198       10.7703911190
  O         4.3869723008        1.1336830262        7.9260695936
  O         2.3040480211        2.9401231876        6.3202952509
  O         2.1810857258        1.1322851697        8.4046883166
  O         4.5609717418        3.2298839052        6.3212348181
  O         5.6629682439        4.7118571277        8.4023139346
  O         8.0280569104        3.1189674055       10.1732523861
  O         3.4130933910        3.6300488650        8.6989608813
  O         6.7443358194        2.3662631867        7.7736822446
  O         5.2966768967        2.3919665114       10.0935138602
  C         4.8654759083        1.2855150471       10.9406069196
  H         4.2527519814        0.5928629351       10.3581907415
  H         4.2590014793        1.6881456612       11.7538109828
  H         5.7455479512        0.7636011124       11.3365365507
  H         5.2497046489        3.1963574313       10.6437034126
      50
 i =      182, E =      -412.9029668874
 Al         8.4196998633        3.0327167952        8.2720484790
 Al         5.0176441524        2.9215803744        8.1061989183
  C         6.7405061674        5.3481384884        8.1743377085
  C         7.6579909173        4.0444990284       11.0053592622
  C         3.2781115753        0.5576294354        8.1549866338
  C         3.4147473430        3.1673566963        5.7464211659
  C         3.4855146668        3.4079300615        4.2767249919
  C         4.7679362266        3.5835505492        3.7059529916
  C         4.9442197934        3.9519651651        2.3902391291
  C         3.8220388472        4.1500387307        1.5659226932
  C         2.5379949165        3.9320262066        2.0812689563
  C         2.3921748883        3.5606956470        3.4115623832
  C         8.2050378339        2.7890718106       14.6175719228
  C         6.8902599070        2.7663287806       15.1020846719
  C         5.8441000638        3.2330988076       14.2858773400
  C         6.1223425926        3.6388876921       12.9893135048
  C         7.4229035433        3.5967035668       12.4420052699
  C         8.4346477452        3.2268506367       13.3269809826
  C         6.6569740510        6.8451267945        8.1797634030
  C         3.2875589466       -0.9473284646        8.1371864041
  F         7.8229956942        3.3717123276        3.8513897996
  F         3.0435304959        3.3419851792       12.9298669151
  F         5.6135347924       -1.1251821161        8.2358010178
  F         4.3151303439        7.0490873584        8.0869922459
  H         3.4463818611        4.6070734496        8.7799697767
  H         6.8061611692        1.4054452178        7.6260649385
  H         5.6341750453        3.4444738888        4.3519543048
  H         5.9341050824        4.1103166969        1.9875053395
  H         1.6640215869        4.0598337340        1.4496402509
  H         9.0242468265        2.4754933071       15.2594939179
  H         4.8384913262        3.2895759179       14.6785784644
  H         5.3015314422        4.0459162120       12.3910053774
  N         3.8935190178        4.5922716182        0.2253307460
  N         6.7574255176        2.2977730595       16.4231897717
  O         7.8780517038        4.8539695788        7.9235909451
  O         7.4057651838        5.2377675117       10.7685594569
  O         4.3866849872        1.1341497822        7.9270329971
  O         2.3049226377        2.9391929274        6.3192382287
  O         2.1818116198        1.1328976978        8.4063448392
  O         4.5620701956        3.2286881778        6.3221641576
  O         5.6621546612        4.7125794689        8.4014404012
  O         8.0290352097        3.1153369484       10.1730151706
  O         3.4137156989        3.6342147687        8.7000716307
  O         6.7459769161        2.3676696419        7.7731515162
  O         5.3009737504        2.3847662624       10.0927783759
  C         4.9249266022        1.2597671945       10.9473050335
  H         4.3361846471        0.5404026574       10.3696505387
  H         4.3072516024        1.6434051891       11.7626250736
  H         5.8319306709        0.7814500356       11.3390026940
  H         5.2688925644        3.1740511782       10.6632793372
      50
 i =      183, E =      -412.9031015432
 Al         8.4206600904        3.0320791644        8.2719750577
 Al         5.0183695294        2.9240800575        8.1071159737
  C         6.7426616903        5.3481084924        8.1751693652
  C         7.6571278385        4.0401346309       11.0056211657
  C         3.2795506549        0.5549000790        8.1533604559
  C         3.4155899428        3.1697488889        5.7471720505
  C         3.4869022876        3.4125843067        4.2762748076
  C         4.7696626757        3.5902726930        3.7058368596
  C         4.9453051731        3.9523180774        2.3883256299
  C         3.8237766749        4.1435929677        1.5619855133
  C         2.5404720394        3.9242919196        2.0784274815
  C         2.3931129157        3.5610761325        3.4106072023
  C         8.2085108762        2.7852996981       14.6167242275
  C         6.8937556517        2.7551916220       15.1001313897
  C         5.8473430874        3.2213472008       14.2830104068
  C         6.1239444561        3.6310021796       12.9880463941
  C         7.4247882471        3.5896108250       12.4409107422
  C         8.4373664826        3.2237135080       13.3258616522
  C         6.6585171616        6.8440428513        8.1795765427
  C         3.2885993064       -0.9488158662        8.1362628361
  F         7.8236337788        3.3725251807        3.8516715063
  F         3.0442459052        3.3425292903       12.9288140202
  F         5.6128149621       -1.1244993751        8.2361639634
  F         4.3151910208        7.0491366378        8.0865492003
  H         3.4425052481        4.6075177318        8.7757544892
  H         6.8050290312        1.4057046304        7.6283269744
  H         5.6362504012        3.4536243539        4.3518996323
  H         5.9345839875        4.1147805881        1.9855008866
  H         1.6680993489        4.0463876218        1.4444345038
  H         9.0297223633        2.4756559532       15.2583472254
  H         4.8409959052        3.2731329841       14.6746732917
  H         5.3017962359        4.0355045384       12.3901399277
  N         3.8950819098        4.5802585803        0.2181645479
  N         6.7603951672        2.2887203613       16.4220737844
  O         7.8802082622        4.8536189062        7.9246710930
  O         7.3997206008        5.2319621920       10.7701252334
  O         4.3872333189        1.1335201667        7.9269867929
  O         2.3056716867        2.9404485736        6.3201158127
  O         2.1807808608        1.1280288249        8.4046381824
  O         4.5628288651        3.2293925211        6.3228769989
  O         5.6637351872        4.7136834954        8.4001305752
  O         8.0300375444        3.1147140323       10.1714433532
  O         3.4130221411        3.6351292280        8.6987400181
  O         6.7472477530        2.3682708129        7.7729529374
  O         5.3004124383        2.3885396025       10.0916181730
  C         4.9152001918        1.2693202465       10.9461733582
  H         4.3216305149        0.5566247425       10.3692894638
  H         4.3008494113        1.6583041507       11.7606785518
  H         5.8169629728        0.7858081997       11.3388568834
  H         5.2651357022        3.1805036028       10.6536622829
      50
 i =      184, E =      -412.9032507684
 Al         8.4233477581        3.0336901888        8.2719471484
 Al         5.0195767559        2.9270708429        8.1086583453
  C         6.7452708600        5.3489578035        8.1766613322
  C         7.6586158783        4.0363368346       11.0049895670
  C         3.2823400945        0.5520840434        8.1535552918
  C         3.4171369241        3.1714534010        5.7484167371
  C         3.4878135242        3.4175946053        4.2757311187
  C         4.7711525636        3.5952505374        3.7062363930
  C         4.9467799056        3.9571017082        2.3876465658
  C         3.8240522291        4.1449185981        1.5622792180
  C         2.5410242237        3.9232240227        2.0771046600
  C         2.3927763258        3.5644894218        3.4106456318
  C         8.2113367620        2.7937484943       14.6199268914
  C         6.8959596260        2.7594444528       15.1014691636
  C         5.8486114612        3.2181639387       14.2817661166
  C         6.1234993755        3.6265365910       12.9866178453
  C         7.4247553763        3.5855634117       12.4391131459
  C         8.4387881001        3.2227938666       13.3251504979
  C         6.6623232459        6.8446181080        8.1804616243
  C         3.2910356450       -0.9495316728        8.1363748922
  F         7.8235297276        3.3728304637        3.8524772526
  F         3.0429567947        3.3406088518       12.9271298196
  F         5.6140532005       -1.1235666334        8.2354488704
  F         4.3163490599        7.0487145275        8.0868014176
  H         3.4422551414        4.6082822561        8.7774917016
  H         6.8030421370        1.4066320451        7.6303720059
  H         5.6377875963        3.4608324434        4.3527169521
  H         5.9357223319        4.1206432666        1.9850572250
  H         1.6710953234        4.0453087114        1.4398922597
  H         9.0346223620        2.4892805057       15.2626229115
  H         4.8411517099        3.2676413980       14.6733975554
  H         5.2995641421        4.0282671751       12.3884622551
  N         3.8948966346        4.5803305347        0.2158043016
  N         6.7603705415        2.2939615441       16.4234480127
  O         7.8821712830        4.8535372950        7.9259590231
  O         7.4050668308        5.2289120708       10.7703798505
  O         4.3890740165        1.1322359107        7.9269435502
  O         2.3073933402        2.9416308042        6.3214620545
  O         2.1814298824        1.1264069460        8.4027670377
  O         4.5647914555        3.2311693450        6.3234743375
  O         5.6676452516        4.7137228286        8.4021228170
  O         8.0307416625        3.1130970132       10.1697509504
  O         3.4129015064        3.6370710097        8.6969840384
  O         6.7500081739        2.3691203362        7.7730357491
  O         5.3004240912        2.3926558701       10.0920605532
  C         4.9293678158        1.2694395142       10.9494688082
  H         4.3426019508        0.5518632274       10.3734663047
  H         4.3126441317        1.6540153842       11.7655865922
  H         5.8380751814        0.7950083475       11.3392149438
  H         5.2696365259        3.1820559697       10.6561953156
      50
 i =      185, E =      -412.9033447791
 Al         8.4255515246        3.0345993922        8.2708519467
 Al         5.0204521380        2.9303352123        8.1109396473
  C         6.7469559143        5.3487036739        8.1771737913
  C         7.6603168432        4.0331528768       11.0047888161
  C         3.2844248843        0.5512032141        8.1540033550
  C         3.4177346862        3.1743297658        5.7499315889
  C         3.4876735913        3.4226530214        4.2764493416
  C         4.7705552567        3.6042581431        3.7081598369
  C         4.9479241139        3.9632468033        2.3887018949
  C         3.8253722680        4.1451866621        1.5628325976
  C         2.5423763175        3.9207645115        2.0742195180
  C         2.3935439530        3.5642889890        3.4089693352
  C         8.2146665084        2.8012362414       14.6237361714
  C         6.8985696353        2.7627446239       15.1029627986
  C         5.8494834043        3.2128023053       14.2794768711
  C         6.1237344210        3.6182997611       12.9840167352
  C         7.4256409529        3.5809350127       12.4374924550
  C         8.4409275149        3.2255772113       13.3252337349
  C         6.6639476056        6.8451420416        8.1810769823
  C         3.2930855174       -0.9486510587        8.1360059305
  F         7.8243504879        3.3723034647        3.8511164544
  F         3.0436448210        3.3424115996       12.9272754909
  F         5.6139265601       -1.1223327436        8.2376347837
  F         4.3177034758        7.0489438779        8.0861084472
  H         3.4427072596        4.6110947879        8.7799764617
  H         6.8013814762        1.4061061618        7.6355582241
  H         5.6369190761        3.4726444947        4.3555503444
  H         5.9364036905        4.1303473945        1.9870626407
  H         1.6742778203        4.0372305848        1.4339602529
  H         9.0400460367        2.5093651859       15.2687121667
  H         4.8420180457        3.2534613881       14.6705420905
  H         5.2981150994        4.0163504565       12.3851565830
  N         3.8966363390        4.5742834010        0.2131333458
  N         6.7620423370        2.3020349241       16.4255901490
  O         7.8836571939        4.8533653486        7.9252308982
  O         7.4121094277        5.2266208090       10.7725472483
  O         4.3910867973        1.1319976536        7.9294191227
  O         2.3080382568        2.9416764758        6.3212393437
  O         2.1818059428        1.1250287309        8.4016599613
  O         4.5664013672        3.2313234449        6.3236206883
  O         5.6687437424        4.7150697616        8.4015583453
  O         8.0305263654        3.1105018462       10.1667848215
  O         3.4129272920        3.6408764706        8.6958057643
  O         6.7511813140        2.3699854591        7.7722021755
  O         5.3009654941        2.3972876539       10.0928000535
  C         4.9470102199        1.2705603027       10.9538462937
  H         4.3685792959        0.5459570138       10.3790148245
  H         4.3265400960        1.6500762078       11.7718348961
  H         5.8647805655        0.8087842288       11.3400243396
  H         5.2744323348        3.1850006146       10.6578558177
      50
 i =      186, E =      -412.9034174178
 Al         8.4259094902        3.0334992382        8.2703918318
 Al         5.0203340640        2.9305561617        8.1124074609
  C         6.7465760037        5.3479157808        8.1776872444
  C         7.6617382373        4.0346690195       11.0042775565
  C         3.2851423674        0.5501224773        8.1538438808
  C         3.4174194387        3.1752384569        5.7489543611
  C         3.4867190953        3.4267108696        4.2757381470
  C         4.7690622845        3.6090131344        3.7078706336
  C         4.9463009577        3.9642911006        2.3873001751
  C         3.8239850284        4.1456196808        1.5606860073
  C         2.5413978729        3.9221642334        2.0719939004
  C         2.3922992076        3.5673219711        3.4079415516
  C         8.2156767722        2.8049705432       14.6241832179
  C         6.8993848796        2.7674542131       15.1030794821
  C         5.8501610106        3.2148516994       14.2791202157
  C         6.1246566362        3.6200092469       12.9832467817
  C         7.4264959238        3.5823053096       12.4364542938
  C         8.4416461185        3.2252643372       13.3243155624
  C         6.6639952147        6.8457693147        8.1812525452
  C         3.2934816898       -0.9484661528        8.1353527876
  F         7.8238197624        3.3726257991        3.8510833853
  F         3.0437683263        3.3419227637       12.9270065294
  F         5.6143692870       -1.1224633137        8.2369097542
  F         4.3175617065        7.0485297443        8.0859302174
  H         3.4439749695        4.6108656058        8.7803782281
  H         6.7996826791        1.4054954340        7.6335415168
  H         5.6351589365        3.4801212461        4.3564743922
  H         5.9354503761        4.1276299586        1.9855667395
  H         1.6737110030        4.0404650106        1.4303495999
  H         9.0417726919        2.5142974278       15.2693186766
  H         4.8432426318        3.2575834522       14.6719293333
  H         5.3010852678        4.0229352739       12.3844939627
  N         3.8959071083        4.5709490283        0.2087762619
  N         6.7617509390        2.3076636067       16.4250618258
  O         7.8828131864        4.8528294413        7.9252567478
  O         7.4159214709        5.2291290793       10.7710786197
  O         4.3910446304        1.1324028265        7.9283668715
  O         2.3084531430        2.9416257749        6.3208501047
  O         2.1818196212        1.1225651741        8.4015906841
  O         4.5663699228        3.2318970833        6.3224654724
  O         5.6680529335        4.7144127237        8.4027317543
  O         8.0308699242        3.1108146738       10.1674353694
  O         3.4132007887        3.6409688047        8.6950042768
  O         6.7504731406        2.3689107429        7.7729321771
  O         5.2999550785        2.3977522918       10.0937332173
  C         4.9537374141        1.2691260179       10.9556300763
  H         4.3804270662        0.5415053197       10.3790713296
  H         4.3293976271        1.6435487805       11.7751023880
  H         5.8761261461        0.8119469837       11.3384027484
  H         5.2758463129        3.1856756043       10.6604835348
      50
 i =      187, E =      -412.9035143287
 Al         8.4253823147        3.0326484209        8.2696349481
 Al         5.0194580579        2.9306903183        8.1147505897
  C         6.7455332529        5.3468737031        8.1778455252
  C         7.6643171647        4.0355645445       11.0048370639
  C         3.2837074684        0.5500489487        8.1544348074
  C         3.4167248361        3.1771688593        5.7476526738
  C         3.4857643112        3.4325501775        4.2754842965
  C         4.7673227659        3.6182714690        3.7085516323
  C         4.9455813760        3.9699023357        2.3872055466
  C         3.8241653507        4.1452361305        1.5584327209
  C         2.5413513667        3.9215590656        2.0685151116
  C         2.3919337869        3.5694333877        3.4060346014
  C         8.2175916319        2.8097544098       14.6243511588
  C         6.9015184504        2.7705096615       15.1028217107
  C         5.8509921386        3.2117991491       14.2766510777
  C         6.1249333007        3.6172095645       12.9803279736
  C         7.4274317017        3.5824410231       12.4353152463
  C         8.4424310000        3.2262319333       13.3233459339
  C         6.6626431257        6.8462417529        8.1810685666
  C         3.2932895809       -0.9478262192        8.1342037457
  F         7.8242223275        3.3727545272        3.8506614393
  F         3.0446357020        3.3420147271       12.9272319186
  F         5.6144715613       -1.1232314887        8.2365560672
  F         4.3170280949        7.0483184520        8.0860563101
  H         3.4437775528        4.6135123904        8.7816938946
  H         6.7967328624        1.4044298509        7.6339233726
  H         5.6328356748        3.4944021959        4.3589809185
  H         5.9353479558        4.1312448557        1.9857345530
  H         1.6745070835        4.0373690701        1.4242924489
  H         9.0444450676        2.5244275384       15.2707254646
  H         4.8443620529        3.2528612133       14.6701213397
  H         5.3035422524        4.0225819624       12.3808318744
  N         3.8970935436        4.5617502260        0.2032170831
  N         6.7632174602        2.3167084197       16.4257068032
  O         7.8815831300        4.8534238521        7.9246586665
  O         7.4207595302        5.2303922105       10.7713187110
  O         4.3893039380        1.1333582117        7.9287206368
  O         2.3084906587        2.9417229338        6.3200248812
  O         2.1809860496        1.1218780641        8.4031527188
  O         4.5655855805        3.2322343526        6.3216492474
  O         5.6670351648        4.7124755561        8.4045931620
  O         8.0310178131        3.1100255882       10.1676238762
  O         3.4132708584        3.6433593204        8.6952535572
  O         6.7485949486        2.3682383599        7.7733456266
  O         5.2980355217        2.3988605288       10.0935790946
  C         4.9656813997        1.2693530029       10.9570533673
  H         4.4006640337        0.5358464817       10.3793331266
  H         4.3375665077        1.6366141177       11.7784808843
  H         5.8941632464        0.8217779001       11.3362572662
  H         5.2767365514        3.1884411893       10.6605687990
      50
 i =      188, E =      -412.9036065021
 Al         8.4244665298        3.0315060456        8.2686730688
 Al         5.0184173385        2.9308961997        8.1164656544
  C         6.7447543259        5.3466488754        8.1776999994
  C         7.6678419972        4.0365351543       11.0047072952
  C         3.2816516506        0.5515206155        8.1551966526
  C         3.4157601901        3.1797138224        5.7465767967
  C         3.4850438065        3.4391457515        4.2755192915
  C         4.7664465436        3.6285287048        3.7094929944
  C         4.9450646715        3.9776236859        2.3879147839
  C         3.8246320928        4.1481222332        1.5569369011
  C         2.5414348108        3.9244134535        2.0675638225
  C         2.3910926307        3.5731046488        3.4056720687
  C         8.2189739453        2.8166976210       14.6249221950
  C         6.9030895514        2.7748734539       15.1027531396
  C         5.8515064905        3.2103063703       14.2737205810
  C         6.1260695381        3.6155875790       12.9768278936
  C         7.4294909618        3.5818466395       12.4340161505
  C         8.4436996776        3.2282331177       13.3230825921
  C         6.6603300691        6.8464227329        8.1807728970
  C         3.2918286277       -0.9470858970        8.1341866455
  F         7.8237706738        3.3727554790        3.8508351191
  F         3.0460881039        3.3425842603       12.9265616064
  F         5.6136913883       -1.1235449509        8.2362778847
  F         4.3157977729        7.0486715288        8.0858469857
  H         3.4426542943        4.6170672661        8.7829553856
  H         6.7944717208        1.4037425716        7.6346323064
  H         5.6314731716        3.5082087028        4.3611673152
  H         5.9353612095        4.1379738243        1.9865853613
  H         1.6754398244        4.0383619601        1.4214667629
  H         9.0465679137        2.5359343931       15.2725663893
  H         4.8451583916        3.2491294151       14.6670915463
  H         5.3060688596        4.0203963835       12.3763773238
  N         3.8992280344        4.5597560116        0.1999623291
  N         6.7652275797        2.3269791765       16.4278131175
  O         7.8801422035        4.8533302026        7.9240630502
  O         7.4280688417        5.2329585588       10.7716356537
  O         4.3874161131        1.1348963215        7.9288949603
  O         2.3076722118        2.9422798986        6.3191372528
  O         2.1800591241        1.1226481922        8.4047654582
  O         4.5639494756        3.2318668002        6.3216481956
  O         5.6657711286        4.7125058821        8.4052564359
  O         8.0305161613        3.1103749325       10.1678864597
  O         3.4130868583        3.6463892351        8.6956061071
  O         6.7468475148        2.3676918081        7.7736059608
  O         5.2952231390        2.3983901227       10.0915104761
  C         4.9858295688        1.2658878932       10.9569228989
  H         4.4321825708        0.5215235138       10.3800767153
  H         4.3544620147        1.6231908896       11.7806512373
  H         5.9227448907        0.8346182606       11.3342151645
  H         5.2776406992        3.1885214576       10.6606481806
      50
 i =      189, E =      -412.9037152057
 Al         8.4228476237        3.0310315253        8.2663670018
 Al         5.0160234911        2.9305436215        8.1183335945
  C         6.7435601762        5.3471047973        8.1777463080
  C         7.6727218733        4.0372882937       11.0036957503
  C         3.2785605260        0.5530003953        8.1564686001
  C         3.4158573249        3.1845844721        5.7464317270
  C         3.4849514102        3.4504234039        4.2764226801
  C         4.7662514897        3.6452877288        3.7111610877
  C         4.9451080363        3.9895472908        2.3884877788
  C         3.8255820500        4.1489438222        1.5541172483
  C         2.5415724070        3.9237480562        2.0648147211
  C         2.3919425235        3.5777495333        3.4044008697
  C         8.2211442077        2.8238208527       14.6249408285
  C         6.9053538050        2.7785931168       15.1011472575
  C         5.8520515806        3.2051904753       14.2692240349
  C         6.1273641218        3.6104357069       12.9721098457
  C         7.4312894460        3.5829326852       12.4319139032
  C         8.4445145535        3.2308799839       13.3223058865
  C         6.6594736729        6.8465198161        8.1812731312
  C         3.2907003315       -0.9472122074        8.1354093219
  F         7.8253405265        3.3731578287        3.8498309603
  F         3.0476567538        3.3421442731       12.9271869436
  F         5.6144440994       -1.1236662605        8.2359391955
  F         4.3154414932        7.0480022806        8.0866446664
  H         3.4395847326        4.6217812825        8.7846228602
  H         6.7906237374        1.4031069560        7.6345124973
  H         5.6312277442        3.5334505136        4.3640923981
  H         5.9352221161        4.1501374606        1.9864590019
  H         1.6762331007        4.0315313513        1.4169651154
  H         9.0498453067        2.5519859095       15.2746425105
  H         4.8450201540        3.2421889658       14.6610620649
  H         5.3086226140        4.0152338362       12.3708181846
  N         3.9012796583        4.5505556875        0.1942395461
  N         6.7666194289        2.3398480840       16.4298918965
  O         7.8785246257        4.8542455269        7.9232217854
  O         7.4363818320        5.2338258458       10.7702447361
  O         4.3851431812        1.1351489073        7.9293930939
  O         2.3076254756        2.9430241957        6.3180383305
  O         2.1786425750        1.1250503557        8.4061602871
  O         4.5634263794        3.2328278981        6.3218613256
  O         5.6651471030        4.7120335975        8.4079503079
  O         8.0292443946        3.1078294396       10.1663616272
  O         3.4118386513        3.6503299347        8.6968459494
  O         6.7447925895        2.3673152791        7.7733524309
  O         5.2909555094        2.3997184723       10.0877800172
  C         5.0124541090        1.2641638512       10.9551660642
  H         4.4760076120        0.5080546721       10.3784761446
  H         4.3786519285        1.6055983334       11.7824856009
  H         5.9592567039        0.8551771990       11.3300297089
  H         5.2789020628        3.1922908986       10.6569337347
      50
 i =      190, E =      -412.9038828790
 Al         8.4217505461        3.0317814407        8.2657768971
 Al         5.0141727493        2.9295372552        8.1201925219
  C         6.7432401375        5.3477111940        8.1773841736
  C         7.6819426732        4.0396562502       11.0027387564
  C         3.2767475504        0.5554627537        8.1582574107
  C         3.4158848937        3.1899525942        5.7473271028
  C         3.4844108446        3.4637906696        4.2777151322
  C         4.7661492655        3.6647283106        3.7134857132
  C         4.9449964479        4.0060255149        2.3901281534
  C         3.8254464502        4.1606334700        1.5543369852
  C         2.5410845444        3.9322076958        2.0660692377
  C         2.3907242733        3.5859870910        3.4056865289
  C         8.2218099160        2.8417394824       14.6285526672
  C         6.9056111944        2.7916677306       15.1020451097
  C         5.8524957318        3.2096330138       14.2644129908
  C         6.1292150540        3.6132931749       12.9668031238
  C         7.4349890281        3.5858916916       12.4307591387
  C         8.4470921215        3.2387029625       13.3236443155
  C         6.6577872766        6.8455753575        8.1816774289
  C         3.2889651178       -0.9469140020        8.1372312904
  F         7.8249089668        3.3731660538        3.8504848057
  F         3.0496649498        3.3425567749       12.9253491068
  F         5.6129218651       -1.1240939750        8.2360199007
  F         4.3149165963        7.0487288040        8.0863983289
  H         3.4378798597        4.6241919089        8.7877781367
  H         6.7881633633        1.4035502164        7.6350007715
  H         5.6312935716        3.5578508620        4.3670060324
  H         5.9348299850        4.1686280236        1.9877402368
  H         1.6761248641        4.0359134512        1.4175936676
  H         9.0507096880        2.5772380032       15.2816284246
  H         4.8440636114        3.2443918115       14.6527681589
  H         5.3100852456        4.0127340463       12.3637857776
  N         3.9022884235        4.5576633274        0.1934535878
  N         6.7661375432        2.3618695399       16.4351714665
  O         7.8783333434        4.8551043355        7.9222487802
  O         7.4565141294        5.2384852222       10.7709499305
  O         4.3846910893        1.1346351729        7.9299402529
  O         2.3076308705        2.9447863635        6.3192478585
  O         2.1783168195        1.1296963623        8.4074273296
  O         4.5628404997        3.2325740670        6.3229828879
  O         5.6653684010        4.7126737020        8.4089513432
  O         8.0274827055        3.1071852965       10.1660274690
  O         3.4116460670        3.6527798830        8.6971180763
  O         6.7438045763        2.3675031876        7.7734766132
  O         5.2869608970        2.3980599168       10.0834957112
  C         5.0661457009        1.2505962329       10.9547291763
  H         4.5594419519        0.4691263803       10.3798987065
  H         4.4259356033        1.5653462559       11.7875410390
  H         6.0345991063        0.8839363413       11.3262773992
  H         5.2866581623        3.1873643122       10.6604241152
      50
 i =      191, E =      -412.9033029474
 Al         8.4205988693        3.0327868675        8.2602633923
 Al         5.0104789893        2.9275065195        8.1243282185
  C         6.7424437291        5.3504629664        8.1766057492
  C         7.7117399795        4.0435034485       11.0000199589
  C         3.2733681202        0.5607749002        8.1632882874
  C         3.4173175226        3.2055366800        5.7497390571
  C         3.4842794373        3.5030495864        4.2818690041
  C         4.7663567104        3.7229549301        3.7197841649
  C         4.9441190245        4.0554729138        2.3938500071
  C         3.8243161159        4.1924644377        1.5543207820
  C         2.5400492603        3.9529363748        2.0686297589
  C         2.3891630870        3.6098069864        3.4090390316
  C         8.2242898114        2.8941575233       14.6408954692
  C         6.9059605540        2.8329831261       15.1053967048
  C         5.8539138938        3.2243819765       14.2515366197
  C         6.1350824830        3.6207784847       12.9523092882
  C         7.4456511365        3.5938851919       12.4273331147
  C         8.4536579413        3.2605219943       13.3287879591
  C         6.6550320570        6.8444361057        8.1838855462
  C         3.2846852317       -0.9467511860        8.1451419206
  F         7.8252168031        3.3738278445        3.8511135665
  F         3.0544795437        3.3432552216       12.9226868111
  F         5.6109898588       -1.1243751289        8.2358494426
  F         4.3133154328        7.0498572343        8.0870918666
  H         3.4330896918        4.6289023032        8.7973697351
  H         6.7830006747        1.4051815967        7.6346424863
  H         5.6326742498        3.6319620734        4.3745348066
  H         5.9327708202        4.2230575165        1.9899443040
  H         1.6755640243        4.0420393931        1.4187654249
  H         9.0549536529        2.6560390166       15.3037192319
  H         4.8416448000        3.2517087058       14.6292284795
  H         5.3142036154        4.0069864187       12.3444221681
  N         3.9046511772        4.5743982079        0.1895478823
  N         6.7649041599        2.4275950490       16.4504719621
  O         7.8768862646        4.8555359112        7.9196607161
  O         7.5210259470        5.2495317136       10.7701537631
  O         4.3832176614        1.1346159432        7.9309495796
  O         2.3081920507        2.9479092671        6.3195629926
  O         2.1773483392        1.1385831998        8.4094800649
  O         4.5630362757        3.2335076064        6.3253938971
  O         5.6659657644        4.7158478191        8.4112412190
  O         8.0248152198        3.1025243905       10.1637200180
  O         3.4111119645        3.6578221166        8.6971684748
  O         6.7418028598        2.3685554129        7.7722786259
  O         5.2801694761        2.3940804274       10.0723316747
  C         5.2268946206        1.2130965467       10.9553816715
  H         4.8094419519        0.3631682413       10.3838441251
  H         4.5679838981        1.4473097901       11.8041933221
  H         6.2578052122        0.9731636567       11.3144394490
  H         5.3154973748        3.1736415778       10.6700113937
      50
 i =      192, E =      -412.9041514178
 Al         8.4207090578        3.0313837450        8.2629625615
 Al         5.0126496974        2.9267260224        8.1212021241
  C         6.7432420441        5.3490725717        8.1778185768
  C         7.6949960554        4.0421300423       11.0019137637
  C         3.2761627459        0.5566726317        8.1597191987
  C         3.4170476599        3.1968750354        5.7494302948
  C         3.4841563444        3.4792644636        4.2795469306
  C         4.7658943414        3.6889629259        3.7156598465
  C         4.9443770857        4.0230911520        2.3896956648
  C         3.8233679365        4.1640832635        1.5533213402
  C         2.5394805390        3.9297711126        2.0656050957
  C         2.3894624343        3.5910528182        3.4070320528
  C         8.2217173811        2.8533582860       14.6318335613
  C         6.9032821424        2.8003402583       15.0998804532
  C         5.8525621820        3.2140040605       14.2583002262
  C         6.1323117587        3.6183046082       12.9620577695
  C         7.4405472724        3.5900068260       12.4306354704
  C         8.4504363079        3.2444119619       13.3261982624
  C         6.6577419552        6.8448696565        8.1841703744
  C         3.2874578558       -0.9474314184        8.1421474557
  F         7.8242436386        3.3723578607        3.8510455974
  F         3.0513126946        3.3430777344       12.9239802105
  F         5.6120225932       -1.1237438446        8.2366208908
  F         4.3146593466        7.0492491053        8.0867799105
  H         3.4354985372        4.6191980021        8.7857267658
  H         6.7854055110        1.4047792213        7.6306401724
  H         5.6322540888        3.5928309144        4.3695613627
  H         5.9327224184        4.1914867019        1.9866084949
  H         1.6742437053        4.0217198953        1.4168947274
  H         9.0503903464        2.5942652832       15.2870521635
  H         4.8428776815        3.2462698677       14.6423900791
  H         5.3117739520        4.0146029720       12.3588012583
  N         3.9020346593        4.5554386520        0.1910489387
  N         6.7622339333        2.3732704676       16.4361901141
  O         7.8781901887        4.8539506918        7.9209287325
  O         7.4775027183        5.2425112344       10.7697693203
  O         4.3845850385        1.1336158309        7.9299864006
  O         2.3079233921        2.9456539179        6.3192375033
  O         2.1770184181        1.1319666324        8.4058337079
  O         4.5641046123        3.2333387588        6.3242044330
  O         5.6659723094        4.7148505238        8.4083733102
  O         8.0268040696        3.1073080556       10.1654537251
  O         3.4109565963        3.6479235828        8.6966730881
  O         6.7431924507        2.3677553267        7.7721749538
  O         5.2869372585        2.3973118888       10.0791634351
  C         5.1152038101        1.2428439658       10.9502847609
  H         4.6400865746        0.4463246455       10.3724968298
  H         4.4727003101        1.5260677400       11.7892643269
  H         6.0973484819        0.9172829119       11.3189244069
  H         5.2964078062        3.1880997315       10.6547147724
      50
 i =      193, E =      -412.9042792644
 Al         8.4212333319        3.0317290406        8.2650713110
 Al         5.0127755635        2.9274158418        8.1219464030
  C         6.7438558032        5.3488375996        8.1779290715
  C         7.6949067738        4.0428279176       11.0017959421
  C         3.2779521567        0.5553861646        8.1599773785
  C         3.4175669130        3.1953161689        5.7502152445
  C         3.4857103291        3.4762934994        4.2804336627
  C         4.7666693913        3.6870227569        3.7164544812
  C         4.9426540495        4.0247127610        2.3911350877
  C         3.8227765683        4.1666654911        1.5533944382
  C         2.5407576252        3.9287265064        2.0662712721
  C         2.3916925971        3.5898589126        3.4075234769
  C         8.2197480231        2.8545347798       14.6331743823
  C         6.9015251151        2.8024909944       15.1018517699
  C         5.8515329444        3.2195036557       14.2603233397
  C         6.1321345078        3.6219369318       12.9636575903
  C         7.4394378175        3.5934256566       12.4311007204
  C         8.4486566387        3.2471600340       13.3272436702
  C         6.6596640901        6.8451056285        8.1829359808
  C         3.2889319652       -0.9479479214        8.1421101033
  F         7.8259875753        3.3734073423        3.8501269103
  F         3.0501795353        3.3424640631       12.9253033271
  F         5.6134877395       -1.1232504089        8.2364617499
  F         4.3159223721        7.0487687062        8.0866940853
  H         3.4362842129        4.6185642977        8.7869888526
  H         6.7876100421        1.4050284139        7.6301451260
  H         5.6327433127        3.5885839154        4.3703625963
  H         5.9310488981        4.1972666042        1.9894450471
  H         1.6745921263        4.0194949791        1.4184714278
  H         9.0465732705        2.5925192313       15.2895191865
  H         4.8402891145        3.2501993577       14.6415994329
  H         5.3107486346        4.0154325965       12.3579202111
  N         3.8986630905        4.5618964775        0.1918200739
  N         6.7604271873        2.3749347485       16.4370456978
  O         7.8795767252        4.8542521823        7.9234769258
  O         7.4796082806        5.2433985115       10.7702823206
  O         4.3860030105        1.1329799229        7.9312088936
  O         2.3085613713        2.9466137548        6.3199570580
  O         2.1782464013        1.1313988040        8.4052975084
  O         4.5649582744        3.2330044094        6.3244257265
  O         5.6667663939        4.7143281103        8.4095610739
  O         8.0254045482        3.1062995541       10.1646577793
  O         3.4109555574        3.6476699526        8.6968447035
  O         6.7438174647        2.3685913571        7.7723391180
  O         5.2866323431        2.3979281500       10.0800344940
  C         5.1216417177        1.2403662455       10.9506840098
  H         4.6511533529        0.4404441365       10.3719023288
  H         4.4769593629        1.5199356177       11.7901587427
  H         6.1063498730        0.9184679710       11.3179162305
  H         5.2987728653        3.1863977704       10.6568861956
      50
 i =      194, E =      -412.9045827170
 Al         8.4228616858        3.0308240575        8.2694587913
 Al         5.0136263179        2.9264595665        8.1248537238
  C         6.7458147780        5.3481127051        8.1785346777
  C         7.7037188543        4.0464652527       11.0028089759
  C         3.2819633241        0.5525836005        8.1615949754
  C         3.4188598320        3.1954191780        5.7525830522
  C         3.4866602735        3.4784578329        4.2832517068
  C         4.7657839563        3.6985638516        3.7203699295
  C         4.9392873862        4.0428888019        2.3956288404
  C         3.8193268092        4.1734609684        1.5562578778
  C         2.5405824987        3.9214016177        2.0664607717
  C         2.3931008877        3.5878185388        3.4091913113
  C         8.2144217509        2.8648545354       14.6385296809
  C         6.8942572415        2.8179240077       15.1044287101
  C         5.8479949964        3.2364037607       14.2607027053
  C         6.1327946421        3.6364961908       12.9643786545
  C         7.4403791445        3.6047873334       12.4336441648
  C         8.4466590390        3.2559047785       13.3314644414
  C         6.6621444184        6.8452863452        8.1835379762
  C         3.2904668444       -0.9489245466        8.1439022970
  F         7.8268673188        3.3737403254        3.8503118719
  F         3.0480812753        3.3420873292       12.9273147139
  F         5.6140329545       -1.1224134457        8.2369368954
  F         4.3170522270        7.0481375618        8.0867722056
  H         3.4371730926        4.6136783524        8.7889382938
  H         6.7920855809        1.4068953766        7.6217496523
  H         5.6329052351        3.6037590400        4.3736936924
  H         5.9260578954        4.2302809747        1.9960398310
  H         1.6715527278        3.9982860635        1.4200539743
  H         9.0353013857        2.5960367661       15.2996830573
  H         4.8324457857        3.2629205592       14.6331336995
  H         5.3087186564        4.0209098162       12.3531538736
  N         3.8895201129        4.5723140163        0.1943462001
  N         6.7516686806        2.3858836313       16.4376814833
  O         7.8829607363        4.8536240308        7.9256455569
  O         7.5002541518        5.2471878588       10.7696354680
  O         4.3881960787        1.1319064919        7.9330257494
  O         2.3105486484        2.9456544971        6.3207696782
  O         2.1795692424        1.1285182952        8.4032315261
  O         4.5670043007        3.2340976336        6.3263247503
  O         5.6690647486        4.7142518571        8.4110976493
  O         8.0226683516        3.1036572285       10.1659396181
  O         3.4115777083        3.6437274674        8.6974929824
  O         6.7459102930        2.3691957957        7.7723699237
  O         5.2867306949        2.3993469841       10.0802903797
  C         5.1726997185        1.2298186989       10.9484799992
  H         4.7379099814        0.4121062483       10.3637137272
  H         4.5193939850        1.4761670941       11.7937939367
  H         6.1728867210        0.9450086211       11.3086794861
  H         5.3126613998        3.1843779695       10.6576208376
      50
 i =      195, E =      -412.9048130865
 Al         8.4231772496        3.0290741679        8.2709635983
 Al         5.0141822982        2.9227721585        8.1259452906
  C         6.7454546196        5.3466477939        8.1797551019
  C         7.7099540120        4.0521653916       11.0031493532
  C         3.2833744752        0.5501501033        8.1621663506
  C         3.4190674570        3.1952626969        5.7535631336
  C         3.4866867931        3.4790910134        4.2851013704
  C         4.7637289893        3.7067950236        3.7215945314
  C         4.9351247110        4.0563444225        2.3974703304
  C         3.8141322723        4.1775664857        1.5579542117
  C         2.5381264485        3.9134607886        2.0669864388
  C         2.3929520853        3.5838498787        3.4107651837
  C         8.2089106273        2.8651238858       14.6411505850
  C         6.8869672195        2.8252263492       15.1050508702
  C         5.8452356283        3.2525832486       14.2603232806
  C         6.1347161738        3.6513887677       12.9642306028
  C         7.4430168269        3.6139720059       12.4354940722
  C         8.4456280904        3.2588243077       13.3352477179
  C         6.6636134239        6.8447114940        8.1838393127
  C         3.2923783796       -0.9496147828        8.1439085086
  F         7.8258296540        3.3729843060        3.8504068578
  F         3.0462769708        3.3414323120       12.9287854222
  F         5.6154264106       -1.1228332433        8.2369537654
  F         4.3182357296        7.0484521653        8.0869387584
  H         3.4385906608        4.6075274188        8.7865834188
  H         6.7955913382        1.4078092108        7.6099521569
  H         5.6312084290        3.6163376086        4.3755378277
  H         5.9209625834        4.2546529713        2.0006800263
  H         1.6678478723        3.9800628440        1.4207379580
  H         9.0260703696        2.5874415617       15.3023125339
  H         4.8292846445        3.2791604210       14.6299653968
  H         5.3112102431        4.0346889831       12.3499411753
  N         3.8826799708        4.5788132657        0.1960670156
  N         6.7450168867        2.3885613688       16.4355380517
  O         7.8824209196        4.8518233104        7.9267699754
  O         7.5144840175        5.2547492091       10.7670844046
  O         4.3887225520        1.1305558047        7.9328469266
  O         2.3102248758        2.9454983294        6.3198723851
  O         2.1796025955        1.1248348455        8.4034858078
  O         4.5682508613        3.2330696615        6.3267263591
  O         5.6686989021        4.7126785567        8.4122559377
  O         8.0191481349        3.1057796709       10.1670025413
  O         3.4120525526        3.6377514599        8.6980687397
  O         6.7472306307        2.3685065706        7.7714329257
  O         5.2873432795        2.3990607919       10.0800964111
  C         5.2070191137        1.2231994024       10.9423823810
  H         4.7986795087        0.3966002337       10.3522721877
  H         4.5477340523        1.4429561349       11.7916978935
  H         6.2149232402        0.9637010593       11.2988953140
  H         5.3212627573        3.1839785313       10.6531174587
      50
 i =      196, E =      -412.9052628504
 Al         8.4218943178        3.0233872437        8.2733808600
 Al         5.0165964824        2.9107288753        8.1287140156
  C         6.7452426268        5.3421725385        8.1819709707
  C         7.7371783391        4.0778017010       11.0057356463
  C         3.2848734862        0.5444324622        8.1652877940
  C         3.4203395097        3.1945885563        5.7531190869
  C         3.4851918609        3.4865168298        4.2883094654
  C         4.7579713474        3.7403513706        3.7259830327
  C         4.9217604263        4.1070102677        2.4048832119
  C         3.7993267950        4.2016095693        1.5627258155
  C         2.5304004728        3.9026451507        2.0687953217
  C         2.3905140360        3.5791124058        3.4139761458
  C         8.1949214257        2.8718083745       14.6429745498
  C         6.8688301057        2.8576270816       15.1041668556
  C         5.8398590963        3.3071455236       14.2583855577
  C         6.1417718292        3.7032006749       12.9622896312
  C         7.4518309195        3.6492799246       12.4415512692
  C         8.4464166874        3.2717443029       13.3411957554
  C         6.6630029709        6.8414273775        8.1868000054
  C         3.2941914643       -0.9519383977        8.1452728926
  F         7.8231420385        3.3702456925        3.8523624755
  F         3.0458678788        3.3408482185       12.9302810878
  F         5.6145580582       -1.1243710510        8.2365890242
  F         4.3184995877        7.0483512699        8.0875742801
  H         3.4413484340        4.5860072752        8.7787294171
  H         6.8071478357        1.4115403955        7.5671938927
  H         5.6277185343        3.6604654123        4.3793447495
  H         5.9031247353        4.3384956627        2.0131651032
  H         1.6554032096        3.9390012273        1.4254088375
  H         8.9968758785        2.5637331752       15.3094170527
  H         4.8210241302        3.3493898971       14.6188020414
  H         5.3240533625        4.0879453156       12.3384664693
  N         3.8574472366        4.6147409613        0.2023281782
  N         6.7187102525        2.4065399246       16.4281896989
  O         7.8818395406        4.8489746441        7.9249651544
  O         7.5738988141        5.2847455925       10.7588395990
  O         4.3883357715        1.1276601254        7.9325813581
  O         2.3121183181        2.9430304327        6.3194520699
  O         2.1778379142        1.1135063869        8.4054014747
  O         4.5699309371        3.2321091259        6.3284501466
  O         5.6675893127        4.7101169888        8.4167494213
  O         8.0104581368        3.1118521781       10.1743675236
  O         3.4127008709        3.6160347919        8.7006996854
  O         6.7501942625        2.3636932636        7.7712343950
  O         5.2898007014        2.3921580221       10.0773484733
  C         5.3459676546        1.1921191652       10.9202198437
  H         5.0363221367        0.3297605480       10.3159839305
  H         4.6671552053        1.3121577659       11.7841817624
  H         6.3862725441        1.0347502704       11.2654597454
  H         5.3534857642        3.1751717983       10.6417869519
      50
 i =      197, E =      -412.9054869361
 Al         8.4222102853        3.0230071404        8.2706767527
 Al         5.0176887040        2.9108836478        8.1271173368
  C         6.7451709001        5.3427254410        8.1811358087
  C         7.7326858869        4.0767779571       11.0062242194
  C         3.2826730989        0.5448122007        8.1637238133
  C         3.4196877514        3.1941628765        5.7518887533
  C         3.4843706467        3.4830646538        4.2858890409
  C         4.7578439935        3.7323269966        3.7227468308
  C         4.9227730039        4.0981024991        2.4020150794
  C         3.8008088760        4.1978318829        1.5599557905
  C         2.5307577632        3.9050310343        2.0672612092
  C         2.3897207394        3.5787873639        3.4117341537
  C         8.1973954377        2.8599816785       14.6385251256
  C         6.8724722978        2.8452342069       15.1013455869
  C         5.8418185794        3.2984402148       14.2582012750
  C         6.1410262039        3.6968270701       12.9623679587
  C         7.4509473154        3.6439149220       12.4405227767
  C         8.4468076000        3.2657249114       13.3386206160
  C         6.6617206957        6.8412098672        8.1854753878
  C         3.2926975340       -0.9523294497        8.1441838273
  F         7.8230817506        3.3711738808        3.8521734095
  F         3.0464201631        3.3410636814       12.9301017395
  F         5.6137917920       -1.1247698720        8.2361386385
  F         4.3166518995        7.0477161350        8.0874093064
  H         3.4408074587        4.5870953084        8.7750128126
  H         6.8053970237        1.4119444528        7.5678570513
  H         5.6272171231        3.6491901355        4.3756879249
  H         5.9041858219        4.3249800812        2.0092520876
  H         1.6576091913        3.9473672031        1.4228760101
  H         9.0026301665        2.5502423386       15.3000126085
  H         4.8257903561        3.3460060593       14.6255384250
  H         5.3251492557        4.0880830255       12.3430020587
  N         3.8600905508        4.6099097788        0.1999582492
  N         6.7226081106        2.3928113271       16.4252834414
  O         7.8810459263        4.8490750336        7.9239867580
  O         7.5619421532        5.2823980837       10.7600193117
  O         4.3867018420        1.1281165968        7.9310604234
  O         2.3111254950        2.9422090269        6.3188806147
  O         2.1765341214        1.1125310013        8.4063348712
  O         4.5687713513        3.2315448352        6.3275056513
  O         5.6677497998        4.7094912430        8.4171000281
  O         8.0124598439        3.1150031919       10.1743743244
  O         3.4122496143        3.6160551601        8.7005244258
  O         6.7500894467        2.3638077340        7.7707432915
  O         5.2918727503        2.3915026165       10.0782845400
  C         5.3144387586        1.2019202581       10.9191050313
  H         4.9843805967        0.3548822169       10.3161995241
  H         4.6433865102        1.3389958453       11.7786324940
  H         6.3399028638        1.0207133793       11.2695061115
  H         5.3466460572        3.1784677967       10.6384808814
      50
 i =      198, E =      -412.9057766684
 Al         8.4227468091        3.0196548621        8.2665345714
 Al         5.0194792503        2.9065072424        8.1293850101
  C         6.7453901600        5.3417700824        8.1819635425
  C         7.7430761473        4.0884869978       11.0051728938
  C         3.2796251225        0.5426201466        8.1644133627
  C         3.4196430889        3.1977489555        5.7518027042
  C         3.4829419052        3.4907496547        4.2848952765
  C         4.7546400329        3.7482723298        3.7197409344
  C         4.9180748738        4.1192578032        2.4003086558
  C         3.7956097500        4.2127360859        1.5572589379
  C         2.5269558431        3.9141013377        2.0658751076
  C         2.3879729078        3.5837259357        3.4100402889
  C         8.1956959187        2.8572606046       14.6349287275
  C         6.8703187796        2.8512110180       15.0968110935
  C         5.8427637302        3.3167294435       14.2530218366
  C         6.1447117355        3.7129914636       12.9563781925
  C         7.4561826587        3.6536832210       12.4379751552
  C         8.4483883324        3.2681660986       13.3374894757
  C         6.6614480261        6.8388389832        8.1835940040
  C         3.2924791602       -0.9548758151        8.1439648570
  F         7.8228710129        3.3712401728        3.8516445590
  F         3.0473811343        3.3407685370       12.9298291798
  F         5.6141868353       -1.1256402956        8.2356856927
  F         4.3153683237        7.0468501477        8.0873231274
  H         3.4400301275        4.5822891409        8.7697652750
  H         6.8048505086        1.4152071456        7.5493178875
  H         5.6243968552        3.6668898958        4.3722578973
  H         5.8982122794        4.3533032873        2.0086728799
  H         1.6559271635        3.9522127509        1.4190435907
  H         9.0020756314        2.5388514790       15.2903482395
  H         4.8303825512        3.3769407271       14.6275931805
  H         5.3344103636        4.1142777851       12.3389079614
  N         3.8556130190        4.6264219714        0.1971449229
  N         6.7187245340        2.3978065355       16.4204973727
  O         7.8797324909        4.8478334045        7.9231074511
  O         7.5845521078        5.2969852614       10.7585597449
  O         4.3842983460        1.1263831212        7.9307485467
  O         2.3097111903        2.9431357232        6.3181515939
  O         2.1732870058        1.1062206820        8.4088063152
  O         4.5685577182        3.2295374535        6.3270715928
  O         5.6688028603        4.7061867688        8.4234350288
  O         8.0087841766        3.1237499894       10.1735932030
  O         3.4117758995        3.6094779594        8.7014885269
  O         6.7507825658        2.3637314788        7.7692549316
  O         5.2920686803        2.3866891302       10.0771447804
  C         5.3676085965        1.1951707853       10.9087303519
  H         5.0720895454        0.3373176564       10.3015516118
  H         4.6933223381        1.2945077974       11.7703847736
  H         6.3997215696        1.0549294816       11.2581263252
  H         5.3567968187        3.1753430649       10.6340788525
      50
 i =      199, E =      -412.9062263130
 Al         8.4248045373        3.0179819907        8.2642637860
 Al         5.0221859670        2.9104194846        8.1352512710
  C         6.7473673768        5.3407795176        8.1866459889
  C         7.7445737538        4.0954102885       11.0019751780
  C         3.2796380981        0.5413068786        8.1656927266
  C         3.4204374755        3.2006701463        5.7517235388
  C         3.4816108538        3.4994012023        4.2826926372
  C         4.7524558630        3.7651378796        3.7181453795
  C         4.9160188248        4.1428125912        2.4007660976
  C         3.7937169396        4.2302489748        1.5559924301
  C         2.5246685119        3.9292924274        2.0633410184
  C         2.3860975655        3.5924204370        3.4072774983
  C         8.1968105866        2.8588445663       14.6278562619
  C         6.8731652353        2.8578244152       15.0919917395
  C         5.8434123061        3.3235615724       14.2482006758
  C         6.1434857309        3.7156874802       12.9493475603
  C         7.4553954403        3.6558042267       12.4311838681
  C         8.4478333901        3.2709485055       13.3299506599
  C         6.6611543649        6.8369616839        8.1827180215
  C         3.2926766630       -0.9565787069        8.1426360651
  F         7.8233591558        3.3703068683        3.8512661317
  F         3.0479857491        3.3420167419       12.9287203460
  F         5.6134939521       -1.1251325736        8.2361157459
  F         4.3149019546        7.0461270063        8.0863433470
  H         3.4384526700        4.5893834472        8.7726571960
  H         6.8014016338        1.4198952091        7.5332803287
  H         5.6222356070        3.6822039583        4.3699015845
  H         5.8952139480        4.3852031669        2.0109274886
  H         1.6569529023        3.9661832884        1.4116063210
  H         9.0067459911        2.5395548327       15.2793226425
  H         4.8338766215        3.3964464129       14.6313813316
  H         5.3382516794        4.1265000403       12.3335760169
  N         3.8561601075        4.6425524406        0.1946168307
  N         6.7196401664        2.4090010142       16.4173156557
  O         7.8798375733        4.8484213785        7.9203845319
  O         7.5999548065        5.3050484084       10.7575796756
  O         4.3844562596        1.1268512777        7.9335669157
  O         2.3105549919        2.9435889302        6.3186607898
  O         2.1734372348        1.1028013852        8.4107976624
  O         4.5689085501        3.2311162783        6.3264697378
  O         5.6720197961        4.7048046152        8.4422616122
  O         8.0020818232        3.1305864070       10.1685365982
  O         3.4115423848        3.6156288903        8.7020090078
  O         6.7517928038        2.3648005857        7.7693694005
  O         5.2852695801        2.3881449472       10.0770980508
  C         5.4218211634        1.1967183754       10.9035458203
  H         5.1599427819        0.3264662046       10.2941519886
  H         4.7437916384        1.2624931974       11.7638559538
  H         6.4618376408        1.0989821895       11.2495825843
  H         5.3637156600        3.1773950380       10.6364198633
      50
 i =      200, E =      -412.9061603786
 Al         8.4287762555        3.0139623666        8.2599778782
 Al         5.0301466699        2.9175691401        8.1489554640
  C         6.7516593170        5.3370174107        8.2061561960
  C         7.7489689003        4.1186674257       10.9950305688
  C         3.2806531825        0.5380021745        8.1677647158
  C         3.4231634680        3.2055716050        5.7510452249
  C         3.4792730338        3.5167889979        4.2773863881
  C         4.7474138152        3.8049610181        3.7145482885
  C         4.9081813148        4.2064536245        2.4035295560
  C         3.7866840937        4.2790006407        1.5540303338
  C         2.5189437301        3.9610397562        2.0589190609
  C         2.3817360154        3.6101668360        3.4019658288
  C         8.1931305203        2.8593765561       14.6085736257
  C         6.8734992331        2.8778517186       15.0799639254
  C         5.8419365358        3.3559899135       14.2384820616
  C         6.1387816535        3.7382555558       12.9341911401
  C         7.4519498737        3.6711303181       12.4167657881
  C         8.4445203870        3.2793659719       13.3119991156
  C         6.6591267440        6.8315125795        8.1831710945
  C         3.2927014575       -0.9604806676        8.1393695574
  F         7.8238334853        3.3694907791        3.8507610729
  F         3.0483823034        3.3447136204       12.9280013848
  F         5.6108174519       -1.1251455497        8.2365815261
  F         4.3140156442        7.0443741997        8.0842936634
  H         3.4357161958        4.5980974301        8.7807884982
  H         6.7965191932        1.4333268883        7.4825311630
  H         5.6184361314        3.7195783554        4.3632445379
  H         5.8833295001        4.4794395128        2.0193643811
  H         1.6562528431        3.9917022823        1.3993065665
  H         9.0086600794        2.5280555409       15.2501080099
  H         4.8395820703        3.4654627912       14.6413352963
  H         5.3470737838        4.1717203118       12.3212901916
  N         3.8502974995        4.6937715778        0.1919483715
  N         6.7154027747        2.4321587526       16.4065874969
  O         7.8784892231        4.8490230336        7.9128123083
  O         7.6454508199        5.3305112610       10.7529349886
  O         4.3849560063        1.1279054185        7.9374227125
  O         2.3138783323        2.9422596213        6.3192246011
  O         2.1740284235        1.0938383212        8.4163121726
  O         4.5705042081        3.2352896217        6.3257162392
  O         5.6835600809        4.6976055158        8.5129938147
  O         7.9809718535        3.1502705027       10.1569858895
  O         3.4113649036        3.6229389222        8.7040549852
  O         6.7553286942        2.3665524896        7.7701191691
  O         5.2712079405        2.3901628249       10.0788775335
  C         5.5731298904        1.1978507723       10.8852311767
  H         5.4099427819        0.2989435951       10.2640381936
  H         4.8828967708        1.1635207906       11.7419666492
  H         6.6328332208        1.2188331242       11.2217151069
  H         5.3890164837        3.1803343688       10.6416487723
      50
 i =      201, E =      -412.9068151729
 Al         8.4266608313        3.0187878030        8.2624500538
 Al         5.0278311081        2.9175316809        8.1427458659
  C         6.7499141605        5.3390506658        8.2025078848
  C         7.7398818487        4.1104115292       10.9979605291
  C         3.2813143916        0.5411951081        8.1656146152
  C         3.4207151262        3.2001571860        5.7504279803
  C         3.4790548111        3.5042771768        4.2781026367
  C         4.7487783098        3.7811712855        3.7165339378
  C         4.9110814405        4.1797968918        2.4049902693
  C         3.7911805591        4.2624413910        1.5564033813
  C         2.5216887697        3.9520070254        2.0608876930
  C         2.3833248758        3.6043486766        3.4030362516
  C         8.1951126145        2.8510708995       14.6109146300
  C         6.8758595402        2.8620291530       15.0829517147
  C         5.8435062944        3.3371192165       14.2446971211
  C         6.1393981764        3.7261711341       12.9431445124
  C         7.4508230058        3.6637420923       12.4219179208
  C         8.4456697148        3.2710696903       13.3150169690
  C         6.6600084411        6.8349122801        8.1876722152
  C         3.2924519599       -0.9579899812        8.1389999780
  F         7.8239031795        3.3709442252        3.8505110865
  F         3.0489909815        3.3427860542       12.9262218690
  F         5.6118954889       -1.1244502081        8.2360979406
  F         4.3148717502        7.0458625434        8.0853421832
  H         3.4382636142        4.5973385738        8.7784347295
  H         6.7974773261        1.4301405465        7.5001516201
  H         5.6187324201        3.6921235065        4.3658617694
  H         5.8876667458        4.4425619123        2.0205114868
  H         1.6558056133        3.9907513624        1.4064656674
  H         9.0096011862        2.5231818784       15.2553261284
  H         4.8386716018        3.4347446642       14.6395491694
  H         5.3439761590        4.1537473045       12.3291066506
  N         3.8552174837        4.6784410931        0.1962512197
  N         6.7206749094        2.4132033525       16.4093402838
  O         7.8781641369        4.8506348226        7.9150292622
  O         7.6209800734        5.3208607022       10.7586353413
  O         4.3856692114        1.1281203116        7.9348602291
  O         2.3110967965        2.9436626723        6.3193605215
  O         2.1756713178        1.1019313715        8.4129913894
  O         4.5680016520        3.2360451409        6.3257183958
  O         5.6816144369        4.7004519768        8.4911204857
  O         7.9882584878        3.1470505193       10.1598333241
  O         3.4121278586        3.6237395184        8.7026733691
  O         6.7531264042        2.3663487374        7.7699351335
  O         5.2771394342        2.3905849675       10.0815219315
  C         5.5002968258        1.2066337197       10.8937287970
  H         5.2885423704        0.3300351009       10.2767136722
  H         4.8175225406        1.2214223238       11.7467928088
  H         6.5426254633        1.1703906379       11.2343107235
  H         5.3753441716        3.1813891956       10.6419931335
      50
 i =      202, E =      -412.9070174524
 Al         8.4237612396        3.0230786426        8.2655285371
 Al         5.0246591765        2.9114819394        8.1374967687
  C         6.7476861496        5.3411736602        8.1957797241
  C         7.7429460451        4.1119795401       11.0035765742
  C         3.2831862946        0.5437710418        8.1645467356
  C         3.4184448452        3.1983581574        5.7508830279
  C         3.4780898148        3.5009425961        4.2822925977
  C         4.7472821471        3.7800763418        3.7240773017
  C         4.9071255125        4.1812117789        2.4126720503
  C         3.7899046360        4.2597224429        1.5614661003
  C         2.5221293523        3.9388228694        2.0645565925
  C         2.3847054204        3.5983148262        3.4065840363
  C         8.1910386136        2.8495242683       14.6175663019
  C         6.8696253661        2.8605465853       15.0866606299
  C         5.8431734800        3.3387769327       14.2489229681
  C         6.1444339299        3.7352076778       12.9517745999
  C         7.4551784126        3.6703739966       12.4308959861
  C         8.4470448856        3.2697605436       13.3240336372
  C         6.6609662622        6.8390365619        8.1949847602
  C         3.2918418726       -0.9556028030        8.1437936673
  F         7.8236385744        3.3733361452        3.8508161515
  F         3.0490435607        3.3399536375       12.9259566524
  F         5.6134298809       -1.1241794771        8.2350527300
  F         4.3155147843        7.0469850033        8.0868852181
  H         3.4434118329        4.5882613306        8.7732066024
  H         6.8022568469        1.4286743356        7.5015910985
  H         5.6164379126        3.6959684837        4.3753147659
  H         5.8832412298        4.4497438689        2.0315650357
  H         1.6492540983        3.9690913751        1.4183869854
  H         8.9984225979        2.5181493455       15.2679275439
  H         4.8327938377        3.4221832842       14.6255465669
  H         5.3459735341        4.1535914873       12.3308769292
  N         3.8502551562        4.6762565471        0.2032647008
  N         6.7158942634        2.4049630652       16.4121459258
  O         7.8780619200        4.8509648624        7.9179780792
  O         7.6260339415        5.3233620305       10.7652477915
  O         4.3866243814        1.1273434967        7.9304997672
  O         2.3092354960        2.9424675075        6.3185644387
  O         2.1774713712        1.1098994457        8.4092913030
  O         4.5661098921        3.2354728042        6.3273153861
  O         5.6783016074        4.7039718807        8.4565099019
  O         7.9874193274        3.1500675766       10.1628223002
  O         3.4135177357        3.6167498472        8.7021643729
  O         6.7508235996        2.3652035875        7.7682121608
  O         5.2827252813        2.3887368443       10.0821992706
  C         5.5017689419        1.2011059247       10.8933250151
  H         5.2924475996        0.3286069152       10.2742667626
  H         4.8180915907        1.2158587740       11.7505319143
  H         6.5449249012        1.1668538759       11.2318655046
  H         5.3764498362        3.1789448082       10.6369607208
      50
 i =      203, E =      -412.9074746920
 Al         8.4234215145        3.0245112205        8.2640994286
 Al         5.0253027135        2.9122357158        8.1406795178
  C         6.7473024133        5.3408222459        8.2020563100
  C         7.7440694157        4.1258073874       11.0023970923
  C         3.2833121344        0.5445338791        8.1658415316
  C         3.4196033599        3.2008725715        5.7506550775
  C         3.4783598041        3.5077356454        4.2816275377
  C         4.7456490140        3.7978564809        3.7240178438
  C         4.9031337011        4.2054007681        2.4145529633
  C         3.7862382214        4.2757883832        1.5619759284
  C         2.5197026367        3.9483481807        2.0651362144
  C         2.3837401770        3.6023572180        3.4066545777
  C         8.1875090312        2.8464709891       14.6110743157
  C         6.8669898580        2.8646655157       15.0825867451
  C         5.8425616828        3.3534093415       14.2467678910
  C         6.1444151139        3.7501243325       12.9496075919
  C         7.4548500507        3.6800022930       12.4276626898
  C         8.4452691234        3.2729631109       13.3200860344
  C         6.6604992573        6.8382388264        8.1967770861
  C         3.2919824586       -0.9556847218        8.1466636976
  F         7.8234890976        3.3716277293        3.8509066150
  F         3.0484421387        3.3404077069       12.9260998844
  F         5.6135559798       -1.1249251929        8.2357581682
  F         4.3161078777        7.0468566286        8.0872195929
  H         3.4430162987        4.5887586421        8.7751381124
  H         6.8006630606        1.4346445094        7.4819587062
  H         5.6150965946        3.7132107622        4.3750598439
  H         5.8774300197        4.4871049130        2.0371858346
  H         1.6470855078        3.9728931029        1.4177533537
  H         8.9958677148        2.5104460523       15.2574149008
  H         4.8342588618        3.4442084217       14.6260812884
  H         5.3488602227        4.1755199433       12.3293567384
  N         3.8486943428        4.6941907944        0.2044866544
  N         6.7144735513        2.4085793382       16.4084369458
  O         7.8764045176        4.8515703353        7.9158903888
  O         7.6453592621        5.3385949184       10.7666876161
  O         4.3872119083        1.1269939030        7.9317993544
  O         2.3106804119        2.9433757147        6.3187911282
  O         2.1777987379        1.1117290126        8.4099912164
  O         4.5673610065        3.2354357985        6.3267721286
  O         5.6812328101        4.7015567524        8.4767452822
  O         7.9759538311        3.1648753599       10.1575847682
  O         3.4128666821        3.6173098938        8.7023933009
  O         6.7503592354        2.3659845151        7.7681885218
  O         5.2801921445        2.3892329822       10.0844603120
  C         5.5580504720        1.2021490369       10.8844109064
  H         5.3872432277        0.3238405141       10.2565061520
  H         4.8700307502        1.1772135945       11.7410445178
  H         6.6047844446        1.2141404691       11.2193784473
  H         5.3867510231        3.1809774057       10.6379238460
      50
 i =      204, E =      -412.9077273276
 Al         8.4222366004        3.0284969171        8.2645813271
 Al         5.0248170368        2.9106470483        8.1402130216
  C         6.7446809963        5.3417205539        8.2028820360
  C         7.7479894078        4.1473169583       11.0045210351
  C         3.2824291545        0.5475216249        8.1684931242
  C         3.4201633155        3.2045723792        5.7503072814
  C         3.4781706824        3.5193008942        4.2826426441
  C         4.7428614512        3.8202412894        3.7251516293
  C         4.8978445186        4.2356249272        2.4177217711
  C         3.7812108340        4.2952312653        1.5639198195
  C         2.5164011731        3.9585640282        2.0673257805
  C         2.3820680092        3.6104078149        3.4085374418
  C         8.1830174317        2.8406045120       14.6044468142
  C         6.8630489912        2.8650424855       15.0783829604
  C         5.8430911446        3.3693386159       14.2460556346
  C         6.1466368446        3.7734439244       12.9516178200
  C         7.4554787115        3.6973198193       12.4278219224
  C         8.4437708068        3.2780241973       13.3183492870
  C         6.6589937483        6.8385537114        8.1972998359
  C         3.2910125033       -0.9541650489        8.1501290560
  F         7.8223740922        3.3703255691        3.8511892051
  F         3.0478038165        3.3414126187       12.9267086672
  F         5.6127997631       -1.1256090483        8.2367533354
  F         4.3165896774        7.0469531240        8.0868275316
  H         3.4425408894        4.5867037073        8.7734799099
  H         6.8008244279        1.4420724308        7.4603985601
  H         5.6131113504        3.7391384812        4.3759721177
  H         5.8692235398        4.5294993747        2.0430745127
  H         1.6431268601        3.9780935013        1.4201022043
  H         8.9897586590        2.4948594864       15.2476904429
  H         4.8354591432        3.4645060216       14.6254647751
  H         5.3514363727        4.2041241463       12.3337806039
  N         3.8461377661        4.7127325780        0.2076137613
  N         6.7113782657        2.4064066499       16.4041066662
  O         7.8743060335        4.8527729926        7.9159495772
  O         7.6720475211        5.3628343831       10.7733770818
  O         4.3875869053        1.1261526528        7.9331871013
  O         2.3113796470        2.9452986799        6.3184878537
  O         2.1776825184        1.1179282986        8.4104994101
  O         4.5688794912        3.2349216749        6.3252004275
  O         5.6803268506        4.7010226209        8.4848486460
  O         7.9653112977        3.1834722394       10.1568444870
  O         3.4121057014        3.6153754730        8.7015725607
  O         6.7497363250        2.3663771147        7.7683805248
  O         5.2809941504        2.3885960848       10.0874335698
  C         5.6232541824        1.2033666755       10.8721375353
  H         5.4972729671        0.3246147386       10.2309637721
  H         4.9336593720        1.1308569377       11.7292145989
  H         6.6701784069        1.2699357237       11.2040041975
  H         5.3985343843        3.1834221815       10.6367723180
      50
 i =      205, E =      -412.9079667010
 Al         8.4229225185        3.0309644664        8.2666499119
 Al         5.0239864809        2.9124240327        8.1371897459
  C         6.7437943258        5.3441722618        8.2001569352
  C         7.7452359000        4.1474876069       11.0041598654
  C         3.2819691941        0.5509302465        8.1704008686
  C         3.4205856930        3.2076499381        5.7505270601
  C         3.4791619523        3.5254809807        4.2839513114
  C         4.7436899953        3.8238894937        3.7249422530
  C         4.8993567736        4.2320888968        2.4160989481
  C         3.7812594182        4.2959933493        1.5648021525
  C         2.5156089169        3.9683969615        2.0698159079
  C         2.3818678823        3.6157895405        3.4104853496
  C         8.1822287428        2.8396606656       14.6046428043
  C         6.8625423090        2.8619454356       15.0798948195
  C         5.8426010802        3.3675516623       14.2484711685
  C         6.1451811686        3.7748375921       12.9551367686
  C         7.4525389658        3.6984518132       12.4282724370
  C         8.4414518944        3.2798819440       13.3191646522
  C         6.6583111315        6.8403561419        8.1936805371
  C         3.2900019135       -0.9515721671        8.1516820400
  F         7.8224105156        3.3698791128        3.8518580982
  F         3.0458625201        3.3424211381       12.9281653884
  F         5.6127039343       -1.1255348899        8.2372346138
  F         4.3163453054        7.0472775248        8.0870235375
  H         3.4419256886        4.5903845322        8.7764093799
  H         6.8018394848        1.4452071823        7.4629656217
  H         5.6144042208        3.7420624187        4.3755480005
  H         5.8711339619        4.5180891948        2.0387114344
  H         1.6434912241        3.9936221116        1.4216016242
  H         8.9901543931        2.4951204400       15.2459804506
  H         4.8356004210        3.4569289447       14.6305029478
  H         5.3451170532        4.2039358462       12.3429798063
  N         3.8482964977        4.7119672110        0.2084917891
  N         6.7123708047        2.4043851488       16.4060132830
  O         7.8746294183        4.8533556680        7.9176644697
  O         7.6696921582        5.3633579254       10.7743103922
  O         4.3883656949        1.1273064192        7.9341383649
  O         2.3122769345        2.9462384539        6.3183660162
  O         2.1785434011        1.1238440301        8.4119141751
  O         4.5700185834        3.2337567537        6.3243886647
  O         5.6788727763        4.7026550225        8.4835831929
  O         7.9684088302        3.1802216870       10.1593980055
  O         3.4118274219        3.6187280469        8.7006911795
  O         6.7502093478        2.3688165193        7.7689980403
  O         5.2806254710        2.3895700661       10.0880007311
  C         5.6163490839        1.2079753247       10.8730203436
  H         5.4856664885        0.3364875992       10.2279444509
  H         4.9308918214        1.1389415710       11.7278517518
  H         6.6577575706        1.2711113395       11.2051261716
  H         5.3964953511        3.1845256579       10.6404568458
      50
 i =      206, E =      -412.9081613433
 Al         8.4234427761        3.0341022683        8.2709194947
 Al         5.0237617380        2.9146656500        8.1337891038
  C         6.7446376660        5.3468302120        8.1993459753
  C         7.7460999923        4.1512170220       11.0045911279
  C         3.2818194716        0.5550181683        8.1729386386
  C         3.4199788721        3.2116459267        5.7513375145
  C         3.4782684566        3.5361556674        4.2870939626
  C         4.7430805224        3.8363740061        3.7295740511
  C         4.8998943788        4.2398288533        2.4189727042
  C         3.7814569308        4.3037568490        1.5677379345
  C         2.5150123042        3.9804202130        2.0715944836
  C         2.3820346038        3.6258824422        3.4115996408
  C         8.1810436215        2.8390006482       14.6037566613
  C         6.8610183945        2.8613938712       15.0793520022
  C         5.8409069482        3.3656497860       14.2509696284
  C         6.1436677027        3.7792972824       12.9593780765
  C         7.4499166354        3.7058839227       12.4306982352
  C         8.4401126437        3.2822654725       13.3188337991
  C         6.6578441567        6.8441063895        8.1941568468
  C         3.2886403966       -0.9476198605        8.1508424585
  F         7.8236428050        3.3725958559        3.8514880125
  F         3.0442022051        3.3420940753       12.9273736366
  F         5.6127777665       -1.1240693825        8.2358245365
  F         4.3155955160        7.0481866845        8.0865784927
  H         3.4421753255        4.5946964175        8.7805258976
  H         6.8042995382        1.4501234241        7.4593874419
  H         5.6150172391        3.7594795729        4.3793709747
  H         5.8716390584        4.5213991818        2.0380221521
  H         1.6426430159        4.0091299006        1.4243276862
  H         8.9883319038        2.4891897950       15.2443314009
  H         4.8323386667        3.4504193557       14.6331437163
  H         5.3397073994        4.2080459611       12.3519578043
  N         3.8453332953        4.7147899071        0.2094062623
  N         6.7080700607        2.4038422866       16.4057797126
  O         7.8764294752        4.8546421684        7.9190942698
  O         7.6755277587        5.3675435813       10.7758980836
  O         4.3887318596        1.1295233356        7.9336196933
  O         2.3121992110        2.9459964918        6.3169470258
  O         2.1803997484        1.1319816961        8.4161208218
  O         4.5698542962        3.2353170189        6.3256879066
  O         5.6796292371        4.7048475708        8.4791103548
  O         7.9734295056        3.1794515408       10.1647323964
  O         3.4125196475        3.6231363264        8.7010878952
  O         6.7516053060        2.3720839852        7.7688377270
  O         5.2786787247        2.3904837482       10.0870369292
  C         5.6334843058        1.2127757550       10.8685404494
  H         5.5142200211        0.3459399326       10.2166378733
  H         4.9511707581        1.1323412498       11.7220206280
  H         6.6720541559        1.2907088634       11.1988998431
  H         5.3960821354        3.1858823460       10.6402507860
      50
 i =      207, E =      -412.9082645132
 Al         8.4238927287        3.0340144713        8.2742114599
 Al         5.0232730654        2.9172454557        8.1319830126
  C         6.7462390005        5.3472691450        8.1983363663
  C         7.7456822891        4.1516064572       11.0039224778
  C         3.2832631825        0.5551738793        8.1738682735
  C         3.4200947875        3.2141703814        5.7519111208
  C         3.4788520668        3.5435480128        4.2894493215
  C         4.7439217424        3.8451747304        3.7327107726
  C         4.9004101641        4.2429323155        2.4196651232
  C         3.7812734583        4.3076846672        1.5693515565
  C         2.5152072886        3.9872823824        2.0745411470
  C         2.3824915059        3.6310548645        3.4139780837
  C         8.1799763001        2.8392325418       14.6036279447
  C         6.8596980892        2.8619881940       15.0792612140
  C         5.8396959915        3.3673856785       14.2521825771
  C         6.1419778651        3.7829510112       12.9610772246
  C         7.4485606227        3.7086956918       12.4316682962
  C         8.4391220157        3.2828428807       13.3185893730
  C         6.6589636488        6.8453249016        8.1942975204
  C         3.2897733007       -0.9463157451        8.1509192704
  F         7.8241709194        3.3721689265        3.8514572611
  F         3.0434537401        3.3415805458       12.9272224560
  F         5.6136117913       -1.1234642300        8.2361826258
  F         4.3161222539        7.0487867821        8.0877043203
  H         3.4427512273        4.5974138197        8.7852732931
  H         6.8073029112        1.4520021358        7.4576354423
  H         5.6157098451        3.7718270338        4.3833172598
  H         5.8736415011        4.5176053234        2.0366044711
  H         1.6429471076        4.0189749705        1.4274566601
  H         8.9872075380        2.4869572138       15.2427763332
  H         4.8299867934        3.4469524946       14.6335459126
  H         5.3368835523        4.2123804114       12.3550373232
  N         3.8431787396        4.7142533132        0.2079799815
  N         6.7063862595        2.4058141952       16.4056362748
  O         7.8782716101        4.8546432517        7.9197525977
  O         7.6762675797        5.3673736589       10.7730818464
  O         4.3894244097        1.1309972484        7.9335231867
  O         2.3137092674        2.9461423493        6.3181265643
  O         2.1819938110        1.1319097725        8.4203442476
  O         4.5704423700        3.2363988704        6.3263516665
  O         5.6802995953        4.7061274556        8.4725827675
  O         7.9752303249        3.1778519548       10.1653283330
  O         3.4133397883        3.6261543344        8.7021349302
  O         6.7525190416        2.3733795500        7.7695989924
  O         5.2757210616        2.3907336317       10.0847767127
  C         5.6411773924        1.2137760877       10.8630890722
  H         5.5281491092        0.3501548943       10.2075904776
  H         4.9592434979        1.1283329723       11.7166224713
  H         6.6796524572        1.2984562464       11.1924727304
  H         5.3945555000        3.1845845028       10.6386950677
      50
 i =      208, E =      -412.9083965442
 Al         8.4250089619        3.0346717281        8.2779973838
 Al         5.0231847261        2.9212006024        8.1309703994
  C         6.7463811634        5.3472799194        8.1969067574
  C         7.7449836868        4.1546463028       11.0049297788
  C         3.2847229935        0.5549962683        8.1755634233
  C         3.4206368123        3.2174316114        5.7531827283
  C         3.4794364665        3.5524551211        4.2923648949
  C         4.7445682741        3.8604765749        3.7374735401
  C         4.9024660790        4.2545415088        2.4225559474
  C         3.7829467440        4.3156133341        1.5728927492
  C         2.5171593599        3.9943939958        2.0776310165
  C         2.3834279913        3.6380871120        3.4162233106
  C         8.1797142031        2.8388610733       14.6031512816
  C         6.8597526129        2.8610842054       15.0785704364
  C         5.8383370419        3.3635090939       14.2519994653
  C         6.1390354172        3.7819644867       12.9614696411
  C         7.4469920286        3.7111459040       12.4327815552
  C         8.4379356940        3.2835588127       13.3183310432
  C         6.6599846893        6.8464880765        8.1926477448
  C         3.2910248821       -0.9453659876        8.1499060288
  F         7.8251802318        3.3729491537        3.8504871940
  F         3.0429245519        3.3413809151       12.9276590878
  F         5.6144960929       -1.1230479134        8.2358990482
  F         4.3165741878        7.0488215837        8.0879094744
  H         3.4421584425        4.6043044146        8.7907372921
  H         6.8095931351        1.4534330647        7.4577399039
  H         5.6157808942        3.7913857967        4.3891907064
  H         5.8771249778        4.5260006227        2.0377684142
  H         1.6460712006        4.0274047377        1.4293081893
  H         8.9870059779        2.4832343531       15.2398062639
  H         4.8272866295        3.4351481734       14.6334900215
  H         5.3329437773        4.2105538427       12.3557726183
  N         3.8433853824        4.7158495679        0.2076785111
  N         6.7068458461        2.4059511393       16.4046998238
  O         7.8781714991        4.8552494913        7.9201226189
  O         7.6783930702        5.3702258059       10.7747267800
  O         4.3893498895        1.1322059818        7.9314004462
  O         2.3144465532        2.9461972131        6.3171398699
  O         2.1848394682        1.1317981539        8.4311155854
  O         4.5718961231        3.2383398191        6.3272999592
  O         5.6799578264        4.7065340827        8.4689864601
  O         7.9747165572        3.1818828363       10.1648355390
  O         3.4143199823        3.6336800136        8.7016949619
  O         6.7543291321        2.3741696250        7.7701654366
  O         5.2700484318        2.3924619300       10.0813777131
  C         5.6590968631        1.2172351900       10.8523111841
  H         5.5594015493        0.3544036884       10.1919112458
  H         4.9790052705        1.1210448926       11.7063531361
  H         6.6973753277        1.3175297362       11.1823730286
  H         5.3904920556        3.1849089993       10.6342934900
      50
 i =      209, E =      -412.9085068175
 Al         8.4289542257        3.0346439725        8.2918927636
 Al         5.0232323155        2.9340673925        8.1297161397
  C         6.7477222816        5.3470923052        8.1924979425
  C         7.7399770966        4.1616800872       11.0063363462
  C         3.2889785231        0.5550845566        8.1886211743
  C         3.4226360797        3.2268230547        5.7565541821
  C         3.4811576531        3.5795547381        4.3005468642
  C         4.7462785507        3.9019509770        3.7506330445
  C         4.9079235210        4.2869274153        2.4309307441
  C         3.7872164257        4.3411398581        1.5838429815
  C         2.5221625392        4.0192614700        2.0877156085
  C         2.3851367510        3.6577378374        3.4234033699
  C         8.1750909621        2.8385990683       14.6005265855
  C         6.8570378495        2.8622251060       15.0779252086
  C         5.8308606398        3.3607252249       14.2528775102
  C         6.1283241923        3.7821679934       12.9622100823
  C         7.4400277337        3.7192770916       12.4350502965
  C         8.4323398545        3.2877154570       13.3162939454
  C         6.6615691708        6.8491786813        8.1885605982
  C         3.2943323638       -0.9426891299        8.1479202547
  F         7.8280787320        3.3733743218        3.8492131027
  F         3.0404423484        3.3414683133       12.9286040225
  F         5.6158032026       -1.1222114258        8.2362021529
  F         4.3171695281        7.0490274552        8.0894745363
  H         3.4426896829        4.6278235599        8.8136108459
  H         6.8175102462        1.4570096489        7.4535619610
  H         5.6149504651        3.8470631899        4.4067961693
  H         5.8866530482        4.5453207909        2.0398396002
  H         1.6540953027        4.0575182203        1.4360996557
  H         8.9804061603        2.4686571483       15.2301989957
  H         4.8170502795        3.4155067920       14.6375113364
  H         5.3211882739        4.2104173750       12.3580486417
  N         3.8423131057        4.7243933400        0.2086030064
  N         6.7061167833        2.4119001414       16.4029895573
  O         7.8779993214        4.8569541275        7.9190019311
  O         7.6803018762        5.3753966311       10.7733494374
  O         4.3881476966        1.1361931287        7.9266275264
  O         2.3187830667        2.9445381099        6.3170525183
  O         2.1951133879        1.1295200467        8.4854696707
  O         4.5765857681        3.2429467215        6.3294875634
  O         5.6804438099        4.7081539450        8.4640403077
  O         7.9734306785        3.1897964585       10.1656210570
  O         3.4173820461        3.6597601470        8.7004347875
  O         6.7600025915        2.3757469196        7.7734402812
  O         5.2469528774        2.3974909326       10.0722059142
  C         5.7091972992        1.2260661363       10.8183708125
  H         5.6530861351        0.3691724835       10.1393546024
  H         5.0340421490        1.0933169662       11.6744382599
  H         6.7475620038        1.3698300419       11.1471317829
  H         5.3758771595        3.1845243431       10.6269275675
      50
 i =      210, E =      -412.9087694956
 Al         8.4265415283        3.0349337581        8.2848536634
 Al         5.0230374432        2.9271498199        8.1318403216
  C         6.7465746120        5.3467757191        8.1949457444
  C         7.7408697377        4.1567670325       11.0060324031
  C         3.2869178576        0.5548514379        8.1843522205
  C         3.4214715191        3.2206236032        5.7550788054
  C         3.4799417103        3.5623924870        4.2959271678
  C         4.7449654498        3.8758158386        3.7432669010
  C         4.9047886271        4.2666960512        2.4269565463
  C         3.7851831238        4.3269770174        1.5784597705
  C         2.5194011760        4.0070705815        2.0829295267
  C         2.3838718285        3.6457903124        3.4196900152
  C         8.1773177013        2.8374441672       14.6019163459
  C         6.8585193763        2.8620530410       15.0788411985
  C         5.8342477385        3.3623579997       14.2524248843
  C         6.1340364324        3.7794543015       12.9609948610
  C         7.4440651668        3.7119761967       12.4335237939
  C         8.4356313640        3.2842617221       13.3173210300
  C         6.6604552036        6.8468120398        8.1904364864
  C         3.2931893813       -0.9445999081        8.1513133991
  F         7.8263810057        3.3725300544        3.8504129161
  F         3.0422380613        3.3417645072       12.9280486399
  F         5.6149938479       -1.1232922611        8.2362036661
  F         4.3172844574        7.0493081408        8.0886575871
  H         3.4436517647        4.6162147866        8.8021790270
  H         6.8117241767        1.4531501968        7.4564610950
  H         5.6141573307        3.8115551525        4.3977098343
  H         5.8814556308        4.5320656588        2.0400687144
  H         1.6497001021        4.0433400240        1.4332077196
  H         8.9824884244        2.4747146707       15.2359193951
  H         4.8225739180        3.4308982290       14.6363305477
  H         5.3296182976        4.2087875627       12.3544833824
  N         3.8440034999        4.7232561941        0.2103601034
  N         6.7073753190        2.4091373478       16.4043400433
  O         7.8771890671        4.8564177521        7.9184103648
  O         7.6739038246        5.3709040079       10.7738617062
  O         4.3885138980        1.1331399611        7.9305207497
  O         2.3160059375        2.9455050645        6.3175972412
  O         2.1908307432        1.1307117344        8.4564264391
  O         4.5738036372        3.2404232846        6.3285106513
  O         5.6802100130        4.7069899209        8.4693068456
  O         7.9732702969        3.1859344689       10.1649973517
  O         3.4156196092        3.6470827267        8.7003558598
  O         6.7567716101        2.3734688131        7.7724248324
  O         5.2549217901        2.3943812605       10.0775472859
  C         5.6739124797        1.2198680139       10.8356522490
  H         5.5917942869        0.3611692758       10.1668210808
  H         4.9970954195        1.1096548800       11.6915209051
  H         6.7119420995        1.3338207073       11.1648046063
  H         5.3785113620        3.1834100598       10.6333450522
      50
 i =      211, E =      -412.9089954936
 Al         8.4266154542        3.0362507453        8.2867851732
 Al         5.0220171507        2.9284632634        8.1334498732
  C         6.7460883462        5.3474865775        8.1949815706
  C         7.7382887496        4.1561315197       11.0066264266
  C         3.2874931251        0.5560230397        8.1897863265
  C         3.4213758685        3.2210021439        5.7559641694
  C         3.4795470159        3.5642384426        4.2969775575
  C         4.7444460539        3.8789350595        3.7450186375
  C         4.9049056197        4.2697563936        2.4292246908
  C         3.7857420751        4.3307710079        1.5805358960
  C         2.5194327231        4.0115856635        2.0845065948
  C         2.3834932018        3.6481162812        3.4206256010
  C         8.1767867818        2.8364383424       14.6026361979
  C         6.8584956684        2.8619832064       15.0799690324
  C         5.8335562687        3.3603699705       14.2525525336
  C         6.1337039908        3.7753721611       12.9607602509
  C         7.4440329073        3.7096142364       12.4338198567
  C         8.4354846605        3.2830046726       13.3182295876
  C         6.6601074035        6.8471101216        8.1909025733
  C         3.2930129142       -0.9442585021        8.1539340473
  F         7.8261937832        3.3726870197        3.8504803020
  F         3.0421982107        3.3417635030       12.9286919843
  F         5.6150595896       -1.1232047970        8.2362914025
  F         4.3173244925        7.0495540633        8.0890502609
  H         3.4447186423        4.6216909380        8.8049437971
  H         6.8103299678        1.4530406596        7.4571660140
  H         5.6127889009        3.8144375305        4.4005258403
  H         5.8817745066        4.5352264367        2.0430861402
  H         1.6502135442        4.0486783275        1.4342316478
  H         8.9806592069        2.4720394521       15.2367170123
  H         4.8224551349        3.4300950903       14.6365722589
  H         5.3302626997        4.2040420667       12.3530111733
  N         3.8457845258        4.7291400983        0.2138575713
  N         6.7084016165        2.4094412304       16.4059132751
  O         7.8762292752        4.8571294985        7.9175068772
  O         7.6687756183        5.3704056577       10.7754981117
  O         4.3878013311        1.1333334456        7.9299105425
  O         2.3156034487        2.9453469760        6.3180625944
  O         2.1945810776        1.1335905355        8.4686971576
  O         4.5737738148        3.2401994556        6.3290199671
  O         5.6805082847        4.7072989607        8.4710226107
  O         7.9719022541        3.1864978851       10.1647659570
  O         3.4151768065        3.6534324292        8.6987262497
  O         6.7566146432        2.3735741357        7.7729474933
  O         5.2452443225        2.3947097984       10.0773168357
  C         5.6734531234        1.2205194946       10.8315365822
  H         5.5957399168        0.3635956009       10.1603881629
  H         4.9995213514        1.1068979672       11.6883558523
  H         6.7116679723        1.3365814922       11.1594240369
  H         5.3689748594        3.1826102834       10.6351308638
      50
 i =      212, E =      -412.9090350441
 Al         8.4285087592        3.0375019502        8.2922738685
 Al         5.0197556806        2.9297489762        8.1415690585
  C         6.7455162124        5.3489164088        8.1955562217
  C         7.7333032578        4.1597961199       11.0068210206
  C         3.2905841639        0.5576608488        8.2048401080
  C         3.4215765819        3.2236715602        5.7581036872
  C         3.4769735417        3.5758404343        4.2994753465
  C         4.7406584925        3.8913517801        3.7478418466
  C         4.9001825157        4.2860579784        2.4344177570
  C         3.7821660635        4.3493721430        1.5840874867
  C         2.5148305955        4.0287552819        2.0878304494
  C         2.3801426615        3.6576892250        3.4228600450
  C         8.1728242919        2.8281870491       14.5998724222
  C         6.8560529280        2.8644588421       15.0809948567
  C         5.8330445864        3.3728037973       14.2542487696
  C         6.1361523520        3.7808913870       12.9616029862
  C         7.4447890478        3.7105055161       12.4337271284
  C         8.4351528050        3.2813067574       13.3181733426
  C         6.6582897376        6.8453184395        8.1946769323
  C         3.2923342474       -0.9449752451        8.1639385209
  F         7.8244898604        3.3721605189        3.8518242292
  F         3.0421004474        3.3426367360       12.9285361138
  F         5.6134245366       -1.1238238042        8.2368916119
  F         4.3175734774        7.0506127480        8.0889402440
  H         3.4454995489        4.6366296589        8.8104703542
  H         6.8072217155        1.4561085885        7.4424321396
  H         5.6083938870        3.8295236418        4.4045524439
  H         5.8753449640        4.5533032545        2.0491788206
  H         1.6447070629        4.0656111456        1.4382057778
  H         8.9699978847        2.4512875536       15.2350498935
  H         4.8252686044        3.4604666463       14.6397457631
  H         5.3374272586        4.2137444817       12.3526068180
  N         3.8446342693        4.7560490627        0.2236570089
  N         6.7057265033        2.4101368800       16.4075837490
  O         7.8738307717        4.8572676333        7.9133726946
  O         7.6579016463        5.3737167541       10.7745633589
  O         4.3870279503        1.1329499448        7.9297887391
  O         2.3160633121        2.9425573767        6.3206029858
  O         2.2032401299        1.1330599576        8.4974642511
  O         4.5733653828        3.2377269241        6.3307391561
  O         5.6820944022        4.7079511976        8.4803605167
  O         7.9674677546        3.1867212103       10.1670270502
  O         3.4125178678        3.6701723645        8.6942534770
  O         6.7570563135        2.3728277408        7.7761907367
  O         5.2072477712        2.3931556090       10.0805377659
  C         5.6855980974        1.2182804639       10.8147247907
  H         5.6399500191        0.3681421718       10.1274263029
  H         5.0182746489        1.0712008718       11.6767515274
  H         6.7246726388        1.3555354257       11.1329925285
  H         5.3376128582        3.1788127639       10.6435769884
      50
 i =      213, E =      -412.9093162793
 Al         8.4270875541        3.0379361320        8.2867517262
 Al         5.0198482734        2.9261260964        8.1385369653
  C         6.7447556506        5.3481861646        8.1948461295
  C         7.7363836210        4.1534110814       11.0078911990
  C         3.2864452954        0.5569804191        8.1989093229
  C         3.4208583706        3.2200114282        5.7573898502
  C         3.4771940144        3.5663382001        4.2981216451
  C         4.7416909811        3.8818877167        3.7465572688
  C         4.9010798466        4.2754492921        2.4328723058
  C         3.7836648115        4.3341246228        1.5806981661
  C         2.5167330895        4.0096662706        2.0845987873
  C         2.3809219302        3.6480812145        3.4211759713
  C         8.1760939503        2.8332799038       14.6031232580
  C         6.8584382689        2.8601595939       15.0814356944
  C         5.8352745320        3.3607631732       14.2529739094
  C         6.1366909579        3.7725910746       12.9611036555
  C         7.4453911455        3.7051683901       12.4341810817
  C         8.4367730078        3.2810272032       13.3199775727
  C         6.6580316410        6.8445116358        8.1945647958
  C         3.2907639249       -0.9459852141        8.1596821362
  F         7.8240281010        3.3725327368        3.8515579255
  F         3.0428789017        3.3424739797       12.9280021712
  F         5.6132887663       -1.1243077185        8.2363471487
  F         4.3167697598        7.0499310058        8.0881528687
  H         3.4447962367        4.6274574532        8.8054297889
  H         6.8066236929        1.4537035212        7.4553414360
  H         5.6102345809        3.8197200337        4.4022962889
  H         5.8757256415        4.5486641986        2.0493935416
  H         1.6466039682        4.0397089951        1.4348068268
  H         8.9765720688        2.4668436697       15.2405596585
  H         4.8267245395        3.4439498016       14.6361227089
  H         5.3349474876        4.2015258252       12.3521909392
  N         3.8463904823        4.7405945213        0.2206097684
  N         6.7077783867        2.4062607775       16.4083802161
  O         7.8747245344        4.8568794799        7.9141517946
  O         7.6591422041        5.3681664566       10.7765646806
  O         4.3844371238        1.1336011979        7.9295907577
  O         2.3149401219        2.9422517216        6.3215308689
  O         2.1965615795        1.1324187443        8.4892913848
  O         4.5722902703        3.2371722717        6.3298074430
  O         5.6800471671        4.7076214384        8.4755949066
  O         7.9698426058        3.1834137018       10.1667987473
  O         3.4119138032        3.6599418729        8.6964155003
  O         6.7554497733        2.3724184925        7.7743356028
  O         5.2228133109        2.3931411531       10.0818700331
  C         5.6674987151        1.2183890312       10.8228766705
  H         5.6029062324        0.3669622742       10.1416883219
  H         4.9993247846        1.0888588641       11.6842823044
  H         6.7063586740        1.3410260009       11.1460889208
  H         5.3466847963        3.1812600305       10.6403048801
      50
 i =      214, E =      -412.9093865597
 Al         8.4269551752        3.0402591691        8.2836477814
 Al         5.0207111632        2.9243244447        8.1353341392
  C         6.7449919206        5.3487666624        8.1955873940
  C         7.7401883218        4.1541496945       11.0080676921
  C         3.2852061101        0.5576703352        8.1963833103
  C         3.4200767821        3.2186111189        5.7567202610
  C         3.4775159708        3.5616109441        4.2978933067
  C         4.7414116473        3.8786861826        3.7458768969
  C         4.8996184244        4.2763189565        2.4329346047
  C         3.7821549687        4.3340587906        1.5806728028
  C         2.5163674457        4.0079765733        2.0849951766
  C         2.3816313420        3.6440997257        3.4212293845
  C         8.1756265442        2.8334091882       14.6041295757
  C         6.8568612678        2.8613935098       15.0819825758
  C         5.8351250837        3.3651006110       14.2537600681
  C         6.1371042677        3.7769531080       12.9616844967
  C         7.4457465030        3.7063277093       12.4343051425
  C         8.4366914504        3.2809629565       13.3207048474
  C         6.6578918568        6.8454662840        8.1946315140
  C         3.2900635022       -0.9454089972        8.1601948634
  F         7.8243747085        3.3719605993        3.8522053086
  F         3.0424021977        3.3417192215       12.9285513445
  F         5.6136625548       -1.1239226959        8.2364923212
  F         4.3162954503        7.0499019948        8.0890306140
  H         3.4449833548        4.6232469791        8.8036127543
  H         6.8075124450        1.4545979375        7.4547828424
  H         5.6104198009        3.8141432280        4.4007703430
  H         5.8736792388        4.5542543013        2.0516011989
  H         1.6453611560        4.0351756214        1.4366284729
  H         8.9783657702        2.4710232717       15.2411298329
  H         4.8264859549        3.4473808808       14.6367438191
  H         5.3338097256        4.2049543979       12.3541810381
  N         3.8442469701        4.7435224833        0.2214717512
  N         6.7067863042        2.4062896787       16.4086510892
  O         7.8755722916        4.8572381295        7.9153811399
  O         7.6679971408        5.3694163208       10.7760264368
  O         4.3854041189        1.1334659437        7.9311236174
  O         2.3139196426        2.9444016927        6.3214397457
  O         2.1939406360        1.1352230952        8.4782465645
  O         4.5712968058        3.2371347257        6.3292605484
  O         5.6805335886        4.7073597429        8.4740889781
  O         7.9711387367        3.1834080965       10.1667515444
  O         3.4127038372        3.6548374157        8.6983611549
  O         6.7555082170        2.3727888707        7.7741478237
  O         5.2315565460        2.3923216139       10.0832140228
  C         5.6762180454        1.2153287735       10.8240254202
  H         5.6130826203        0.3650974864       10.1432073854
  H         5.0084337824        1.0824304283       11.6855930337
  H         6.7148386579        1.3438651687       11.1480793650
  H         5.3558277318        3.1805130752       10.6421398822
      50
 i =      215, E =      -412.9094862979
 Al         8.4280381815        3.0408661747        8.2821721864
 Al         5.0209128154        2.9244774698        8.1355525803
  C         6.7455081304        5.3484861952        8.1959173966
  C         7.7412835270        4.1521935429       11.0079119571
  C         3.2848340256        0.5569513076        8.1962045539
  C         3.4194977171        3.2191010834        5.7569988173
  C         3.4765963530        3.5623134216        4.2981124083
  C         4.7404744634        3.8783168151        3.7461617945
  C         4.8988321994        4.2775254121        2.4332509168
  C         3.7814634003        4.3362410580        1.5807079549
  C         2.5156944147        4.0094155986        2.0844332961
  C         2.3814001071        3.6450476008        3.4207223664
  C         8.1772619259        2.8323525640       14.6042112886
  C         6.8581235277        2.8607596341       15.0817570301
  C         5.8362991357        3.3653042978       14.2543924864
  C         6.1381006161        3.7764560428       12.9619264469
  C         7.4465366962        3.7047876283       12.4342204932
  C         8.4377664919        3.2795814100       13.3203363959
  C         6.6583239076        6.8451317166        8.1945194412
  C         3.2906713755       -0.9457100303        8.1601358633
  F         7.8242977648        3.3723141905        3.8517545009
  F         3.0428772348        3.3414757177       12.9280474642
  F         5.6137479165       -1.1236379644        8.2362078844
  F         4.3168344028        7.0499400677        8.0884261669
  H         3.4441513032        4.6252027272        8.8028708297
  H         6.8072169807        1.4544054331        7.4557708681
  H         5.6097329090        3.8145492270        4.4007430621
  H         5.8727868787        4.5549178861        2.0521027118
  H         1.6444953904        4.0370514167        1.4364733380
  H         8.9811787629        2.4714038289       15.2413195865
  H         4.8278133570        3.4497271736       14.6381833942
  H         5.3348981027        4.2056749950       12.3552795200
  N         3.8435850583        4.7445017857        0.2212066876
  N         6.7064175749        2.4060759908       16.4083879957
  O         7.8761066805        4.8571245654        7.9156277368
  O         7.6660915463        5.3665612071       10.7752214006
  O         4.3849523004        1.1336003976        7.9310650608
  O         2.3131459350        2.9442491783        6.3211644473
  O         2.1925700842        1.1329557034        8.4761859284
  O         4.5705716238        3.2368542000        6.3293836721
  O         5.6809909356        4.7070638916        8.4736392028
  O         7.9730965841        3.1824509774       10.1663511195
  O         3.4129968762        3.6564959740        8.6985198267
  O         6.7555840181        2.3729640531        7.7746007783
  O         5.2268100698        2.3913129443       10.0843120566
  C         5.6731290675        1.2135859459       10.8206275611
  H         5.6110563843        0.3662096637       10.1369708391
  H         5.0077352044        1.0779186398       11.6834857875
  H         6.7108414652        1.3429945384       11.1439264650
  H         5.3499903361        3.1788313675       10.6444529595
      50
 i =      216, E =      -412.9096601936
 Al         8.4290923546        3.0453981427        8.2784545739
 Al         5.0203013234        2.9257904882        8.1356535030
  C         6.7455145873        5.3489253577        8.1973777494
  C         7.7440024862        4.1495683305       11.0082221258
  C         3.2844539457        0.5565828011        8.1953647201
  C         3.4182343266        3.2199292443        5.7572179739
  C         3.4746850045        3.5657730587        4.2987857232
  C         4.7379063284        3.8887062606        3.7490488151
  C         4.8949543564        4.2907963058        2.4369275173
  C         3.7784248117        4.3427615383        1.5821385215
  C         2.5137293917        4.0089589452        2.0837492288
  C         2.3802091063        3.6466173865        3.4205103243
  C         8.1810328760        2.8314706074       14.6056001983
  C         6.8617650835        2.8587007466       15.0830996006
  C         5.8406972861        3.3626676068       14.2563875925
  C         6.1407843813        3.7733528619       12.9632925298
  C         7.4479472744        3.7017872901       12.4346167981
  C         8.4396855443        3.2779154348       13.3207628206
  C         6.6584101604        6.8454037225        8.1962601420
  C         3.2903237901       -0.9458284023        8.1609758330
  F         7.8237139839        3.3716249724        3.8515237647
  F         3.0433615609        3.3421802536       12.9280160520
  F         5.6138553368       -1.1234412081        8.2365786229
  F         4.3169387822        7.0496129772        8.0884169389
  H         3.4432767673        4.6316877768        8.8002240605
  H         6.8063633340        1.4553365154        7.4591628347
  H         5.6070101931        3.8264251082        4.4042538444
  H         5.8679089816        4.5776532256        2.0597073098
  H         1.6430742866        4.0309713638        1.4346303229
  H         8.9878961159        2.4759111357       15.2440058988
  H         4.8325854171        3.4499338191       14.6407772796
  H         5.3366021057        4.2038649020       12.3580706277
  N         3.8432316122        4.7513398232        0.2228510996
  N         6.7063289828        2.4043963182       16.4093460214
  O         7.8761746966        4.8575212552        7.9157025042
  O         7.6682269308        5.3656670755       10.7757070975
  O         4.3849216585        1.1346146817        7.9315941516
  O         2.3123782045        2.9445762707        6.3231815862
  O         2.1918064997        1.1329391374        8.4722382977
  O         4.5691771828        3.2358497017        6.3287933739
  O         5.6807126715        4.7079963944        8.4740329086
  O         7.9745428944        3.1798844809       10.1653717659
  O         3.4128738941        3.6624746465        8.6972482465
  O         6.7541884496        2.3739822593        7.7753225951
  O         5.2117600266        2.3905556637       10.0885379543
  C         5.6836808997        1.2113934317       10.8047216120
  H         5.6391504860        0.3727803123       10.1074581153
  H         5.0275390745        1.0515683103       11.6721144098
  H         6.7198254802        1.3621810858       11.1253092621
  H         5.3330554557        3.1772976175       10.6498104590
      50
 i =      217, E =      -412.9097407632
 Al         8.4300038279        3.0458627323        8.2771632234
 Al         5.0204268358        2.9264194678        8.1341779931
  C         6.7458999235        5.3487844446        8.1963483786
  C         7.7459422886        4.1503934466       11.0084460388
  C         3.2849648215        0.5564808074        8.1921571005
  C         3.4174897085        3.2205967103        5.7571531833
  C         3.4732731905        3.5670900410        4.2988959316
  C         4.7361610460        3.8896603617        3.7496825219
  C         4.8938245105        4.2953802817        2.4384552302
  C         3.7776504299        4.3510401585        1.5840759165
  C         2.5128756705        4.0174414078        2.0849436713
  C         2.3792718859        3.6499444886        3.4207145886
  C         8.1821322672        2.8319119097       14.6061357245
  C         6.8629477282        2.8609270755       15.0845776438
  C         5.8428339287        3.3680487583       14.2578165986
  C         6.1422946123        3.7776483383       12.9640505619
  C         7.4493691426        3.7033783659       12.4349447164
  C         8.4406161737        3.2780376331       13.3209483003
  C         6.6585760777        6.8456777684        8.1950606073
  C         3.2907259291       -0.9454144145        8.1582626101
  F         7.8235987162        3.3723171110        3.8513641164
  F         3.0443829323        3.3414156334       12.9279043520
  F         5.6140765533       -1.1236883487        8.2361140079
  F         4.3174510264        7.0495706343        8.0881024748
  H         3.4443666171        4.6317983990        8.7992356765
  H         6.8077348702        1.4544609242        7.4626063955
  H         5.6051075901        3.8256434113        4.4044202709
  H         5.8664535206        4.5805263664        2.0607292242
  H         1.6415180389        4.0431500069        1.4369723579
  H         8.9905862297        2.4777715122       15.2434686668
  H         4.8352856145        3.4552134049       14.6440140746
  H         5.3385016636        4.2097366887       12.3599664306
  N         3.8432041415        4.7580476380        0.2240397615
  N         6.7070483113        2.4068348778       16.4105383577
  O         7.8765147917        4.8570082907        7.9160640640
  O         7.6700426236        5.3649865960       10.7753817984
  O         4.3860288746        1.1342269692        7.9299176733
  O         2.3120954910        2.9438616716        6.3230817843
  O         2.1913209285        1.1314299278        8.4699185915
  O         4.5687865508        3.2363107220        6.3279089292
  O         5.6811494687        4.7076085827        8.4728329358
  O         7.9761465281        3.1815813922       10.1646417169
  O         3.4145966965        3.6624556885        8.6974570132
  O         6.7535387480        2.3745266083        7.7761934536
  O         5.2050441101        2.3859035103       10.0899664070
  C         5.6883365233        1.2043572387       10.7949828811
  H         5.6494531127        0.3711811573       10.0919353820
  H         5.0371167706        1.0342840839       11.6639039031
  H         6.7241222903        1.3643906111       11.1151821283
  H         5.3246314562        3.1691852621       10.6567107323
      50
 i =      218, E =      -412.9098844023
 Al         8.4303191263        3.0466528094        8.2773146893
 Al         5.0204930755        2.9286895240        8.1330056117
  C         6.7459468803        5.3486603112        8.1953911866
  C         7.7462334845        4.1501719598       11.0088405366
  C         3.2855318976        0.5566532305        8.1894068428
  C         3.4171155624        3.2204333423        5.7566654047
  C         3.4725821365        3.5680311211        4.2987648668
  C         4.7351827096        3.8937712682        3.7512734497
  C         4.8934451213        4.3037102665        2.4415968734
  C         3.7777012010        4.3602158937        1.5874128958
  C         2.5127671585        4.0257023985        2.0867011844
  C         2.3784463955        3.6533556004        3.4212722119
  C         8.1843402670        2.8367128685       14.6086961059
  C         6.8653698272        2.8667833144       15.0874528819
  C         5.8447160829        3.3723623930       14.2605073018
  C         6.1434164224        3.7793571161       12.9655186422
  C         7.4504495621        3.7041236108       12.4361443374
  C         8.4410791630        3.2801690366       13.3223689415
  C         6.6586751343        6.8461511325        8.1929798305
  C         3.2912137000       -0.9450522028        8.1554108803
  F         7.8239145625        3.3722324481        3.8512415585
  F         3.0448627525        3.3414813199       12.9280060641
  F         5.6143815654       -1.1240076626        8.2354577624
  F         4.3172382316        7.0494168678        8.0880871911
  H         3.4463452068        4.6335429730        8.7986960866
  H         6.8088373886        1.4507895229        7.4730700001
  H         5.6033009846        3.8261554740        4.4064341231
  H         5.8661443770        4.5897054589        2.0640023661
  H         1.6412224537        4.0544550018        1.4385423787
  H         8.9940239252        2.4844360549       15.2454629816
  H         4.8371933096        3.4573095670       14.6476976731
  H         5.3399168569        4.2105993697       12.3609772648
  N         3.8448540059        4.7656202475        0.2258948412
  N         6.7086500260        2.4133268601       16.4133288081
  O         7.8768145362        4.8575417765        7.9152539671
  O         7.6704354788        5.3643344161       10.7746294228
  O         4.3864141013        1.1342339717        7.9280051998
  O         2.3120364230        2.9440274642        6.3230448131
  O         2.1924962619        1.1319645504        8.4698967725
  O         4.5687182554        3.2371043471        6.3271036458
  O         5.6814369495        4.7076619880        8.4716757546
  O         7.9767949702        3.1820404919       10.1645131262
  O         3.4168467065        3.6640759787        8.6967588509
  O         6.7529981256        2.3746984694        7.7768773574
  O         5.1903736992        2.3787615933       10.0921367827
  C         5.6933630658        1.1939857795       10.7759683672
  H         5.6645031556        0.3698879816       10.0609588437
  H         5.0510266167        1.0051087765       11.6474445736
  H         6.7287550537        1.3677839531       11.0945535477
  H         5.3055022983        3.1562867539       10.6680901184
      50
 i =      219, E =      -412.9080349683
 Al         8.4305679727        3.0513801512        8.2787945776
 Al         5.0160215996        2.9458422066        8.1281054196
  C         6.7451545226        5.3498127320        8.1897526212
  C         7.7460823306        4.1487142438       11.0106262945
  C         3.2896067122        0.5617712716        8.1759205082
  C         3.4141030958        3.2219773469        5.7540840462
  C         3.4674353143        3.5824786379        4.2984621851
  C         4.7283660984        3.9291054825        3.7634061563
  C         4.8901495561        4.3734026672        2.4664738695
  C         3.7778981673        4.4363851132        1.6119834774
  C         2.5105280221        4.0944962130        2.0999649212
  C         2.3713594486        3.6851873266        3.4257018162
  C         8.2016699275        2.8736328642       14.6285903885
  C         6.8858803143        2.9085915733       15.1109061743
  C         5.8622016955        3.3981984304       14.2774093117
  C         6.1555471993        3.7827628394       12.9735652027
  C         7.4612225182        3.7056262262       12.4427633348
  C         8.4486066445        3.2923014327       13.3324726224
  C         6.6577743874        6.8498740825        8.1825786220
  C         3.2932088497       -0.9406823823        8.1393136258
  F         7.8245172758        3.3732761289        3.8502383171
  F         3.0512072371        3.3411916524       12.9291685811
  F         5.6154075451       -1.1255428266        8.2328083501
  F         4.3162777654        7.0494177179        8.0885179169
  H         3.4598964209        4.6481208884        8.7922980944
  H         6.8096392053        1.4241973436        7.5540551670
  H         5.5907465093        3.8373199421        4.4221541252
  H         5.8630753491        4.6708246027        2.0935091240
  H         1.6397779125        4.1459534362        1.4482537906
  H         9.0179080281        2.5375378881       15.2641208282
  H         4.8556956618        3.4740671354       14.6703463775
  H         5.3553860282        4.2081700447       12.3639272940
  N         3.8599638535        4.8301201414        0.2423994535
  N         6.7238032076        2.4689394864       16.4399411844
  O         7.8755756161        4.8596569537        7.9092935035
  O         7.6681388348        5.3608415090       10.7716664940
  O         4.3892982426        1.1334696208        7.9148097119
  O         2.3108869792        2.9450315965        6.3224893784
  O         2.2018751503        1.1398856439        8.4751253882
  O         4.5676355108        3.2406082054        6.3218351816
  O         5.6843834036        4.7087086503        8.4704103558
  O         7.9785842716        3.1830720822       10.1626768017
  O         3.4272738636        3.6788093972        8.6914722491
  O         6.7464310250        2.3757817732        7.7842969868
  O         5.0588805266        2.3217394189       10.1082458827
  C         5.7376547989        1.1132216513       10.6294514529
  H         5.7928908845        0.3606514946        9.8269353548
  H         5.1696650398        0.7707043579       11.5215204170
  H         6.7744221885        1.3979724350       10.9303993401
  H         5.1389167161        3.0546354568       10.7568764383
      50
 i =      220, E =      -412.9101563755
 Al         8.4292826815        3.0453576783        8.2781071284
 Al         5.0187279629        2.9327220033        8.1324245366
  C         6.7454593428        5.3488036930        8.1945293589
  C         7.7423593477        4.1470915933       11.0084125700
  C         3.2864352674        0.5578044619        8.1858391887
  C         3.4172650400        3.2186592885        5.7553899810
  C         3.4732980245        3.5653018623        4.2971729185
  C         4.7366390787        3.8908256485        3.7518084580
  C         4.8961573815        4.3094604987        2.4455522360
  C         3.7807418911        4.3705349488        1.5922722426
  C         2.5143453541        4.0362170011        2.0887921123
  C         2.3780818631        3.6570096778        3.4213983652
  C         8.1902254370        2.8496179345       14.6153424132
  C         6.8721626718        2.8776102006       15.0944185195
  C         5.8488121800        3.3727023679       14.2642645339
  C         6.1456287449        3.7720040014       12.9667053888
  C         7.4522278820        3.7001404011       12.4372301391
  C         8.4432954718        3.2830463292       13.3251209583
  C         6.6581453252        6.8467762225        8.1909931171
  C         3.2913341289       -0.9443985042        8.1519020508
  F         7.8243022936        3.3724187791        3.8508637280
  F         3.0465228558        3.3417209233       12.9283684585
  F         5.6142560036       -1.1242417105        8.2350484277
  F         4.3164569559        7.0492372946        8.0882416672
  H         3.4486928176        4.6352895739        8.7965247778
  H         6.8075395489        1.4412528255        7.5014031081
  H         5.6036560035        3.8145842689        4.4072778620
  H         5.8694675912        4.5967408459        2.0687478583
  H         1.6438533812        4.0725844425        1.4389893236
  H         9.0008406271        2.5039522748       15.2538501747
  H         4.8409309178        3.4533498299       14.6511541515
  H         5.3423695412        4.1979655734       12.3587541395
  N         3.8512907386        4.7753242347        0.2294746465
  N         6.7152346074        2.4292806078       16.4220338819
  O         7.8758808625        4.8576340906        7.9135264449
  O         7.6631544174        5.3616296799       10.7741885170
  O         4.3868773671        1.1335897629        7.9244500046
  O         2.3121941974        2.9441937618        6.3221515273
  O         2.1944729360        1.1337406043        8.4693540978
  O         4.5688541683        3.2374778008        6.3263907068
  O         5.6818895599        4.7076821245        8.4719773199
  O         7.9766528987        3.1800383891       10.1639489242
  O         3.4176892072        3.6660807057        8.6957207966
  O         6.7512895190        2.3741797291        7.7785489332
  O         5.1617536770        2.3642167692       10.0956650845
  C         5.6834249411        1.1750262766       10.7484211482
  H         5.6563850425        0.3659644769       10.0199419845
  H         5.0575797992        0.9674091475       11.6219817363
  H         6.7197382706        1.3548413510       11.0636665920
  H         5.2634483809        3.1297633989       10.6902036997
      50
 i =      221, E =      -412.9102861348
 Al         8.4287664634        3.0443804020        8.2790965480
 Al         5.0187297228        2.9327000621        8.1335948939
  C         6.7449388673        5.3485154511        8.1944197981
  C         7.7434508511        4.1497538397       11.0080179098
  C         3.2859318628        0.5579056593        8.1873567961
  C         3.4178143472        3.2199738679        5.7554731713
  C         3.4734983029        3.5694922656        4.2975301824
  C         4.7365813298        3.8991074873        3.7527391855
  C         4.8951492142        4.3162808658        2.4465368634
  C         3.7799400560        4.3728951247        1.5918402034
  C         2.5138000958        4.0366523623        2.0881885731
  C         2.3779515392        3.6583182860        3.4212766709
  C         8.1895651141        2.8528374860       14.6157176412
  C         6.8713278589        2.8815468274       15.0944669715
  C         5.8481549311        3.3756749523       14.2638296262
  C         6.1456619471        3.7754744006       12.9665653037
  C         7.4523542707        3.7032601736       12.4371529634
  C         8.4434243993        3.2851812543       13.3251920821
  C         6.6582162549        6.8460663627        8.1909076038
  C         3.2918006375       -0.9444436351        8.1531119081
  F         7.8244155256        3.3724537452        3.8509830650
  F         3.0465564518        3.3417739941       12.9277044631
  F         5.6142745905       -1.1246074506        8.2346475986
  F         4.3168705849        7.0496073468        8.0878802217
  H         3.4477603465        4.6339421134        8.7954951369
  H         6.8066082700        1.4407022701        7.5007341845
  H         5.6041697919        3.8242865144        4.4079041752
  H         5.8676200104        4.6072327034        2.0700248619
  H         1.6434421468        4.0683880295        1.4375455116
  H         8.9992483655        2.5063081842       15.2546302053
  H         4.8403650589        3.4570641925       14.6504599860
  H         5.3419640395        4.2010899392       12.3587952987
  N         3.8503437909        4.7754312819        0.2284528990
  N         6.7142706223        2.4349579000       16.4228202328
  O         7.8755449745        4.8578519619        7.9128977991
  O         7.6668104317        5.3635725652       10.7727518079
  O         4.3856701846        1.1339798531        7.9245904445
  O         2.3128279335        2.9439912150        6.3218752138
  O         2.1939055527        1.1336667810        8.4714595008
  O         4.5693093401        3.2376623331        6.3269583694
  O         5.6811714405        4.7081007913        8.4732297796
  O         7.9757105514        3.1809426782       10.1646681267
  O         3.4167131456        3.6644386014        8.6957339209
  O         6.7511977193        2.3734169143        7.7787232670
  O         5.1539309267        2.3617271604       10.0968135749
  C         5.6953874153        1.1721099960       10.7400033063
  H         5.6807521093        0.3654361777       10.0034922616
  H         5.0714888462        0.9464574181       11.6148734030
  H         6.7321384450        1.3634760225       11.0506803798
  H         5.2557340778        3.1263011740       10.6933585015
      50
 i =      222, E =      -412.9104011455
 Al         8.4278639918        3.0426007678        8.2815244448
 Al         5.0171596499        2.9349024655        8.1338238679
  C         6.7446169391        5.3490192811        8.1941708701
  C         7.7420707875        4.1491114848       11.0076651679
  C         3.2856546768        0.5591135939        8.1877555683
  C         3.4176039601        3.2206691480        5.7557669174
  C         3.4743700908        3.5733906772        4.2985784201
  C         4.7373486748        3.9062895697        3.7550961604
  C         4.8959084701        4.3320697085        2.4516027740
  C         3.7815193629        4.3861934464        1.5954379567
  C         2.5153477584        4.0449807696        2.0900176942
  C         2.3786334772        3.6635389944        3.4221637341
  C         8.1931278353        2.8658283938       14.6209225095
  C         6.8749939113        2.8927485894       15.0987195164
  C         5.8497111623        3.3754401809       14.2643550176
  C         6.1463907399        3.7706981175       12.9659987381
  C         7.4532235288        3.7022971071       12.4373540170
  C         8.4449839585        3.2897509483       13.3270961368
  C         6.6574221467        6.8464671286        8.1913041272
  C         3.2909941954       -0.9438776815        8.1535718556
  F         7.8249987968        3.3727885487        3.8509096846
  F         3.0472033498        3.3420184536       12.9275542917
  F         5.6141084847       -1.1247803233        8.2346551364
  F         4.3161209773        7.0496595094        8.0883070718
  H         3.4462449651        4.6357343231        8.7916976398
  H         6.8031375686        1.4346052305        7.5191976514
  H         5.6050621905        3.8293119111        4.4099731196
  H         5.8677258033        4.6286784123        2.0775930420
  H         1.6464833428        4.0764635068        1.4372544545
  H         9.0026009057        2.5234854469       15.2623379920
  H         4.8411878819        3.4538093819       14.6489489156
  H         5.3417142404        4.1914497033       12.3556976828
  N         3.8538100008        4.7854260473        0.2313042474
  N         6.7187993401        2.4539533461       16.4303963289
  O         7.8748721097        4.8580136529        7.9114939015
  O         7.6681541660        5.3635589406       10.7726141531
  O         4.3847770737        1.1339668036        7.9237981469
  O         2.3124651113        2.9442984821        6.3212621724
  O         2.1940829068        1.1360738556        8.4718913670
  O         4.5694411561        3.2383058664        6.3273048433
  O         5.6816321995        4.7081951309        8.4741887195
  O         7.9738809661        3.1801489567       10.1641676050
  O         3.4155999095        3.6660650286        8.6961643128
  O         6.7502663501        2.3725242016        7.7803382760
  O         5.1241226913        2.3477978513       10.0990539289
  C         5.7100910911        1.1558192949       10.7118226306
  H         5.7121355760        0.3624543554        9.9603999993
  H         5.1014111591        0.8946310921       11.5885196491
  H         6.7482034338        1.3680191669       11.0134635294
  H         5.2160053178        3.1021951743       10.7110114265
      50
 i =      223, E =      -412.9105467238
 Al         8.4277911229        3.0404316801        8.2820260089
 Al         5.0175389919        2.9319780966        8.1342885816
  C         6.7445062232        5.3484294576        8.1944984167
  C         7.7426164588        4.1505043874       11.0068964980
  C         3.2846867758        0.5581890551        8.1891559633
  C         3.4180015510        3.2205670932        5.7556836965
  C         3.4748832011        3.5733702040        4.2985058050
  C         4.7381597324        3.9046182676        3.7538694448
  C         4.8960644059        4.3278777196        2.4495540840
  C         3.7813128880        4.3831654881        1.5937678133
  C         2.5152850163        4.0429955336        2.0892213828
  C         2.3792027789        3.6625514846        3.4217377669
  C         8.1917917078        2.8670412578       14.6197931369
  C         6.8735113462        2.8940797525       15.0972337205
  C         5.8485653382        3.3768211471       14.2625214543
  C         6.1457335881        3.7731287813       12.9647648680
  C         7.4527055022        3.7047206494       12.4366377721
  C         8.4447919576        3.2910561293       13.3263192242
  C         6.6573236467        6.8454567497        8.1924490288
  C         3.2907557468       -0.9447550401        8.1551226283
  F         7.8247230557        3.3726906485        3.8507733595
  F         3.0469114481        3.3420697134       12.9272971983
  F         5.6137178798       -1.1245930436        8.2350516156
  F         4.3163257678        7.0495530607        8.0881444372
  H         3.4439578484        4.6326033944        8.7893226289
  H         6.8022078083        1.4347970989        7.5155843172
  H         5.6068477391        3.8282318969        4.4077923370
  H         5.8678498785        4.6234949393        2.0754825324
  H         1.6466149355        4.0731064029        1.4367435799
  H         9.0003146657        2.5228467165       15.2616261421
  H         4.8398014677        3.4568610507       14.6458788257
  H         5.3410289155        4.1949423691       12.3545425452
  N         3.8524365302        4.7833116523        0.2304112364
  N         6.7178014710        2.4567527418       16.4297310713
  O         7.8748884874        4.8574301913        7.9120788067
  O         7.6712745226        5.3651305794       10.7726785713
  O         4.3837845155        1.1335434060        7.9248445193
  O         2.3127093994        2.9443213863        6.3211996904
  O         2.1922256980        1.1344926356        8.4711980485
  O         4.5696246300        3.2376353260        6.3278224295
  O         5.6810888943        4.7074920696        8.4741481228
  O         7.9724898698        3.1801608115       10.1638596921
  O         3.4148452658        3.6625870651        8.6975012358
  O         6.7506966185        2.3715677361        7.7800468712
  O         5.1292841194        2.3441198150       10.0979844880
  C         5.7120174585        1.1547161226       10.7170461758
  H         5.7102045703        0.3576588906        9.9691786049
  H         5.0993952563        0.8957845881       11.5911712428
  H         6.7499905776        1.3628127933       11.0168671276
  H         5.2204616819        3.0990523638       10.7087085617
      50
 i =      224, E =      -412.9107990038
 Al         8.4265520436        3.0340156686        8.2840215777
 Al         5.0170500064        2.9252159091        8.1345798757
  C         6.7436035032        5.3468190753        8.1948161864
  C         7.7426313796        4.1491228246       11.0051677938
  C         3.2826460507        0.5558786044        8.1905160651
  C         3.4189757751        3.2196849520        5.7555861018
  C         3.4768061440        3.5715127955        4.2985969957
  C         4.7419244843        3.8971387176        3.7523361011
  C         4.8996098426        4.3150624976        2.4465108759
  C         3.7845153126        4.3742205078        1.5907619051
  C         2.5180724942        4.0349073636        2.0869898618
  C         2.3820880462        3.6584692417        3.4203296812
  C         8.1905980772        2.8796859508       14.6226320263
  C         6.8713471399        2.9031800749       15.0975293848
  C         5.8442761400        3.3730432774       14.2566748958
  C         6.1423009292        3.7676127796       12.9590979738
  C         7.4508764989        3.7028013460       12.4338662943
  C         8.4445352917        3.2951936929       13.3264736991
  C         6.6566970742        6.8433794312        8.1947983114
  C         3.2892685740       -0.9468578583        8.1598776785
  F         7.8254311443        3.3731960079        3.8507368670
  F         3.0462639948        3.3422802904       12.9272237354
  F         5.6133314137       -1.1244137856        8.2352566037
  F         4.3161790504        7.0493712675        8.0877963154
  H         3.4365381294        4.6266710053        8.7784341363
  H         6.7973722490        1.4289435945        7.5240115854
  H         5.6127350581        3.8214212581        4.4039970723
  H         5.8718469576        4.6077204477        2.0728022616
  H         1.6505481214        4.0614884535        1.4341917212
  H         8.9978104854        2.5422414604       15.2677620237
  H         4.8345095616        3.4481676992       14.6356804655
  H         5.3361344055        4.1846695953       12.3466635486
  N         3.8524551159        4.7757904438        0.2291374134
  N         6.7191328930        2.4754747118       16.4341756937
  O         7.8743781620        4.8562431711        7.9140851472
  O         7.6762273245        5.3634880600       10.7731980371
  O         4.3810295241        1.1328364624        7.9245637389
  O         2.3134743218        2.9432373231        6.3202922388
  O         2.1886983545        1.1328039357        8.4696904247
  O         4.5701355417        3.2362863663        6.3291422189
  O         5.6782291173        4.7066460020        8.4724310742
  O         7.9698251616        3.1777977329       10.1633880905
  O         3.4120901475        3.6555319445        8.7008814747
  O         6.7499901592        2.3678917143        7.7795467454
  O         5.1308719731        2.3218098350       10.0936133625
  C         5.7085753839        1.1397675687       10.7214281137
  H         5.6882067104        0.3372405890        9.9812935695
  H         5.0927528391        0.8833839533       11.5880421636
  H         6.7459937156        1.3318053510       11.0115461237
  H         5.2069798392        3.0726539792       10.7109145182
      50
 i =      225, E =      -412.9108637470
 Al         8.4265494413        3.0341586414        8.2836960370
 Al         5.0163814445        2.9260852657        8.1343780459
  C         6.7447625681        5.3468832891        8.1951375660
  C         7.7420658115        4.1470237781       11.0056068119
  C         3.2836980306        0.5556901954        8.1905924949
  C         3.4184003710        3.2213318904        5.7567123739
  C         3.4766535195        3.5726017865        4.2996730984
  C         4.7411807362        3.9011491172        3.7541396642
  C         4.9000913491        4.3168944547        2.4473194167
  C         3.7856566869        4.3656477159        1.5895044679
  C         2.5199835633        4.0219262818        2.0850885718
  C         2.3825362518        3.6541486271        3.4203796283
  C         8.1910080191        2.8820227073       14.6230785193
  C         6.8717433404        2.8986904947       15.0973419079
  C         5.8425982513        3.3612712423       14.2547020617
  C         6.1398477501        3.7569521807       12.9571951433
  C         7.4487700999        3.6979692164       12.4323657048
  C         8.4434613685        3.2950281801       13.3253843950
  C         6.6566624695        6.8440142476        8.1945279087
  C         3.2890375241       -0.9464314646        8.1586318405
  F         7.8254783493        3.3727096293        3.8507176962
  F         3.0457463443        3.3426749325       12.9269509654
  F         5.6131733195       -1.1245022634        8.2353005649
  F         4.3160821847        7.0492205331        8.0879036416
  H         3.4369806032        4.6290078111        8.7767161576
  H         6.7968286240        1.4290468280        7.5263223693
  H         5.6106963101        3.8328351592        4.4082222691
  H         5.8722598102        4.6117135370        2.0744246244
  H         1.6532345072        4.0410554337        1.4302276057
  H         8.9997411647        2.5511953987       15.2704248028
  H         4.8317550411        3.4301085631       14.6332462631
  H         5.3326989745        4.1711958161       12.3444813202
  N         3.8530075660        4.7641246729        0.2265338176
  N         6.7195253820        2.4704444149       16.4334579213
  O         7.8748267840        4.8551491041        7.9147314081
  O         7.6774939593        5.3625455737       10.7743088443
  O         4.3826805545        1.1322443406        7.9247513914
  O         2.3128657166        2.9445389381        6.3208208776
  O         2.1892536212        1.1317261188        8.4702069395
  O         4.5699914894        3.2372798785        6.3292505755
  O         5.6797345028        4.7062253183        8.4725513800
  O         7.9693688812        3.1768719927       10.1631344679
  O         3.4112083407        3.6577906446        8.7003091765
  O         6.7493183968        2.3676321217        7.7797742646
  O         5.1356112121        2.3265406404       10.0921134316
  C         5.7108028637        1.1452720307       10.7236990501
  H         5.6882840916        0.3427243308        9.9862667676
  H         5.0942758449        0.8907994357       11.5910342381
  H         6.7480615288        1.3359009987       11.0135945453
  H         5.2090042279        3.0800770406       10.7049943409
      50
 i =      226, E =      -412.9109387082
 Al         8.4262502272        3.0354118954        8.2832334275
 Al         5.0151493455        2.9271020963        8.1344883117
  C         6.7456592780        5.3460676479        8.1960652621
  C         7.7406556829        4.1450899494       11.0056838786
  C         3.2842509230        0.5548232098        8.1897336147
  C         3.4176168692        3.2234714917        5.7577727486
  C         3.4756483642        3.5751702286        4.3009426392
  C         4.7390712995        3.9086635407        3.7570470200
  C         4.8994054847        4.3210141443        2.4493926384
  C         3.7862894202        4.3602436662        1.5895760837
  C         2.5216346612        4.0127358557        2.0836897649
  C         2.3821186212        3.6514175903        3.4208492526
  C         8.1921187690        2.8901268122       14.6258389849
  C         6.8726446891        2.8987928308       15.0987564451
  C         5.8408695487        3.3507368040       14.2534539130
  C         6.1371952756        3.7456046071       12.9551484824
  C         7.4466480498        3.6940599361       12.4311732137
  C         8.4421715736        3.2964328502       13.3254495425
  C         6.6572869100        6.8436747065        8.1934338421
  C         3.2899015366       -0.9467713833        8.1561800815
  F         7.8250680224        3.3720422111        3.8506457722
  F         3.0451197972        3.3429568872       12.9273597408
  F         5.6132644606       -1.1249006318        8.2350896660
  F         4.3164551638        7.0488317090        8.0879723082
  H         3.4387716266        4.6320376727        8.7708788472
  H         6.7964111827        1.4267237653        7.5347088629
  H         5.6065103384        3.8463974089        4.4143189991
  H         5.8714145815        4.6177738777        2.0772399852
  H         1.6558173347        4.0240539727        1.4266062961
  H         9.0037970652        2.5685883095       15.2758841493
  H         4.8286842833        3.4126802263       14.6314308491
  H         5.3292643368        4.1561019710       12.3419130908
  N         3.8548704829        4.7544895457        0.2249443306
  N         6.7209425851        2.4709067944       16.4344780530
  O         7.8759024714        4.8550037069        7.9152569818
  O         7.6790628667        5.3618513284       10.7757411960
  O         4.3830713080        1.1314480348        7.9232372788
  O         2.3123547251        2.9459398666        6.3217520490
  O         2.1904555104        1.1311150223        8.4713670322
  O         4.5694419018        3.2384054482        6.3295445529
  O         5.6809818246        4.7052819900        8.4731341723
  O         7.9676514978        3.1764344660       10.1615244303
  O         3.4106661683        3.6603553092        8.6991168150
  O         6.7477016894        2.3673793377        7.7804556709
  O         5.1288871132        2.3235360736       10.0922463548
  C         5.7155957667        1.1423188576       10.7149764183
  H         5.6945946532        0.3460683523        9.9726997339
  H         5.1036920935        0.8755268893       11.5834449897
  H         6.7526902235        1.3384545600       11.0001026539
  H         5.1927992313        3.0749323541       10.7083006973
      50
 i =      227, E =      -412.9109905785
 Al         8.4265672536        3.0389263543        8.2829648426
 Al         5.0154791540        2.9282393724        8.1338698687
  C         6.7451049583        5.3465499617        8.1967150963
  C         7.7399694966        4.1435980053       11.0065507485
  C         3.2848563545        0.5551167586        8.1888018468
  C         3.4172794167        3.2242996249        5.7587608539
  C         3.4746362536        3.5763486789        4.3026130425
  C         4.7374422149        3.9112847091        3.7599258961
  C         4.8983357476        4.3199386232        2.4511801549
  C         3.7866643191        4.3554255176        1.5901029547
  C         2.5227036053        4.0053018728        2.0832892279
  C         2.3820769430        3.6493445182        3.4217221692
  C         8.1904533374        2.8936359143       14.6281612266
  C         6.8703780675        2.8973313778       15.0999728535
  C         5.8372649063        3.3435133575       14.2528910466
  C         6.1332128641        3.7373086834       12.9538770963
  C         7.4438384690        3.6902908281       12.4309747356
  C         8.4395184068        3.2961733814       13.3268076349
  C         6.6580284299        6.8440976324        8.1927130714
  C         3.2904900052       -0.9466106945        8.1563551890
  F         7.8252222698        3.3722878929        3.8509213084
  F         3.0434757674        3.3430976380       12.9287398407
  F         5.6140275603       -1.1249908026        8.2346098735
  F         4.3164389760        7.0488866467        8.0880442778
  H         3.4407245748        4.6355851938        8.7668500043
  H         6.7982655902        1.4268212298        7.5366479170
  H         5.6031456531        3.8532422602        4.4194403662
  H         5.8701919938        4.6169871173        2.0783712883
  H         1.6567531138        4.0128094101        1.4265342016
  H         9.0042232516        2.5812026419       15.2792412431
  H         4.8244619210        3.3988032631       14.6299921266
  H         5.3233003241        4.1431506054       12.3410955957
  N         3.8556537643        4.7488755237        0.2257274377
  N         6.7208904947        2.4681610765       16.4348074141
  O         7.8758454184        4.8558961562        7.9162130794
  O         7.6807429450        5.3598994788       10.7774020262
  O         4.3831142420        1.1322844803        7.9219460089
  O         2.3124646759        2.9447756262        6.3224427817
  O         2.1929146210        1.1334709298        8.4722964720
  O         4.5692563520        3.2391642603        6.3299801184
  O         5.6801316010        4.7067067209        8.4735642938
  O         7.9680814578        3.1766803881       10.1615659083
  O         3.4113868434        3.6635166672        8.6982272669
  O         6.7475555277        2.3682948618        7.7800718652
  O         5.1292476236        2.3231138239       10.0914665763
  C         5.7185945267        1.1417999066       10.7138844217
  H         5.6945664147        0.3467850863        9.9701919649
  H         5.1085722561        0.8713257496       11.5821299968
  H         6.7546764853        1.3394459922       10.9960512055
  H         5.1857604632        3.0730971283       10.7106588966
      50
 i =      228, E =      -412.9110403968
 Al         8.4273164145        3.0404041045        8.2829818520
 Al         5.0163779042        2.9277499856        8.1336480618
  C         6.7450976834        5.3470933952        8.1967324654
  C         7.7397051605        4.1439811029       11.0063139636
  C         3.2852365244        0.5552168545        8.1883402924
  C         3.4168618799        3.2243331835        5.7595590488
  C         3.4736482136        3.5769653685        4.3038247780
  C         4.7359592004        3.9121566538        3.7611676382
  C         4.8971674315        4.3169813784        2.4511594954
  C         3.7860978056        4.3525477882        1.5903621370
  C         2.5222881457        4.0037904906        2.0834832233
  C         2.3816648760        3.6491239464        3.4224820088
  C         8.1885207471        2.8965384080       14.6277764139
  C         6.8683484682        2.8974015135       15.0999396607
  C         5.8353423598        3.3423068440       14.2525357327
  C         6.1310843035        3.7354947767       12.9529578773
  C         7.4422152880        3.6911654212       12.4306859028
  C         8.4379228141        3.2981321752       13.3266081596
  C         6.6581275017        6.8442073411        8.1928420684
  C         3.2907482069       -0.9467068636        8.1555215945
  F         7.8249963007        3.3718518506        3.8510342634
  F         3.0428950159        3.3434225008       12.9286109108
  F         5.6140950261       -1.1249732025        8.2347552059
  F         4.3161435875        7.0488116972        8.0883107672
  H         3.4425276032        4.6366402054        8.7617153644
  H         6.8008450954        1.4271066877        7.5358160006
  H         5.6005429664        3.8550838852        4.4219336034
  H         5.8692632115        4.6112565435        2.0769305661
  H         1.6558625010        4.0110726919        1.4279602853
  H         9.0030871666        2.5893345574       15.2800812740
  H         4.8219299286        3.3967830094       14.6281003927
  H         5.3204950457        4.1406409604       12.3402626912
  N         3.8547298042        4.7467351253        0.2261225561
  N         6.7196241753        2.4682152630       16.4344838782
  O         7.8757373207        4.8555004801        7.9165763880
  O         7.6831844151        5.3601809327       10.7779503814
  O         4.3835796699        1.1316554592        7.9214504127
  O         2.3118944727        2.9446521025        6.3233945901
  O         2.1933954604        1.1317857341        8.4726705320
  O         4.5689566914        3.2395663482        6.3304228352
  O         5.6807772720        4.7065803318        8.4741785001
  O         7.9682868998        3.1765422806       10.1616952273
  O         3.4134662800        3.6641019853        8.6984687623
  O         6.7484003402        2.3690182352        7.7801043980
  O         5.1290038891        2.3185672513       10.0910439537
  C         5.7219567545        1.1365246727       10.7100158671
  H         5.6946778890        0.3428036431        9.9640820887
  H         5.1130429630        0.8601952316       11.5774406992
  H         6.7579753354        1.3370268535       10.9898147511
  H         5.1772170000        3.0646700209       10.7159371693
      50
 i =      229, E =      -412.9110952464
 Al         8.4282222103        3.0434990524        8.2825576269
 Al         5.0181553625        2.9277093726        8.1339124674
  C         6.7451468013        5.3473157656        8.1967102970
  C         7.7400119849        4.1454756122       11.0060364054
  C         3.2854948174        0.5555901498        8.1878012215
  C         3.4168494460        3.2241877649        5.7597545710
  C         3.4726281608        3.5765570926        4.3041396575
  C         4.7349906922        3.9096546407        3.7613606551
  C         4.8959341890        4.3132660736        2.4503872254
  C         3.7844690127        4.3521895896        1.5906618456
  C         2.5203543006        4.0055263094        2.0841852208
  C         2.3805440411        3.6493347303        3.4230672392
  C         8.1857689077        2.8952291474       14.6261750580
  C         6.8651770000        2.8965558851       15.0987788580
  C         5.8333808527        3.3452549262       14.2525192494
  C         6.1299544773        3.7386669989       12.9528366472
  C         7.4415105723        3.6933814330       12.4306603543
  C         8.4365809744        3.2991036831       13.3264316578
  C         6.6581977993        6.8439727042        8.1933526174
  C         3.2915751800       -0.9465897746        8.1551710709
  F         7.8243509168        3.3717827538        3.8513550024
  F         3.0424503398        3.3436321451       12.9287298617
  F         5.6141056645       -1.1249221641        8.2349018920
  F         4.3161834172        7.0489974214        8.0883941184
  H         3.4459183043        4.6368304169        8.7567410635
  H         6.8043067418        1.4292846683        7.5288531323
  H         5.5991225418        3.8521297907        4.4226156015
  H         5.8685755695        4.6041450263        2.0747970010
  H         1.6532072074        4.0162040243        1.4300909976
  H         9.0001092149        2.5879249496       15.2788344711
  H         4.8200036502        3.4018213428       14.6270112691
  H         5.3193328168        4.1437085643       12.3398263240
  N         3.8517346055        4.7486755170        0.2265875992
  N         6.7165806017        2.4648902938       16.4327027280
  O         7.8764517146        4.8564442188        7.9160801557
  O         7.6850516689        5.3614152853       10.7780401482
  O         4.3836142138        1.1318638379        7.9210878471
  O         2.3119654996        2.9443270753        6.3240727813
  O         2.1941372491        1.1315971685        8.4724989316
  O         4.5689378997        3.2394584090        6.3306464831
  O         5.6813285297        4.7067220148        8.4744679005
  O         7.9692928668        3.1773512818       10.1617581174
  O         3.4166138248        3.6639744740        8.6992800582
  O         6.7503528964        2.3702419768        7.7797034587
  O         5.1300280996        2.3158658562       10.0910672868
  C         5.7249134651        1.1317327784       10.7059506123
  H         5.6942759935        0.3395743498        9.9578435870
  H         5.1174021875        0.8501787496       11.5729605791
  H         6.7611038247        1.3347064529       10.9847853983
  H         5.1698272265        3.0570930073       10.7227229156
      50
 i =      230, E =      -412.9111662136
 Al         8.4291669715        3.0459529704        8.2821008886
 Al         5.0199267390        2.9281620298        8.1350950907
  C         6.7450510566        5.3481184517        8.1961337991
  C         7.7404918746        4.1465863739       11.0055791699
  C         3.2857653154        0.5565921047        8.1874676596
  C         3.4174117389        3.2241113633        5.7597482443
  C         3.4725599424        3.5756830987        4.3038451080
  C         4.7352238759        3.9080578428        3.7604309931
  C         4.8958611119        4.3082597054        2.4482159921
  C         3.7833748969        4.3486992850        1.5891209330
  C         2.5187849407        4.0055329840        2.0839919580
  C         2.3800561497        3.6487696840        3.4228674157
  C         8.1831739043        2.8920442750       14.6241889380
  C         6.8617503421        2.8933741767       15.0959190368
  C         5.8309932147        3.3445220440       14.2501060641
  C         6.1289080091        3.7396121786       12.9511440894
  C         7.4412682221        3.6945144881       12.4299836377
  C         8.4358203816        3.2986452443       13.3259621017
  C         6.6578342207        6.8443643871        8.1942728997
  C         3.2917159647       -0.9459897392        8.1553854793
  F         7.8242562131        3.3718182580        3.8514226227
  F         3.0424285331        3.3435444499       12.9286246146
  F         5.6141254167       -1.1246751265        8.2349019643
  F         4.3159909521        7.0492153390        8.0887693094
  H         3.4494036633        4.6378699458        8.7492673150
  H         6.8073752942        1.4329240400        7.5190993084
  H         5.5995541267        3.8496782889        4.4216689401
  H         5.8691721536        4.5966820198        2.0716178358
  H         1.6512160773        4.0173836451        1.4300769219
  H         8.9966190049        2.5843440162       15.2774689296
  H         4.8174856860        3.4025050097       14.6232298866
  H         5.3177597275        4.1435000325       12.3370283927
  N         3.8484768307        4.7449597704        0.2242314571
  N         6.7134657882        2.4612238981       16.4300007307
  O         7.8763348040        4.8567617227        7.9153011475
  O         7.6860539930        5.3624044044       10.7779329203
  O         4.3840649612        1.1320842512        7.9207739601
  O         2.3123466353        2.9448338023        6.3244290576
  O         2.1943054333        1.1316310097        8.4721206479
  O         4.5692897515        3.2399197771        6.3309862806
  O         5.6821012900        4.7069093568        8.4741979421
  O         7.9713255130        3.1781671592       10.1621238444
  O         3.4198634465        3.6646333181        8.7003421666
  O         6.7526394661        2.3716824184        7.7794336157
  O         5.1314565488        2.3145477875       10.0902814045
  C         5.7266204293        1.1281731483       10.7002934861
  H         5.6897603406        0.3372531757        9.9499504384
  H         5.1214849364        0.8411438847       11.5672821007
  H         6.7635258000        1.3311719321       10.9776467640
  H         5.1573347462        3.0498352489       10.7299822783
      50
 i =      231, E =      -412.9112676758
 Al         8.4300087008        3.0483272220        8.2807532527
 Al         5.0217169123        2.9291396793        8.1375757479
  C         6.7451199018        5.3484850725        8.1955695845
  C         7.7401494816        4.1486143965       11.0044985946
  C         3.2864493670        0.5574315257        8.1876932276
  C         3.4186151315        3.2235923128        5.7593427356
  C         3.4732848714        3.5731255195        4.3025695867
  C         4.7360583945        3.9011600349        3.7564385684
  C         4.8959229757        4.3030032941        2.4441916131
  C         3.7813861431        4.3469483942        1.5868942131
  C         2.5166482743        4.0067170158        2.0844759870
  C         2.3794578613        3.6485818698        3.4226976520
  C         8.1793427535        2.8833731103       14.6197526027
  C         6.8573544461        2.8879067404       15.0906866618
  C         5.8284438329        3.3451397220       14.2463291914
  C         6.1284386126        3.7426411899       12.9489014003
  C         7.4408917895        3.6955764252       12.4284581416
  C         8.4345535652        3.2967478443       13.3243195128
  C         6.6573877587        6.8442154446        8.1948475908
  C         3.2919096777       -0.9455968237        8.1560493073
  F         7.8239535175        3.3717280941        3.8516710279
  F         3.0420338119        3.3435765499       12.9284312920
  F         5.6140965184       -1.1247116036        8.2347347677
  F         4.3160845305        7.0496162462        8.0887909979
  H         3.4553143962        4.6388872370        8.7381070684
  H         6.8118172623        1.4403534934        7.4993170272
  H         5.6016188584        3.8416815961        4.4162598959
  H         5.8694712649        4.5886204417        2.0666113398
  H         1.6488183328        4.0226850217        1.4306451438
  H         8.9894318275        2.5672900257       15.2737432469
  H         4.8150138514        3.4073904453       14.6181863092
  H         5.3177530915        4.1464365750       12.3323072455
  N         3.8438809049        4.7446952266        0.2218769430
  N         6.7086770445        2.4524236540       16.4242268940
  O         7.8767240332        4.8576958104        7.9138326437
  O         7.6860308054        5.3648939471       10.7770404131
  O         4.3845677366        1.1328328615        7.9204928862
  O         2.3131172592        2.9449319576        6.3242955068
  O         2.1950537842        1.1321724350        8.4729522719
  O         4.5703095162        3.2404976964        6.3308049201
  O         5.6825870920        4.7073168170        8.4738521332
  O         7.9729252400        3.1795269629       10.1615107948
  O         3.4227150319        3.6652220201        8.7016737778
  O         6.7548803141        2.3735357585        7.7790076306
  O         5.1327658536        2.3149341381       10.0894692726
  C         5.7300371840        1.1249110973       10.6907812950
  H         5.6851007370        0.3367416087        9.9381791201
  H         5.1297786313        0.8290802765       11.5579825591
  H         6.7689915475        1.3268252887       10.9668726416
  H         5.1372050479        3.0404810445       10.7410062125
      50
 i =      232, E =      -412.9113806837
 Al         8.4300386007        3.0489564962        8.2797460905
 Al         5.0217862846        2.9300134389        8.1408730601
  C         6.7452510788        5.3486682358        8.1946528736
  C         7.7391653364        4.1485262633       11.0034727086
  C         3.2867526401        0.5582030624        8.1881924322
  C         3.4201316503        3.2236967305        5.7582333737
  C         3.4748195661        3.5708473663        4.3001479596
  C         4.7378810380        3.8982254289        3.7520546966
  C         4.8966624334        4.2976437183        2.4395820872
  C         3.7806704429        4.3402981673        1.5827283527
  C         2.5160019608        4.0027385860        2.0824773108
  C         2.3798048652        3.6461169085        3.4208924109
  C         8.1767622241        2.8724991596       14.6157434833
  C         6.8543925673        2.8781274837       15.0845097974
  C         5.8261884511        3.3380453578       14.2402950597
  C         6.1284770635        3.7393295087       12.9449671035
  C         7.4412167241        3.6934664147       12.4263466924
  C         8.4344944434        3.2917744179       13.3222348699
  C         6.6570103113        6.8445940307        8.1948401594
  C         3.2915684036       -0.9450303598        8.1566965671
  F         7.8241737448        3.3717750808        3.8515051654
  F         3.0422653842        3.3431339627       12.9284641780
  F         5.6139503653       -1.1245598679        8.2347708265
  F         4.3164219112        7.0498327822        8.0888636681
  H         3.4588414776        4.6415798838        8.7265751494
  H         6.8125850711        1.4480292857        7.4795131437
  H         5.6052312284        3.8381612326        4.4099249960
  H         5.8699454597        4.5852868402        2.0621637645
  H         1.6480537340        4.0167663634        1.4280506678
  H         8.9841222412        2.5499630594       15.2695857272
  H         4.8126446044        3.4006680643       14.6117469686
  H         5.3185730590        4.1427656645       12.3260573784
  N         3.8412234235        4.7359033627        0.2167347782
  N         6.7054262694        2.4416180534       16.4177641938
  O         7.8766978893        4.8581691106        7.9127338060
  O         7.6831419668        5.3648904683       10.7765464510
  O         4.3853886029        1.1327523104        7.9205497773
  O         2.3142048871        2.9462931583        6.3235810633
  O         2.1954150671        1.1341841251        8.4725709602
  O         4.5712478321        3.2413984268        6.3305574541
  O         5.6830140650        4.7069208664        8.4726628294
  O         7.9748824442        3.1803463958       10.1607233214
  O         3.4229213354        3.6675598773        8.7018563441
  O         6.7551671185        2.3742963576        7.7792292491
  O         5.1338404075        2.3202281411       10.0887801082
  C         5.7295988097        1.1281456817       10.6826742105
  H         5.6757252979        0.3429165829        9.9271961898
  H         5.1343377970        0.8258697196       11.5509760295
  H         6.7709149136        1.3246077703       10.9559398931
  H         5.1142177166        3.0376563148       10.7490093040
      50
 i =      233, E =      -412.9114887265
 Al         8.4297145691        3.0461796320        8.2798286503
 Al         5.0209748495        2.9308032926        8.1440687516
  C         6.7456835432        5.3484644530        8.1938824465
  C         7.7371757825        4.1473651954       11.0024261684
  C         3.2868852966        0.5577941864        8.1886298367
  C         3.4209549614        3.2235731007        5.7576745161
  C         3.4765554992        3.5691272292        4.2983229685
  C         4.7391726852        3.8946276466        3.7470274852
  C         4.8967435238        4.2958007700        2.4351057064
  C         3.7802161628        4.3355041277        1.5783545162
  C         2.5164697959        3.9971200011        2.0805586433
  C         2.3809387510        3.6442229379        3.4195651542
  C         8.1748804996        2.8600495587       14.6103895191
  C         6.8528795995        2.8663056769       15.0777662737
  C         5.8248045025        3.3283897032       14.2336035380
  C         6.1284452334        3.7333774291       12.9404611977
  C         7.4408646212        3.6887954928       12.4233102394
  C         8.4337171429        3.2859671770       13.3188215808
  C         6.6570658194        6.8447389967        8.1933150526
  C         3.2906315546       -0.9453106809        8.1570264653
  F         7.8244205012        3.3720088092        3.8515659711
  F         3.0417104966        3.3431199634       12.9285272694
  F         5.6139921403       -1.1247657325        8.2344506387
  F         4.3164670677        7.0497447793        8.0882910117
  H         3.4588571540        4.6433226593        8.7149287703
  H         6.8106184711        1.4563157471        7.4579564351
  H         5.6084698156        3.8361717364        4.4024420045
  H         5.8689299639        4.5860464667        2.0580616190
  H         1.6484240857        4.0094660844        1.4263691512
  H         8.9792959787        2.5286802288       15.2634026040
  H         4.8108339630        3.3900532527       14.6047975614
  H         5.3211707586        4.1399269847       12.3197710444
  N         3.8400679366        4.7282855175        0.2121907562
  N         6.7035430895        2.4281699693       16.4105682913
  O         7.8766566593        4.8578486518        7.9119641333
  O         7.6795323590        5.3641376073       10.7759141996
  O         4.3853418294        1.1332746826        7.9207276127
  O         2.3143612612        2.9461581199        6.3224207710
  O         2.1953500607        1.1346895161        8.4729838648
  O         4.5719089056        3.2417574514        6.3300793719
  O         5.6823525482        4.7078118545        8.4720777512
  O         7.9752723098        3.1801786384       10.1591393528
  O         3.4206837064        3.6690349161        8.7013248730
  O         6.7537518222        2.3741110548        7.7796369909
  O         5.1336987607        2.3265844580       10.0878093960
  C         5.7324150386        1.1333920515       10.6740823560
  H         5.6719449483        0.3521667925        9.9166439593
  H         5.1423373024        0.8237847649       11.5435018903
  H         6.7768841335        1.3247948009       10.9433545894
  H         5.0882644182        3.0356250820       10.7553514424
      50
 i =      234, E =      -412.9115628472
 Al         8.4294033441        3.0434577184        8.2814227728
 Al         5.0194206897        2.9297922856        8.1450555268
  C         6.7460241251        5.3479900974        8.1936384596
  C         7.7356043836        4.1453197883       11.0018773169
  C         3.2862979274        0.5574297514        8.1887991608
  C         3.4210161271        3.2231135529        5.7572058809
  C         3.4769364496        3.5684205688        4.2975635379
  C         4.7391644053        3.8949446215        3.7455719257
  C         4.8961031085        4.2948049207        2.4333879161
  C         3.7801382216        4.3315549674        1.5764558094
  C         2.5170062770        3.9931013715        2.0791102741
  C         2.3817528971        3.6424692831        3.4187930787
  C         8.1741868700        2.8533376776       14.6074836040
  C         6.8524147739        2.8577675219       15.0743711068
  C         5.8237404383        3.3193594817       14.2298880522
  C         6.1278893750        3.7269387079       12.9376444950
  C         7.4404273019        3.6849815901       12.4215944992
  C         8.4335413470        3.2815947905       13.3164480736
  C         6.6574418250        6.8448005726        8.1919874197
  C         3.2904278906       -0.9453508413        8.1563343169
  F         7.8243954434        3.3719293472        3.8514201515
  F         3.0417968998        3.3427860767       12.9285237010
  F         5.6138758766       -1.1248289770        8.2344971210
  F         4.3169738899        7.0496405967        8.0878223694
  H         3.4551295021        4.6441490533        8.7084995597
  H         6.8064476151        1.4606772932        7.4471808578
  H         5.6091464853        3.8372482934        4.3999731099
  H         5.8675789545        4.5875798625        2.0565835780
  H         1.6483559220        4.0030855695        1.4262197770
  H         8.9786135342        2.5201127472       15.2589617988
  H         4.8092656971        3.3778277943       14.6012111977
  H         5.3228928853        4.1375903716       12.3175597337
  N         3.8405968601        4.7232055965        0.2105683010
  N         6.7033938957        2.4193283113       16.4070126787
  O         7.8769358991        4.8575121934        7.9126638967
  O         7.6774069183        5.3620523331       10.7765103847
  O         4.3851882786        1.1325681204        7.9207847887
  O         2.3143829187        2.9461444946        6.3219232195
  O         2.1948945111        1.1355493603        8.4726316416
  O         4.5717176243        3.2414362196        6.3299363634
  O         5.6820995027        4.7074404175        8.4712222599
  O         7.9750639767        3.1793387089       10.1579564058
  O         3.4183538216        3.6696690285        8.7006618304
  O         6.7516890803        2.3734610073        7.7804220755
  O         5.1323363049        2.3283516367       10.0877125506
  C         5.7351215857        1.1361732616       10.6692356151
  H         5.6717761612        0.3584722315        9.9089610364
  H         5.1475926816        0.8218660043       11.5387978909
  H         6.7809438675        1.3255860517       10.9334719082
  H         5.0687752721        3.0318195340       10.7593723746
      50
 i =      235, E =      -412.9116433258
 Al         8.4288937609        3.0389853699        8.2839189370
 Al         5.0176507112        2.9291903732        8.1447137195
  C         6.7463944126        5.3475476252        8.1940158033
  C         7.7342176616        4.1432255216       11.0013507058
  C         3.2855408258        0.5561985905        8.1877555800
  C         3.4206647658        3.2220832944        5.7567360507
  C         3.4771463601        3.5672817165        4.2971632395
  C         4.7389141894        3.8940345865        3.7446410994
  C         4.8948673806        4.2938277269        2.4319157109
  C         3.7797347522        4.3294745156        1.5752663675
  C         2.5173156629        3.9902122172        2.0784009057
  C         2.3826189960        3.6407521871        3.4186126909
  C         8.1737285463        2.8447592224       14.6034226241
  C         6.8522428278        2.8470975963       15.0710434131
  C         5.8231281022        3.3100507345       14.2273168018
  C         6.1266251552        3.7205072082       12.9355767950
  C         7.4392064095        3.6804381679       12.4197528353
  C         8.4323807808        3.2766169770       13.3135734533
  C         6.6580078471        6.8447669495        8.1906101308
  C         3.2899752549       -0.9461385996        8.1554292973
  F         7.8242948087        3.3719794913        3.8516215766
  F         3.0411918586        3.3427692316       12.9286607316
  F         5.6138470637       -1.1249460054        8.2343621068
  F         4.3165376293        7.0491779638        8.0876786841
  H         3.4469561773        4.6439121653        8.7030231635
  H         6.8012765803        1.4651021019        7.4344002211
  H         5.6093147444        3.8371355132        4.3982310226
  H         5.8654652520        4.5879315482        2.0541132021
  H         1.6472890971        3.9998829157        1.4282952313
  H         8.9796002846        2.5108653909       15.2523575710
  H         4.8082401605        3.3655865544       14.5990293189
  H         5.3249256694        4.1388121388       12.3180863281
  N         3.8406553380        4.7208605452        0.2102294334
  N         6.7031352953        2.4082637079       16.4033794243
  O         7.8772217639        4.8565437975        7.9143561372
  O         7.6762659217        5.3598265043       10.7769936168
  O         4.3840171925        1.1329617942        7.9204254381
  O         2.3140408334        2.9451825560        6.3211034451
  O         2.1940159585        1.1341538528        8.4720817907
  O         4.5713687448        3.2399819623        6.3295278743
  O         5.6812510424        4.7083668473        8.4711063683
  O         7.9747584322        3.1778598809       10.1571478216
  O         3.4150589357        3.6692437704        8.6999528296
  O         6.7488514990        2.3726937162        7.7808354836
  O         5.1316953351        2.3281020130       10.0876440990
  C         5.7408955026        1.1370450940       10.6643845572
  H         5.6759013360        0.3633828255        9.9005305165
  H         5.1550547934        0.8182600504       11.5337888419
  H         6.7874625475        1.3265762930       10.9222748133
  H         5.0460974808        3.0242545983       10.7642648332
      50
 i =      236, E =      -412.9117067893
 Al         8.4276896643        3.0369784112        8.2860193064
 Al         5.0156432987        2.9287162262        8.1428727785
  C         6.7458886270        5.3473382580        8.1945085473
  C         7.7335149882        4.1410696436       11.0014552943
  C         3.2847932441        0.5565113652        8.1872142947
  C         3.4199140960        3.2207455683        5.7565141650
  C         3.4768267056        3.5664720898        4.2975247894
  C         4.7385188869        3.8939093076        3.7459179096
  C         4.8943374239        4.2926872801        2.4325275348
  C         3.7796849200        4.3294009754        1.5762786099
  C         2.5170834976        3.9911059146        2.0790868278
  C         2.3827880413        3.6405799057        3.4191215992
  C         8.1744262114        2.8403068235       14.6018437876
  C         6.8528841961        2.8402259854       15.0708343482
  C         5.8233980536        3.3030426263       14.2278108572
  C         6.1255947518        3.7158755724       12.9359470626
  C         7.4385117170        3.6775286638       12.4197558591
  C         8.4322939477        3.2732595596       13.3123835423
  C         6.6582483592        6.8447514144        8.1903075023
  C         3.2905919689       -0.9456586836        8.1545167216
  F         7.8241690166        3.3719267731        3.8515376351
  F         3.0416346859        3.3425560688       12.9280370485
  F         5.6138419100       -1.1250932266        8.2343336379
  F         4.3169040185        7.0494392501        8.0874074079
  H         3.4391658172        4.6431736197        8.7048971349
  H         6.7967718476        1.4661896723        7.4307770253
  H         5.6083905437        3.8369335471        4.4001321982
  H         5.8647393152        4.5857040723        2.0533364743
  H         1.6458785732        4.0028568136        1.4309841469
  H         8.9830850782        2.5102013783       15.2490752563
  H         4.8087433064        3.3560433237       14.6004157749
  H         5.3253105762        4.1397495906       12.3221438747
  N         3.8417012410        4.7217683077        0.2119160858
  N         6.7041307530        2.4037178415       16.4036089115
  O         7.8771355304        4.8564217634        7.9163712591
  O         7.6757606680        5.3575868018       10.7779284240
  O         4.3835119042        1.1328001848        7.9202242690
  O         2.3135421434        2.9441032433        6.3207876494
  O         2.1934287025        1.1343981840        8.4717112493
  O         4.5706399899        3.2388672078        6.3295045065
  O         5.6806623650        4.7083497505        8.4710080660
  O         7.9742922918        3.1761395138       10.1570332587
  O         3.4127436359        3.6685979987        8.6995673117
  O         6.7464799204        2.3723064518        7.7809089615
  O         5.1321120225        2.3266991609       10.0878368909
  C         5.7453298499        1.1362075811       10.6642332171
  H         5.6810851749        0.3640527599        9.8986918358
  H         5.1593024288        0.8191088264       11.5335633660
  H         6.7923226274        1.3286274945       10.9188654977
  H         5.0341562404        3.0181086842       10.7669744532
      50
 i =      237, E =      -412.9117762412
 Al         8.4254559274        3.0344128137        8.2883816302
 Al         5.0134423494        2.9301214847        8.1414363790
  C         6.7453742290        5.3474408170        8.1952250231
  C         7.7325764756        4.1402852855       11.0020492848
  C         3.2845206472        0.5562152942        8.1858777965
  C         3.4191956608        3.2184388088        5.7560155165
  C         3.4765928722        3.5618900253        4.2971112450
  C         4.7383702419        3.8883367418        3.7461900674
  C         4.8940775001        4.2873931963        2.4323580069
  C         3.7788970020        4.3278418852        1.5774959159
  C         2.5157114257        3.9923611689        2.0800910517
  C         2.3823739494        3.6383389469        3.4193796802
  C         8.1745264260        2.8301684899       14.5990031788
  C         6.8526837955        2.8297093830       15.0698269163
  C         5.8234507293        3.2955387424       14.2290513047
  C         6.1239413494        3.7115449505       12.9374205424
  C         7.4369980383        3.6744883546       12.4200945103
  C         8.4307172394        3.2682117374       13.3114306303
  C         6.6582560749        6.8449396970        8.1907154300
  C         3.2907898531       -0.9458133437        8.1535533303
  F         7.8239792363        3.3715297015        3.8517676705
  F         3.0410628455        3.3423298601       12.9281239957
  F         5.6138957235       -1.1251431341        8.2343485793
  F         4.3160941375        7.0490116217        8.0880200315
  H         3.4299454731        4.6415919996        8.7066009807
  H         6.7924504407        1.4682775855        7.4213077707
  H         5.6077105365        3.8297875210        4.4010153739
  H         5.8645132507        4.5781216429        2.0508492530
  H         1.6429679186        4.0080728924        1.4339492736
  H         8.9859755700        2.5019266335       15.2444392402
  H         4.8095246439        3.3479017635       14.6030388433
  H         5.3249558158        4.1427034334       12.3282997910
  N         3.8411382136        4.7230656269        0.2140042178
  N         6.7037300176        2.3923598197       16.4023188497
  O         7.8768955579        4.8557075782        7.9177081341
  O         7.6733251219        5.3562926597       10.7788196981
  O         4.3827413823        1.1335333877        7.9198957560
  O         2.3131434160        2.9429888625        6.3204323080
  O         2.1928731226        1.1325528314        8.4718610942
  O         4.5698860064        3.2377583869        6.3296610922
  O         5.6802657545        4.7089998934        8.4712947184
  O         7.9737650687        3.1754152802       10.1578385660
  O         3.4097787853        3.6667933368        8.6996457829
  O         6.7437173188        2.3722097090        7.7808410160
  O         5.1337453347        2.3252194463       10.0886524011
  C         5.7475934022        1.1323309147       10.6613646689
  H         5.6814763783        0.3625500786        9.8919322706
  H         5.1622285266        0.8180433304       11.5322319292
  H         6.7941271014        1.3254413673       10.9123648649
  H         5.0106275878        3.0070016521       10.7750899731
      50
 i =      238, E =      -412.9118389531
 Al         8.4228310954        3.0341284036        8.2887072010
 Al         5.0115914559        2.9312397866        8.1399930386
  C         6.7441275241        5.3471855474        8.1954976892
  C         7.7325957328        4.1388020610       11.0027188995
  C         3.2838340028        0.5563707679        8.1857628743
  C         3.4180332569        3.2179134732        5.7560884882
  C         3.4761913681        3.5608957001        4.2972088899
  C         4.7385699006        3.8854651568        3.7471093218
  C         4.8946690495        4.2837490146        2.4330959251
  C         3.7791023733        4.3267468985        1.5781823403
  C         2.5151134586        3.9927370252        2.0805627396
  C         2.3814893306        3.6383151099        3.4194446414
  C         8.1770602761        2.8261368931       14.5997391846
  C         6.8550087876        2.8225834153       15.0705845640
  C         5.8251084834        3.2877818912       14.2308313100
  C         6.1244806427        3.7071319596       12.9398960765
  C         7.4374789189        3.6719887794       12.4214993249
  C         8.4315554699        3.2658439983       13.3125869900
  C         6.6577122594        6.8443516807        8.1912106966
  C         3.2911986223       -0.9457795226        8.1535751001
  F         7.8236505096        3.3717635831        3.8517712657
  F         3.0418621213        3.3424998487       12.9278389179
  F         5.6136339196       -1.1252924651        8.2343000650
  F         4.3159752337        7.0491674721        8.0878368410
  H         3.4244134333        4.6404995272        8.7119004649
  H         6.7895540196        1.4674076421        7.4217344350
  H         5.6072679533        3.8280318810        4.4031789826
  H         5.8656231124        4.5716671054        2.0505250308
  H         1.6425666475        4.0109378384        1.4335594082
  H         8.9905682471        2.5026144440       15.2457598691
  H         4.8117109720        3.3386839367       14.6051692494
  H         5.3245214349        4.1386593076       12.3335717833
  N         3.8425143411        4.7201142912        0.2143109848
  N         6.7054026353        2.3869671852       16.4039769458
  O         7.8763696869        4.8560485624        7.9178066944
  O         7.6722374413        5.3551929258       10.7797005136
  O         4.3816103588        1.1338105007        7.9194817808
  O         2.3121064222        2.9422885789        6.3203742206
  O         2.1919453042        1.1319555405        8.4717386103
  O         4.5688805893        3.2380737322        6.3299015408
  O         5.6795402490        4.7088142582        8.4719448198
  O         7.9728289408        3.1738978858       10.1584695366
  O         3.4077937137        3.6656265106        8.6999519591
  O         6.7421827727        2.3720450531        7.7801014289
  O         5.1364858867        2.3239980100       10.0881729657
  C         5.7502837551        1.1297167003       10.6632250277
  H         5.6839790682        0.3584230380        9.8951960477
  H         5.1645293583        0.8224846084       11.5355606976
  H         6.7983886417        1.3254706942       10.9140048811
  H         4.9988017819        3.0002946669       10.7763705453
      50
 i =      239, E =      -412.9119217926
 Al         8.4189012015        3.0346751721        8.2885730822
 Al         5.0094017881        2.9340013561        8.1402255877
  C         6.7427184490        5.3472750474        8.1952949932
  C         7.7315775900        4.1386400554       11.0040200042
  C         3.2836006596        0.5570010601        8.1865644927
  C         3.4170301295        3.2169349183        5.7564588408
  C         3.4756577893        3.5566275388        4.2969862117
  C         4.7387661903        3.8789428584        3.7473896203
  C         4.8962684032        4.2756318140        2.4336259224
  C         3.7797949038        4.3195559280        1.5786092422
  C         2.5146259817        3.9901069417        2.0805826577
  C         2.3802607389        3.6360094480        3.4190960551
  C         8.1792583756        2.8199798562       14.6010658389
  C         6.8572690047        2.8132192129       15.0718055245
  C         5.8265373964        3.2769625250       14.2329509697
  C         6.1245476205        3.7002700873       12.9434823292
  C         7.4371776014        3.6692845576       12.4237723280
  C         8.4319335986        3.2627995693       13.3143479558
  C         6.6566681668        6.8442210523        8.1924969556
  C         3.2911515309       -0.9452765445        8.1545914174
  F         7.8233349246        3.3714573725        3.8517866362
  F         3.0422898351        3.3423721399       12.9274647342
  F         5.6134221128       -1.1253667480        8.2342434719
  F         4.3157610588        7.0492918538        8.0880098221
  H         3.4208319274        4.6394999269        8.7189911549
  H         6.7868598263        1.4665532323        7.4220759779
  H         5.6067152623        3.8210185442        4.4046447687
  H         5.8681829070        4.5604332349        2.0509359472
  H         1.6432785428        4.0097210361        1.4310104664
  H         8.9932006585        2.4996679500       15.2490879777
  H         4.8134409697        3.3261965815       14.6077426703
  H         5.3212676135        4.1293194562       12.3393084586
  N         3.8443529276        4.7121389943        0.2141422120
  N         6.7075736287        2.3766824998       16.4053379469
  O         7.8751267453        4.8560752157        7.9169220388
  O         7.6682635522        5.3549885794       10.7802754249
  O         4.3813040284        1.1337477924        7.9195202093
  O         2.3113418479        2.9419099822        6.3206432876
  O         2.1910377017        1.1318509102        8.4726582097
  O         4.5678912497        3.2395069100        6.3308855163
  O         5.6789785394        4.7085130638        8.4719912708
  O         7.9708569689        3.1741490098       10.1594605461
  O         3.4052984647        3.6644842861        8.7010664344
  O         6.7405292601        2.3722160859        7.7797768132
  O         5.1389208574        2.3227080085       10.0881337170
  C         5.7495761619        1.1249547230       10.6624785892
  H         5.6804433221        0.3524801389        9.8946389017
  H         5.1650283841        0.8259856778       11.5383750703
  H         6.7986763883        1.3193331844       10.9121090621
  H         4.9726095342        2.9886799523       10.7819437333
      50
 i =      240, E =      -412.9120073617
 Al         8.4154338166        3.0353927266        8.2870113538
 Al         5.0081877184        2.9365652089        8.1419626679
  C         6.7419691671        5.3471353001        8.1953858773
  C         7.7311460749        4.1382944256       11.0050937827
  C         3.2826129210        0.5564880554        8.1874157047
  C         3.4161685128        3.2179653188        5.7570968237
  C         3.4752041216        3.5553909126        4.2967808290
  C         4.7392675960        3.8744091847        3.7471980636
  C         4.8983717475        4.2679311760        2.4335156455
  C         3.7819762168        4.3092207026        1.5769135169
  C         2.5159439063        3.9821917554        2.0784107715
  C         2.3796014423        3.6333791736        3.4179926984
  C         8.1832214006        2.8173329542       14.6041935734
  C         6.8614812804        2.8050490675       15.0727686872
  C         5.8290089600        3.2653067220       14.2341804552
  C         6.1261627128        3.6925751044       12.9467314263
  C         7.4382655303        3.6669859824       12.4260928056
  C         8.4335345048        3.2613981801       13.3170303672
  C         6.6555986272        6.8437534229        8.1938154331
  C         3.2899928082       -0.9459051683        8.1561526920
  F         7.8232486910        3.3713966754        3.8518647314
  F         3.0428428002        3.3425488038       12.9277762192
  F         5.6129803227       -1.1253784519        8.2343865077
  F         4.3149958818        7.0488750547        8.0885044313
  H         3.4199481798        4.6390735980        8.7269546214
  H         6.7851206083        1.4645095204        7.4270963086
  H         5.6068664234        3.8180818357        4.4051145913
  H         5.8710504961        4.5512451706        2.0518169641
  H         1.6470620622        3.9992088341        1.4247891652
  H         8.9967140183        2.4995388085       15.2547068815
  H         4.8159244340        3.3110698372       14.6092482604
  H         5.3183129234        4.1138628757       12.3427354349
  N         3.8479607617        4.6943520835        0.2105402777
  N         6.7116509786        2.3681449258       16.4063012621
  O         7.8741761413        4.8560550165        7.9156199840
  O         7.6648762668        5.3547822761       10.7803383479
  O         4.3798266373        1.1339142739        7.9198175909
  O         2.3105925851        2.9427090992        6.3212914264
  O         2.1892257575        1.1311291849        8.4726759346
  O         4.5670319716        3.2408841485        6.3318576334
  O         5.6784959818        4.7080114864        8.4723271093
  O         7.9689285260        3.1740540377       10.1602213395
  O         3.4029155946        3.6640186680        8.7019541730
  O         6.7396412413        2.3722097195        7.7797420307
  O         5.1420711839        2.3222369873       10.0875611576
  C         5.7489113967        1.1235111351       10.6648408012
  H         5.6780292385        0.3476008308        9.8997687596
  H         5.1646782485        0.8336986346       11.5443063131
  H         6.7997790485        1.3150484709       10.9126588190
  H         4.9488508768        2.9794164837       10.7820802154
      50
 i =      241, E =      -412.9120862460
 Al         8.4132459661        3.0365703094        8.2848678343
 Al         5.0078026743        2.9382980574        8.1446737691
  C         6.7414959499        5.3473105663        8.1956351942
  C         7.7299521911        4.1373496443       11.0058239887
  C         3.2816800932        0.5570808518        8.1885540505
  C         3.4156617833        3.2182562881        5.7578871993
  C         3.4748178787        3.5536590488        4.2968227008
  C         4.7395309479        3.8697118200        3.7463395779
  C         4.9001617267        4.2584438972        2.4323502328
  C         3.7846320632        4.2957570592        1.5743502636
  C         2.5179984315        3.9725898949        2.0761598935
  C         2.3797577310        3.6305996710        3.4173327615
  C         8.1860886596        2.8127947695       14.6052329619
  C         6.8651472051        2.7947202896       15.0726599139
  C         5.8309072571        3.2514551654       14.2340475872
  C         6.1269751292        3.6825914996       12.9485267005
  C         7.4387096671        3.6639750194       12.4274534724
  C         8.4349442289        3.2592304255       13.3178858965
  C         6.6550358114        6.8437398843        8.1944237523
  C         3.2891883848       -0.9455538552        8.1576973922
  F         7.8230138809        3.3715836348        3.8517437289
  F         3.0436679333        3.3425359444       12.9277039487
  F         5.6129064440       -1.1253312649        8.2342740615
  F         4.3154681397        7.0491692274        8.0881225183
  H         3.4215912833        4.6401270929        8.7311531391
  H         6.7841813284        1.4652060812        7.4266726827
  H         5.6068782014        3.8124225983        4.4040729507
  H         5.8733735121        4.5413184911        2.0522561981
  H         1.6511810391        3.9870330006        1.4200186157
  H         8.9981721856        2.4950849192       15.2572132803
  H         4.8174065990        3.2926126867       14.6092216902
  H         5.3150731961        4.0960480129       12.3434048712
  N         3.8518615522        4.6754690320        0.2070131500
  N         6.7161440700        2.3559704874       16.4053952688
  O         7.8731980767        4.8561054407        7.9152215419
  O         7.6618942675        5.3538833213       10.7799270165
  O         4.3792449014        1.1336866716        7.9199711165
  O         2.3097813294        2.9431077092        6.3217728802
  O         2.1875597204        1.1318186794        8.4725772346
  O         4.5662900229        3.2424128487        6.3327576197
  O         5.6777860838        4.7078239485        8.4723439696
  O         7.9677015339        3.1740383817       10.1602906173
  O         3.4010536195        3.6650056429        8.7027689469
  O         6.7389102810        2.3724962545        7.7802683495
  O         5.1435577984        2.3208894842       10.0867866616
  C         5.7529842713        1.1221164715       10.6634334958
  H         5.6791278714        0.3451269057        9.9005706907
  H         5.1726490280        0.8354009731       11.5462723657
  H         6.8060271884        1.3113870744       10.9057250947
  H         4.9102344557        2.9634022623       10.7864857742
      50
 i =      242, E =      -412.9121655145
 Al         8.4126748449        3.0383072923        8.2812690325
 Al         5.0089907910        2.9385387412        8.1482673807
  C         6.7420426807        5.3477275473        8.1964888760
  C         7.7295689650        4.1380212276       11.0067079483
  C         3.2806575242        0.5569115057        8.1901857275
  C         3.4158717802        3.2191400890        5.7591584944
  C         3.4746252492        3.5527529914        4.2975037322
  C         4.7401321434        3.8657587656        3.7462974638
  C         4.9027672057        4.2515107376        2.4324552616
  C         3.7892739253        4.2835040077        1.5725338390
  C         2.5218402989        3.9635506272        2.0736220055
  C         2.3812634781        3.6279178218        3.4168293990
  C         8.1916085082        2.8118379352       14.6077052092
  C         6.8720761280        2.7918753949       15.0753466624
  C         5.8366667295        3.2485410687       14.2376689669
  C         6.1308716205        3.6800035654       12.9529056774
  C         7.4415244722        3.6656864013       12.4303752163
  C         8.4383309137        3.2604142512       13.3197487481
  C         6.6548749398        6.8440915548        8.1955099502
  C         3.2874998679       -0.9459443040        8.1597835508
  F         7.8235201463        3.3713854722        3.8516679381
  F         3.0449963347        3.3423505216       12.9276744959
  F         5.6129857674       -1.1250810701        8.2345421467
  F         4.3155561241        7.0489316835        8.0883385637
  H         3.4273843115        4.6400995272        8.7468233514
  H         6.7856434113        1.4621608580        7.4375142788
  H         5.6074633919        3.8046838280        4.4029303880
  H         5.8761795446        4.5364654625        2.0554606807
  H         1.6570694588        3.9738915512        1.4156064715
  H         9.0015595942        2.4887614117       15.2584525089
  H         4.8232376106        3.2872719915       14.6144881934
  H         5.3145799484        4.0832864360       12.3447670129
  N         3.8584742228        4.6598465044        0.2048659345
  N         6.7239827566        2.3483341684       16.4057182054
  O         7.8725124397        4.8559130360        7.9146454683
  O         7.6583577458        5.3537330050       10.7785264260
  O         4.3789411475        1.1328143488        7.9211912429
  O         2.3096407470        2.9442249133        6.3232254273
  O         2.1857343112        1.1320213603        8.4728995179
  O         4.5659693520        3.2433175877        6.3338955488
  O         5.6773929083        4.7073047016        8.4720559763
  O         7.9663449096        3.1751772104       10.1608174255
  O         3.3998618253        3.6658870678        8.7033480188
  O         6.7391471601        2.3724191767        7.7816393297
  O         5.1447439936        2.3212454911       10.0876996849
  C         5.7540860696        1.1271846413       10.6707130352
  H         5.6862676362        0.3443039471        9.9134559447
  H         5.1742349866        0.8495596458       11.5565819255
  H         6.8070784833        1.3145828288       10.9099461442
  H         4.8894259276        2.9536736348       10.7797555215
      50
 i =      243, E =      -412.9122726228
 Al         8.4131004544        3.0391465867        8.2790779830
 Al         5.0096784299        2.9382217777        8.1510492497
  C         6.7425785828        5.3482264300        8.1976257045
  C         7.7288139264        4.1361749109       11.0064896880
  C         3.2794167285        0.5570302370        8.1891658762
  C         3.4160004126        3.2199672986        5.7599864995
  C         3.4747342232        3.5518217932        4.2978355228
  C         4.7409601365        3.8585786728        3.7456157796
  C         4.9042859936        4.2415150379        2.4301714628
  C         3.7923261316        4.2720324595        1.5694122087
  C         2.5242805943        3.9527036404        2.0711044495
  C         2.3828024337        3.6241160273        3.4164368109
  C         8.1944391662        2.8052340157       14.6050721050
  C         6.8752569268        2.7799661097       15.0730827749
  C         5.8385057340        3.2372509788       14.2364708448
  C         6.1310399779        3.6712690963       12.9520481659
  C         7.4422153277        3.6624861448       12.4295558920
  C         8.4392418171        3.2576901958       13.3182474392
  C         6.6551095414        6.8446512389        8.1958509243
  C         3.2866155799       -0.9460931759        8.1598406526
  F         7.8235676265        3.3716167317        3.8515918094
  F         3.0455600593        3.3425638506       12.9273869180
  F         5.6129575237       -1.1249957177        8.2347724113
  F         4.3152825807        7.0486379927        8.0883757403
  H         3.4291960858        4.6411860032        8.7475999805
  H         6.7843751411        1.4652455137        7.4319017023
  H         5.6082407526        3.7996656621        4.4022499611
  H         5.8774594872        4.5249969865        2.0529186275
  H         1.6591003448        3.9637308668        1.4146693582
  H         9.0059532259        2.4805691540       15.2521052954
  H         4.8252567897        3.2702471890       14.6142725325
  H         5.3146702498        4.0717019418       12.3429750973
  N         3.8624436080        4.6447997822        0.2015684719
  N         6.7279919334        2.3343399291       16.4019334379
  O         7.8727363251        4.8559920821        7.9151902207
  O         7.6567390402        5.3517445852       10.7785566894
  O         4.3778185665        1.1333076253        7.9209571125
  O         2.3092305733        2.9448368122        6.3241146429
  O         2.1847934020        1.1329331169        8.4713109325
  O         4.5656920395        3.2429001585        6.3344789346
  O         5.6772267031        4.7078151101        8.4722894394
  O         7.9674787422        3.1739976868       10.1602861876
  O         3.3992841939        3.6671581009        8.7035146673
  O         6.7378919285        2.3726732612        7.7823711728
  O         5.1442646352        2.3189290495       10.0879480882
  C         5.7627137442        1.1280241282       10.6667088636
  H         5.6932671258        0.3461090090        9.9087600074
  H         5.1896454313        0.8462279971       11.5548346494
  H         6.8168050691        1.3179815975       10.8964435960
  H         4.8396609886        2.9309117572       10.7873578579
      50
 i =      244, E =      -412.9124041909
 Al         8.4165052019        3.0402053633        8.2775246100
 Al         5.0115290709        2.9357784495        8.1513495607
  C         6.7431858826        5.3484983480        8.1979302771
  C         7.7299339825        4.1348420641       11.0058601287
  C         3.2798380302        0.5573462842        8.1872834249
  C         3.4167498620        3.2196990814        5.7606457577
  C         3.4754506820        3.5514472137        4.2988236241
  C         4.7417152991        3.8579636099        3.7464557112
  C         4.9049703223        4.2359399942        2.4286874995
  C         3.7937382595        4.2674506190        1.5681898606
  C         2.5255906113        3.9495898935        2.0713304503
  C         2.3844130873        3.6224982004        3.4173282351
  C         8.1955172612        2.8025929383       14.6009326679
  C         6.8763224260        2.7777942282       15.0719166819
  C         5.8400390880        3.2380052448       14.2362513307
  C         6.1308014867        3.6714522278       12.9502069718
  C         7.4427428158        3.6622368096       12.4276717536
  C         8.4393545453        3.2574065393       13.3156937735
  C         6.6561833023        6.8450615999        8.1945658978
  C         3.2876961712       -0.9457573349        8.1580301389
  F         7.8234753890        3.3720733740        3.8515822406
  F         3.0462443172        3.3426270633       12.9268467315
  F         5.6132355844       -1.1248610908        8.2346411282
  F         4.3159434283        7.0488335010        8.0876434279
  H         3.4326493904        4.6408220161        8.7476199978
  H         6.7857642738        1.4664943651        7.4293521621
  H         5.6086187116        3.7996319758        4.4038641691
  H         5.8781575462        4.5184248234        2.0503199813
  H         1.6579698106        3.9617850071        1.4185009147
  H         9.0099524200        2.4749602669       15.2423371375
  H         4.8269339940        3.2696867487       14.6146630803
  H         5.3177466849        4.0747956804       12.3400434773
  N         3.8635607102        4.6439930841        0.2013650896
  N         6.7290783700        2.3287484536       16.3993597376
  O         7.8737195136        4.8562594213        7.9164348384
  O         7.6579901860        5.3500342350       10.7779500940
  O         4.3781656247        1.1339240684        7.9200195938
  O         2.3091563404        2.9445981826        6.3241896873
  O         2.1860501036        1.1334227158        8.4700736681
  O         4.5660501836        3.2418690724        6.3346148474
  O         5.6773397316        4.7088234820        8.4722680212
  O         7.9708339038        3.1728379150       10.1598117978
  O         3.4017299393        3.6671043386        8.7033049688
  O         6.7379152893        2.3726882274        7.7826195520
  O         5.1426840967        2.3180738706       10.0879824304
  C         5.7710073228        1.1311263494       10.6651478235
  H         5.7047301927        0.3497899490        9.9077390255
  H         5.2034613786        0.8426906578       11.5538508386
  H         6.8240445704        1.3287074456       10.8900351118
  H         4.8169617369        2.9179723425       10.7885009840
      50
 i =      245, E =      -412.9125942559
 Al         8.4221291084        3.0425083104        8.2758207978
 Al         5.0145059223        2.9309721699        8.1524047238
  C         6.7437966751        5.3489196000        8.1978464890
  C         7.7315848779        4.1347851367       11.0054575033
  C         3.2818542419        0.5577771734        8.1848852611
  C         3.4185411482        3.2183374210        5.7619563529
  C         3.4774532853        3.5469484907        4.3003315493
  C         4.7443464228        3.8489370833        3.7478427093
  C         4.9086136147        4.2210858595        2.4268189632
  C         3.7976871230        4.2564227212        1.5668396697
  C         2.5284896916        3.9420693362        2.0717119114
  C         2.3875244894        3.6171559421        3.4180911447
  C         8.1982568216        2.7961266175       14.5946206831
  C         6.8786591489        2.7739364704       15.0702878692
  C         5.8433350683        3.2421748882       14.2373608701
  C         6.1317274040        3.6748369643       12.9487644853
  C         7.4444815391        3.6638825097       12.4258649331
  C         8.4403326682        3.2571327492       13.3127013658
  C         6.6575302888        6.8458156984        8.1932281437
  C         3.2894388864       -0.9453230585        8.1551995850
  F         7.8242581559        3.3719007091        3.8515177580
  F         3.0479027953        3.3426005455       12.9253864602
  F         5.6136737463       -1.1246767815        8.2347653482
  F         4.3163144504        7.0489459763        8.0872083245
  H         3.4398707428        4.6379968052        8.7555763637
  H         6.7883545336        1.4657468485        7.4315551323
  H         5.6103320838        3.7948824412        4.4074079174
  H         5.8822941914        4.4979261204        2.0456904445
  H         1.6567789487        3.9583190830        1.4241686736
  H         9.0176361735        2.4623901744       15.2258928695
  H         4.8310271853        3.2733635189       14.6171605954
  H         5.3229269539        4.0819321644       12.3367973167
  N         3.8674882922        4.6404591211        0.2017526518
  N         6.7325793678        2.3177085842       16.3954148017
  O         7.8751963240        4.8566985359        7.9169926132
  O         7.6577306157        5.3495777470       10.7779221769
  O         4.3806119005        1.1333334483        7.9188642828
  O         2.3100828440        2.9441758052        6.3254947508
  O         2.1895151030        1.1343004930        8.4698826599
  O         4.5668812661        3.2400901441        6.3360933829
  O         5.6784873242        4.7094931986        8.4717650343
  O         7.9757647244        3.1730562238       10.1599593357
  O         3.4074071404        3.6651463417        8.7037054289
  O         6.7387489938        2.3724917117        7.7834144853
  O         5.1423149686        2.3173465216       10.0886169163
  C         5.7806692264        1.1375600666       10.6677313622
  H         5.7200834154        0.3514743689        9.9144548911
  H         5.2213765142        0.8461385823       11.5589197244
  H         6.8306067884        1.3484868419       10.8867862558
  H         4.7738742706        2.8921619251       10.7877504070
      50
 i =      246, E =      -412.9127636325
 Al         8.4267162055        3.0443389643        8.2741481192
 Al         5.0176950002        2.9278944014        8.1532116366
  C         6.7441603463        5.3485917178        8.1973071335
  C         7.7328174486        4.1368075072       11.0060639508
  C         3.2843838590        0.5571730083        8.1835668862
  C         3.4203119666        3.2159463577        5.7633369980
  C         3.4801030002        3.5389363894        4.3013349239
  C         4.7479105702        3.8385860070        3.7488419524
  C         4.9141006258        4.2026446423        2.4257479376
  C         3.8027600694        4.2419360685        1.5660845872
  C         2.5325060147        3.9332088629        2.0723003530
  C         2.3899955582        3.6097799563        3.4185143528
  C         8.2021607185        2.7892918885       14.5905994574
  C         6.8831658652        2.7694516186       15.0704290057
  C         5.8483742362        3.2436552632       14.2403444749
  C         6.1340186815        3.6776692728       12.9506334775
  C         7.4461172240        3.6656244689       12.4260160007
  C         8.4419153864        3.2563803905       13.3114087784
  C         6.6581833506        6.8456181326        8.1925484597
  C         3.2910460119       -0.9455032498        8.1535213359
  F         7.8244871109        3.3720274832        3.8516041294
  F         3.0497697761        3.3423647509       12.9241930090
  F         5.6137504165       -1.1244197463        8.2346049731
  F         4.3164917860        7.0490984950        8.0871422427
  H         3.4471065005        4.6346944043        8.7694602441
  H         6.7917401179        1.4612554535        7.4412333375
  H         5.6129969346        3.7862435587        4.4101584746
  H         5.8890957406        4.4754793634        2.0435677485
  H         1.6593494749        3.9504724218        1.4259789200
  H         9.0243788774        2.4492468066       15.2152905593
  H         4.8363150035        3.2769691603       14.6208203984
  H         5.3263670100        4.0838424210       12.3363959991
  N         3.8720385643        4.6324860302        0.2023611586
  N         6.7373399589        2.3060194339       16.3938127190
  O         7.8761581223        4.8563470111        7.9167782467
  O         7.6570823780        5.3512610301       10.7775921999
  O         4.3821933813        1.1335021928        7.9172416402
  O         2.3106939009        2.9439875068        6.3262406744
  O         2.1931369318        1.1339900614        8.4703859013
  O         4.5680022060        3.2398684642        6.3381495211
  O         5.6796361062        4.7100112683        8.4715912514
  O         7.9781803247        3.1747259923       10.1602234258
  O         3.4131568110        3.6624192766        8.7048209849
  O         6.7411482117        2.3715469124        7.7838989584
  O         5.1430202925        2.3163617096       10.0884645900
  C         5.7922501098        1.1425746237       10.6722493806
  H         5.7400102758        0.3481681843        9.9272609886
  H         5.2418950261        0.8521370529       11.5685074929
  H         6.8390603971        1.3694658094       10.8871647885
  H         4.7229198567        2.8618768484       10.7836392075
      50
 i =      247, E =      -412.9129485326
 Al         8.4334357944        3.0466853870        8.2739675467
 Al         5.0224286109        2.9228250388        8.1528228097
  C         6.7447534417        5.3470733436        8.1959157790
  C         7.7340675146        4.1423581849       11.0065432234
  C         3.2888348566        0.5556093755        8.1820889965
  C         3.4235387734        3.2124816033        5.7646121701
  C         3.4850198993        3.5272003083        4.3015610606
  C         4.7541218526        3.8199824002        3.7486901339
  C         4.9224845271        4.1798843704        2.4246827141
  C         3.8096636725        4.2251957131        1.5652956983
  C         2.5385607506        3.9187031931        2.0721558582
  C         2.3935513174        3.5995946163        3.4179690053
  C         8.2058980726        2.7856325725       14.5880833371
  C         6.8872710270        2.7717938140       15.0712284383
  C         5.8536735733        3.2561365629       14.2448876545
  C         6.1384717350        3.6898603648       12.9539701330
  C         7.4486770587        3.6715807448       12.4271468207
  C         8.4446020398        3.2577170583       13.3111602753
  C         6.6590057225        6.8444275642        8.1915316984
  C         3.2936314742       -0.9461278944        8.1508267092
  F         7.8256941032        3.3717309415        3.8511530436
  F         3.0524849810        3.3422541082       12.9224231257
  F         5.6139514374       -1.1243196867        8.2347605387
  F         4.3167844505        7.0492986977        8.0871827946
  H         3.4583920943        4.6287741550        8.7919325071
  H         6.7990100055        1.4488096585        7.4676169798
  H         5.6181044573        3.7753325228        4.4127929138
  H         5.8995218506        4.4438320022        2.0410836733
  H         1.6656143140        3.9394162106        1.4246009303
  H         9.0299967700        2.4385279295       15.2074362118
  H         4.8427841297        3.2965249870       14.6270916955
  H         5.3314158232        4.0935927290       12.3374621580
  N         3.8779318970        4.6237277994        0.2029555736
  N         6.7421431957        2.2997136252       16.3933077888
  O         7.8780928885        4.8563302215        7.9158923771
  O         7.6567268637        5.3573261048       10.7772370874
  O         4.3859825225        1.1320531445        7.9152327303
  O         2.3128152989        2.9435872321        6.3270991457
  O         2.1991897654        1.1338475063        8.4713546208
  O         4.5704500747        3.2399538166        6.3414043005
  O         5.6820480965        4.7093871031        8.4713316874
  O         7.9803595095        3.1782647975       10.1610357165
  O         3.4230467253        3.6575338319        8.7067056011
  O         6.7473009028        2.3691058732        7.7843227987
  O         5.1456047386        2.3172495044       10.0888222304
  C         5.7982589330        1.1530168132       10.6873862131
  H         5.7580762510        0.3413705349        9.9578879663
  H         5.2555604530        0.8704569249       11.5900052310
  H         6.8390307226        1.4011382368       10.9028329507
  H         4.6784056732        2.8309953385       10.7681426601
      50
 i =      248, E =      -412.9117792515
 Al         8.4345318088        3.0482160120        8.2717829130
 Al         5.0242914538        2.9205250204        8.1559526913
  C         6.7446040837        5.3451346881        8.1950552174
  C         7.7330073676        4.1472742400       11.0086350375
  C         3.2915692007        0.5527993537        8.1811365638
  C         3.4273684489        3.2072086101        5.7673166688
  C         3.4926084575        3.5036195295        4.3008357619
  C         4.7653163890        3.7800557820        3.7461829868
  C         4.9394393706        4.1256174428        2.4199362699
  C         3.8268898685        4.1689877084        1.5579791200
  C         2.5532052633        3.8733729037        2.0651726784
  C         2.4009869774        3.5745046422        3.4145401598
  C         8.2200736329        2.7607663490       14.5849101761
  C         6.9031041763        2.7414885232       15.0701213719
  C         5.8676512534        3.2344950548       14.2508571858
  C         6.1485073146        3.6798420620       12.9632781013
  C         7.4549449010        3.6702885806       12.4317860458
  C         8.4526089450        3.2494392166       13.3118943200
  C         6.6592818589        6.8427300738        8.1913668700
  C         3.2944631565       -0.9478013090        8.1496611522
  F         7.8283174876        3.3706922563        3.8507326149
  F         3.0586802177        3.3417458412       12.9196977900
  F         5.6142165051       -1.1244220424        8.2352665024
  F         4.3165710363        7.0490037946        8.0878994660
  H         3.4658583628        4.6209756386        8.8374337917
  H         6.8033854675        1.4322506006        7.5038474969
  H         5.6277495349        3.7431435591        4.4131045538
  H         5.9197764115        4.3780355684        2.0366647453
  H         1.6844040019        3.8903579600        1.4112627480
  H         9.0459773238        2.4070254995       15.1988212566
  H         4.8580690047        3.2733678255       14.6370373788
  H         5.3355427398        4.0700405399       12.3450340918
  N         3.8970725954        4.5664536754        0.1953615379
  N         6.7608851653        2.2556174345       16.3891281593
  O         7.8790987675        4.8562549039        7.9150588153
  O         7.6467091176        5.3620202352       10.7776066434
  O         4.3882724798        1.1291062035        7.9126778758
  O         2.3149341163        2.9434154901        6.3292265482
  O         2.2016211299        1.1319766656        8.4726620340
  O         4.5722407405        3.2420063709        6.3480292779
  O         5.6831487576        4.7082707104        8.4702497877
  O         7.9820021882        3.1826601823       10.1634696002
  O         3.4262443440        3.6521642514        8.7110914728
  O         6.7502250528        2.3652524620        7.7863568329
  O         5.1540654736        2.3180272821       10.0884793057
  C         5.8146881258        1.1705194017       10.7100108447
  H         5.7864873778        0.3301808988       10.0078671510
  H         5.2897396081        0.9141525308       11.6304451047
  H         6.8513524375        1.4447246101       10.9111796980
  H         4.5145198089        2.7475465346       10.7494727715
      50
 i =      249, E =      -412.9131455359
 Al         8.4276027944        3.0434863317        8.2757097035
 Al         5.0188373744        2.9268979251        8.1516788697
  C         6.7440798823        5.3465693208        8.1956100875
  C         7.7329036939        4.1436376561       11.0076285553
  C         3.2874578183        0.5546078758        8.1833964479
  C         3.4236970103        3.2115535156        5.7640124734
  C         3.4867094006        3.5221444284        4.2995408348
  C         4.7565438705        3.8146929630        3.7465734787
  C         4.9260195652        4.1747843539        2.4244552922
  C         3.8133481114        4.2155413568        1.5637783347
  C         2.5423191110        3.9095680186        2.0688575925
  C         2.3946344240        3.5941710339        3.4156746338
  C         8.2082543213        2.7825794400       14.5916169729
  C         6.8904811178        2.7642015498       15.0715904845
  C         5.8553787096        3.2429108022       14.2450351174
  C         6.1409897002        3.6814985795       12.9573766768
  C         7.4495773955        3.6686296174       12.4295243763
  C         8.4466876441        3.2542652309       13.3130810194
  C         6.6581053791        6.8438686189        8.1924299382
  C         3.2918623950       -0.9468747827        8.1528618338
  F         7.8266611812        3.3713415496        3.8512193140
  F         3.0536301642        3.3418106234       12.9224129924
  F         5.6139106858       -1.1246374620        8.2348361948
  F         4.3159042577        7.0490065344        8.0883339184
  H         3.4508594071        4.6280988945        8.8002425666
  H         6.7973012925        1.4433113180        7.4811974999
  H         5.6210310853        3.7669507451        4.4092016240
  H         5.9035092278        4.4413673934        2.0433286855
  H         1.6741641607        3.9235278718        1.4148550830
  H         9.0292272675        2.4407390969       15.2179484649
  H         4.8440251124        3.2831249294       14.6271820515
  H         5.3293080978        4.0805795127       12.3425224115
  N         3.8821798383        4.6076242341        0.1999104824
  N         6.7465248629        2.2968290810       16.3956010347
  O         7.8769788065        4.8557599748        7.9156088399
  O         7.6540810514        5.3583560760       10.7782337427
  O         4.3843719343        1.1315491563        7.9151467584
  O         2.3132505017        2.9437578158        6.3263079161
  O         2.1958985781        1.1321932908        8.4719308819
  O         4.5704190219        3.2418619958        6.3423893550
  O         5.6812458353        4.7088493917        8.4712124607
  O         7.9784858689        3.1800377434       10.1622348766
  O         3.4161721652        3.6575149002        8.7080874048
  O         6.7455782100        2.3678292886        7.7843040179
  O         5.1472890998        2.3183307925       10.0879393822
  C         5.7962561584        1.1550771769       10.6943278641
  H         5.7561511918        0.3376139226        9.9723534684
  H         5.2536142033        0.8838952532       11.6015543736
  H         6.8378327882        1.4024057405       10.9085830300
  H         4.6551250144        2.8231797898       10.7597674070
      50
 i =      250, E =      -412.9132369539
 Al         8.4277551500        3.0434212905        8.2766208206
 Al         5.0197866521        2.9265733958        8.1512648826
  C         6.7443107246        5.3463082130        8.1953353541
  C         7.7318883862        4.1425138526       11.0075225247
  C         3.2878626836        0.5542373987        8.1830566233
  C         3.4233868183        3.2110606316        5.7640924212
  C         3.4867303210        3.5196411590        4.2988064390
  C         4.7567567196        3.8089060847        3.7452884866
  C         4.9268909985        4.1687524956        2.4232790646
  C         3.8143905120        4.2101468391        1.5625285865
  C         2.5433089880        3.9035937564        2.0670874358
  C         2.3948100245        3.5916606329        3.4147918059
  C         8.2081645177        2.7817447929       14.5919103210
  C         6.8905682254        2.7626265839       15.0711499648
  C         5.8555024572        3.2425449153       14.2448809218
  C         6.1411633421        3.6817680785       12.9578254068
  C         7.4495573452        3.6677223961       12.4299433018
  C         8.4468550861        3.2529618716       13.3129337621
  C         6.6581395912        6.8436709035        8.1917396475
  C         3.2919485557       -0.9468524260        8.1519618293
  F         7.8264937723        3.3715337534        3.8509106199
  F         3.0540296775        3.3415874364       12.9221662088
  F         5.6137155120       -1.1246846289        8.2347894981
  F         4.3162169436        7.0490400417        8.0878365666
  H         3.4521052579        4.6268184683        8.8008282124
  H         6.7984808152        1.4408209427        7.4875346272
  H         5.6210480597        3.7618789582        4.4081202730
  H         5.9047658957        4.4336119926        2.0425111953
  H         1.6762549379        3.9180904118        1.4119254762
  H         9.0280888104        2.4403530228       15.2201700026
  H         4.8445792261        3.2832610983       14.6273446419
  H         5.3303435374        4.0811163743       12.3431437840
  N         3.8831176106        4.6007776802        0.1981414664
  N         6.7471723452        2.2955388350       16.3952954848
  O         7.8772010514        4.8556718448        7.9159241856
  O         7.6527459867        5.3574264712       10.7778230200
  O         4.3847965053        1.1311400388        7.9151653279
  O         2.3127370086        2.9438792483        6.3261500737
  O         2.1967742975        1.1329264859        8.4717297110
  O         4.5700000074        3.2423774130        6.3431188132
  O         5.6813650847        4.7082907055        8.4706260473
  O         7.9788516397        3.1791097435       10.1614767755
  O         3.4173342777        3.6565422708        8.7078692823
  O         6.7467634625        2.3674136961        7.7847742137
  O         5.1468824763        2.3191800023       10.0881906699
  C         5.7941697073        1.1582130010       10.6981884986
  H         5.7532533446        0.3371663738        9.9799554319
  H         5.2532119775        0.8895141609       11.6072415045
  H         6.8356110030        1.4078014702       10.9111491038
  H         4.6394008839        2.8153120656       10.7555876592
      50
 i =      251, E =      -412.9133869276
 Al         8.4256350167        3.0399623100        8.2853587882
 Al         5.0234873600        2.9286810544        8.1456173134
  C         6.7459751227        5.3451861089        8.1939443245
  C         7.7255834179        4.1387608766       11.0086867173
  C         3.2901993521        0.5517022795        8.1824084258
  C         3.4229295592        3.2047754280        5.7636712222
  C         3.4900735134        3.4956930571        4.2926706037
  C         4.7624846421        3.7666999571        3.7371167726
  C         4.9364235381        4.1251835083        2.4161387040
  C         3.8254120436        4.1694749183        1.5547006291
  C         2.5539801333        3.8630690713        2.0555708484
  C         2.3991376437        3.5693757218        3.4082303095
  C         8.2092937513        2.7693767084       14.5921414320
  C         6.8925580282        2.7473390625       15.0665038871
  C         5.8569921065        3.2334952484       14.2445108554
  C         6.1442384998        3.6790354392       12.9620495086
  C         7.4508646802        3.6603326904       12.4326826866
  C         8.4487791811        3.2401777852       13.3114129521
  C         6.6591211635        6.8430149893        8.1888276976
  C         3.2918709284       -0.9473653106        8.1493964049
  F         7.8276826446        3.3712903614        3.8497928065
  F         3.0573577989        3.3395894715       12.9207823650
  F         5.6142065016       -1.1250278801        8.2349355785
  F         4.3168634874        7.0491134059        8.0876207346
  H         3.4527633230        4.6202721762        8.8106742625
  H         6.8053940020        1.4201057072        7.5416705601
  H         5.6257274569        3.7144580764        4.3997789446
  H         5.9169422422        4.3834336481        2.0388117135
  H         1.6951427017        3.8748976743        1.3911875643
  H         9.0232254586        2.4337560854       15.2322409141
  H         4.8479211789        3.2813631852       14.6287667628
  H         5.3386821920        4.0845228622       12.3493643268
  N         3.8921745956        4.5552733838        0.1873240748
  N         6.7545060295        2.2836239917       16.3930514826
  O         7.8787652311        4.8545046383        7.9170217725
  O         7.6445170794        5.3530000767       10.7779957724
  O         4.3862422443        1.1290253232        7.9140285428
  O         2.3119769144        2.9432557643        6.3254975099
  O         2.2000087684        1.1333192579        8.4730999120
  O         4.5687358857        3.2462874881        6.3471459746
  O         5.6818457012        4.7062333846        8.4679353569
  O         7.9824734747        3.1780444891       10.1596520863
  O         3.4203228970        3.6519769689        8.7089369538
  O         6.7523984729        2.3636786965        7.7878152482
  O         5.1408109645        2.3246089187       10.0887379081
  C         5.7902366040        1.1809421605       10.7255719346
  H         5.7517979486        0.3299623266       10.0413418192
  H         5.2660213192        0.9305598329       11.6530907119
  H         6.8282233617        1.4572579138       10.9285166822
  H         4.4991216539        2.7447672732       10.7165128589
      50
 i =      252, E =      -412.9136020611
 Al         8.4246929931        3.0406254212        8.2824606571
 Al         5.0208776730        2.9293601597        8.1465382742
  C         6.7451612619        5.3458555177        8.1949631077
  C         7.7267616476        4.1391859000       11.0077488785
  C         3.2883195186        0.5532380184        8.1829589561
  C         3.4225493984        3.2074894733        5.7629004596
  C         3.4877461880        3.5060926272        4.2941912162
  C         4.7590734049        3.7840087371        3.7390908650
  C         4.9308721091        4.1442111149        2.4176096271
  C         3.8188622835        4.1882296745        1.5575009446
  C         2.5478070332        3.8823518531        2.0600848297
  C         2.3963629787        3.5797027637        3.4107141533
  C         8.2063818769        2.7764078594       14.5921362719
  C         6.8891432814        2.7558319078       15.0681371241
  C         5.8539512305        3.2393158828       14.2441260132
  C         6.1411311500        3.6815301760       12.9596884316
  C         7.4488090775        3.6627878317       12.4308454455
  C         8.4461717488        3.2453631448       13.3115042406
  C         6.6587231323        6.8433960090        8.1904064759
  C         3.2917803796       -0.9469570502        8.1512420474
  F         7.8267132691        3.3713242118        3.8503131409
  F         3.0547299986        3.3403574929       12.9218179820
  F         5.6140359528       -1.1248969197        8.2349156727
  F         4.3167824177        7.0491859563        8.0877401058
  H         3.4499408564        4.6243459734        8.7997360946
  H         6.8012084221        1.4291957626        7.5195616573
  H         5.6230863062        3.7304536188        4.4011840877
  H         5.9101434508        4.4045971186        2.0385876860
  H         1.6856421305        3.8958401115        1.3996202810
  H         9.0223774188        2.4406355401       15.2289286527
  H         4.8440619702        3.2852373185       14.6276135718
  H         5.3349150516        4.0888459354       12.3473902082
  N         3.8857212431        4.5746583590        0.1907901773
  N         6.7486403969        2.2927451136       16.3942951283
  O         7.8778179505        4.8549981788        7.9169464807
  O         7.6470004672        5.3534088445       10.7774045322
  O         4.3847959834        1.1303518939        7.9147270843
  O         2.3121888306        2.9432242766        6.3249328736
  O         2.1974459284        1.1330781073        8.4728192488
  O         4.5692004831        3.2448725626        6.3436884638
  O         5.6808552592        4.7072311014        8.4689027210
  O         7.9806804791        3.1777401663       10.1599107876
  O         3.4170921973        3.6545286200        8.7080757632
  O         6.7485780933        2.3652880131        7.7864169619
  O         5.1416277341        2.3234879313       10.0888887699
  C         5.7839609655        1.1716933922       10.7153605674
  H         5.7398378333        0.3335141433       10.0173722963
  H         5.2508445945        0.9153394835       11.6352814843
  H         6.8234493655        1.4314259919       10.9235981539
  H         4.5642202354        2.7786654078       10.7297591344
      50
 i =      253, E =      -412.9137110995
 Al         8.4230920691        3.0403667021        8.2830398736
 Al         5.0202686506        2.9306712127        8.1450315221
  C         6.7450954767        5.3462203083        8.1953965534
  C         7.7251498923        4.1379350078       11.0078790306
  C         3.2876475018        0.5535484769        8.1830433367
  C         3.4220660852        3.2070928845        5.7621269330
  C         3.4872650712        3.5036987734        4.2929154080
  C         4.7590753463        3.7781143327        3.7372634185
  C         4.9311631830        4.1369364306        2.4152284016
  C         3.8190527866        4.1814468040        1.5555341341
  C         2.5477886241        3.8774366187        2.0582401552
  C         2.3961347270        3.5773580358        3.4096860999
  C         8.2056069052        2.7757078808       14.5918464018
  C         6.8883689028        2.7537329789       15.0674352919
  C         5.8530281966        3.2379381340       14.2440016753
  C         6.1401000880        3.6811242017       12.9599838351
  C         7.4478493414        3.6614055638       12.4307473450
  C         8.4452078463        3.2440605293       13.3109824047
  C         6.6586702604        6.8436038885        8.1909849203
  C         3.2914840093       -0.9468740030        8.1520855724
  F         7.8264506970        3.3713693734        3.8502736224
  F         3.0540630156        3.3402625667       12.9219759363
  F         5.6139703839       -1.1248026778        8.2350620385
  F         4.3167908032        7.0491702080        8.0877892956
  H         3.4485273015        4.6248816597        8.7966936499
  H         6.8002121298        1.4268559674        7.5272399381
  H         5.6231857240        3.7219898552        4.3990921043
  H         5.9106665599        4.3955096771        2.0359593215
  H         1.6861244714        3.8906360479        1.3972260858
  H         9.0215383577        2.4420307345       15.2296580697
  H         4.8432482334        3.2844427125       14.6277935514
  H         5.3352899107        4.0914497313       12.3485307622
  N         3.8857289674        4.5647422679        0.1877815969
  N         6.7485482297        2.2920253534       16.3939919678
  O         7.8775004592        4.8549446084        7.9171994487
  O         7.6451693706        5.3517687333       10.7772090559
  O         4.3840516117        1.1305604650        7.9145199153
  O         2.3120992112        2.9431820960        6.3245133868
  O         2.1965865595        1.1332547139        8.4729808882
  O         4.5691120357        3.2452673814        6.3422602867
  O         5.6804433796        4.7072702163        8.4686395569
  O         7.9809282596        3.1770728099       10.1597175114
  O         3.4157372093        3.6545971397        8.7081605414
  O         6.7475251616        2.3649573617        7.7866864189
  O         5.1399128424        2.3250200151       10.0889959464
  C         5.7792632264        1.1753129663       10.7205785077
  H         5.7324012993        0.3319196533       10.0286808069
  H         5.2474848584        0.9235732899       11.6438039940
  H         6.8185454414        1.4350160834       10.9276154017
  H         4.5436949955        2.7696774499       10.7207172022
      50
 i =      254, E =      -412.9137372036
 Al         8.4148245313        3.0404023153        8.2866089345
 Al         5.0172823010        2.9373019018        8.1342499040
  C         6.7443089188        5.3483016672        8.1982301633
  C         7.7134685923        4.1290851119       11.0097720614
  C         3.2841031624        0.5548963126        8.1841079233
  C         3.4178981634        3.2009809325        5.7552238122
  C         3.4835137583        3.4824621604        4.2834901204
  C         4.7585665571        3.7324761991        3.7234580016
  C         4.9316132220        4.0798435494        2.3981168824
  C         3.8181372352        4.1337571724        1.5420574864
  C         2.5447840626        3.8493365664        2.0479481919
  C         2.3936999070        3.5622586305        3.4027513994
  C         8.1999938353        2.7669492314       14.5894266722
  C         6.8816175807        2.7404215170       15.0626968899
  C         5.8462604819        3.2344675128       14.2450415424
  C         6.1329357758        3.6839701763       12.9632202786
  C         7.4406922794        3.6551946581       12.4316960604
  C         8.4385827457        3.2359247501       13.3089320259
  C         6.6583576103        6.8445149304        8.1952609252
  C         3.2898022891       -0.9471074493        8.1566271214
  F         7.8251954488        3.3712290156        3.8503858208
  F         3.0486543603        3.3398142964       12.9235621890
  F         5.6136034645       -1.1240583379        8.2362180387
  F         4.3164591248        7.0487291560        8.0881531264
  H         3.4415356626        4.6288450921        8.7733122044
  H         6.7935550760        1.4121114047        7.5754619355
  H         5.6234855056        3.6540952684        4.3822806974
  H         5.9128591556        4.3247882523        2.0153173293
  H         1.6831921707        3.8659185656        1.3876005188
  H         9.0160334789        2.4384891818       15.2294660373
  H         4.8381211707        3.2870169682       14.6326290625
  H         5.3378362311        4.1120852688       12.3558999673
  N         3.8834614661        4.5062114091        0.1697028829
  N         6.7453693108        2.2771000327       16.3886104470
  O         7.8755660386        4.8548428235        7.9182254332
  O         7.6314237609        5.3409155760       10.7773815519
  O         4.3795992695        1.1309002395        7.9127511401
  O         2.3109700350        2.9435657798        6.3234259647
  O         2.1919349605        1.1330703584        8.4753168537
  O         4.5674746492        3.2469194958        6.3308255810
  O         5.6779751053        4.7072805758        8.4667454735
  O         7.9823703668        3.1721902721       10.1601426148
  O         3.4093248235        3.6552267198        8.7079043327
  O         6.7416087319        2.3626652199        7.7892411169
  O         5.1283774174        2.3350019478       10.0897829265
  C         5.7480811252        1.1986393395       10.7594372647
  H         5.6810238443        0.3158975746       10.1153947797
  H         5.2260434897        0.9842284601       11.7055609969
  H         6.7887322229        1.4571028097       10.9594309694
  H         4.3932482444        2.6988719331       10.6541111418
      50
 i =      255, E =      -412.9141049943
 Al         8.4170963049        3.0411729700        8.2842844059
 Al         5.0170504880        2.9358137135        8.1380093919
  C         6.7441339219        5.3483076978        8.1978946837
  C         7.7172108904        4.1316306124       11.0088882796
  C         3.2843623984        0.5555989015        8.1845001927
  C         3.4184142709        3.2041125066        5.7567316003
  C         3.4827730597        3.4947743240        4.2872804758
  C         4.7561119132        3.7551531124        3.7285287669
  C         4.9271424022        4.1094974661        2.4047266608
  C         3.8133340314        4.1627658674        1.5485286148
  C         2.5407784523        3.8717701404        2.0544779380
  C         2.3921224819        3.5738981916        3.4064405021
  C         8.1989167893        2.7741706522       14.5907821114
  C         6.8806093856        2.7493475973       15.0654006553
  C         5.8454476898        3.2387951699       14.2446458807
  C         6.1322883604        3.6839698352       12.9610265309
  C         7.4404740277        3.6578700153       12.4306305221
  C         8.4383167414        3.2417100369       13.3101217588
  C         6.6578878297        6.8447452572        8.1952480277
  C         3.2899419828       -0.9465047190        8.1569120316
  F         7.8248636723        3.3713100650        3.8506784346
  F         3.0478379626        3.3407071085       12.9239362887
  F         5.6135620313       -1.1242243472        8.2358086956
  F         4.3161920848        7.0489183747        8.0881328619
  H         3.4416918115        4.6308183529        8.7713258981
  H         6.7923516678        1.4230066150        7.5453284080
  H         5.6213566614        3.6833914627        4.3874824038
  H         5.9070499452        4.3599145203        2.0217811503
  H         1.6765908154        3.8905765388        1.3971328011
  H         9.0157281031        2.4435006311       15.2283543813
  H         4.8362247807        3.2882535400       14.6304091409
  H         5.3331540886        4.1064873062       12.3523329225
  N         3.8791375498        4.5393105138        0.1782458612
  N         6.7417876520        2.2886186984       16.3912844052
  O         7.8755559419        4.8551758929        7.9174057128
  O         7.6374049212        5.3442769931       10.7775225508
  O         4.3805380040        1.1314487302        7.9140156621
  O         2.3110730424        2.9433261583        6.3238424534
  O         2.1922051876        1.1336538333        8.4742178830
  O         4.5676934617        3.2446295103        6.3325370238
  O         5.6786507173        4.7078326490        8.4678156858
  O         7.9803373750        3.1733522877       10.1603546990
  O         3.4100946049        3.6573497583        8.7072184010
  O         6.7417697181        2.3646762476        7.7877857430
  O         5.1311052936        2.3305618983       10.0898360467
  C         5.7553867795        1.1836511775       10.7394217007
  H         5.6904224258        0.3214761056       10.0719780325
  H         5.2252732934        0.9531648663       11.6736254108
  H         6.7980600412        1.4326140994       10.9445425464
  H         4.4762160810        2.7391525846       10.6837830092
      50
 i =      256, E =      -412.9142163275
 Al         8.4158010201        3.0411744005        8.2834273381
 Al         5.0161493727        2.9366254763        8.1366156629
  C         6.7437173954        5.3480609845        8.1983061790
  C         7.7151714524        4.1306484078       11.0090438446
  C         3.2839470301        0.5554197203        8.1845430785
  C         3.4178215007        3.2019951188        5.7556693666
  C         3.4823169887        3.4895041023        4.2860008838
  C         4.7560162124        3.7454164004        3.7255761884
  C         4.9267523377        4.0987762592        2.4015848524
  C         3.8119053015        4.1567108923        1.5466959862
  C         2.5389582111        3.8698088243        2.0543500132
  C         2.3910734856        3.5712635748        3.4059698449
  C         8.1979430471        2.7731630478       14.5904062815
  C         6.8797131976        2.7476938318       15.0657973294
  C         5.8443807380        3.2388225310       14.2461428647
  C         6.1305212070        3.6843062923       12.9622994586
  C         7.4382691002        3.6569623473       12.4308778340
  C         8.4371124740        3.2413261979       13.3100484698
  C         6.6577288419        6.8444301756        8.1961859418
  C         3.2900301459       -0.9466685426        8.1578862110
  F         7.8241186320        3.3712239826        3.8508639512
  F         3.0468200749        3.3409664845       12.9241425224
  F         5.6135321193       -1.1241541039        8.2358893375
  F         4.3161685913        7.0489601989        8.0882218571
  H         3.4393939544        4.6313700064        8.7682750372
  H         6.7896402372        1.4211119334        7.5499107534
  H         5.6217030850        3.6710891234        4.3836196120
  H         5.9070602668        4.3452489895        2.0171427781
  H         1.6735049553        3.8921531800        1.3985593219
  H         9.0151636856        2.4416094837       15.2270867868
  H         4.8352923136        3.2890938085       14.6330381678
  H         5.3311697990        4.1070993052       12.3537961284
  N         3.8774692634        4.5344100239        0.1765087865
  N         6.7403446281        2.2860767765       16.3908922212
  O         7.8752523503        4.8550948653        7.9175855293
  O         7.6338509154        5.3430040120       10.7774307429
  O         4.3799800696        1.1315490808        7.9140811140
  O         2.3105105768        2.9428165978        6.3234690195
  O         2.1913392510        1.1332265988        8.4739863949
  O         4.5672760198        3.2432513553        6.3312637666
  O         5.6780074972        4.7081179911        8.4673889365
  O         7.9796017913        3.1727153661       10.1604681428
  O         3.4087817335        3.6575481241        8.7071781036
  O         6.7400530428        2.3644136776        7.7877132092
  O         5.1312093856        2.3318914477       10.0903199070
  C         5.7452617034        1.1845744751       10.7463909865
  H         5.6730721907        0.3165693304       10.0864075695
  H         5.2138002986        0.9666711818       11.6833107824
  H         6.7890669101        1.4253905475       10.9516252018
  H         4.4584943033        2.7303211340       10.6736188879
      50
 i =      257, E =      -412.9141775486
 Al         8.4098413537        3.0416338737        8.2795768529
 Al         5.0120279959        2.9397866366        8.1278063603
  C         6.7417380836        5.3480303302        8.1994410458
  C         7.7015793526        4.1240683977       11.0106161046
  C         3.2819452399        0.5547148029        8.1858766623
  C         3.4139342823        3.1870147336        5.7490404792
  C         3.4796956360        3.4557394905        4.2779719495
  C         4.7550720495        3.6844224651        3.7074590905
  C         4.9214974611        4.0364573713        2.3836942397
  C         3.8010428939        4.1256289522        1.5361971059
  C         2.5258027066        3.8625548322        2.0535356758
  C         2.3857861121        3.5568038328        3.4022424148
  C         8.1914889804        2.7631046434       14.5880969614
  C         6.8725427690        2.7402953941       15.0665357503
  C         5.8372516252        3.2433923051       14.2537432091
  C         6.1203297844        3.6882880466       12.9685008678
  C         7.4260578297        3.6530343323       12.4331578357
  C         8.4307289964        3.2390667460       13.3108306839
  C         6.6567139145        6.8439027818        8.2004273602
  C         3.2892841362       -0.9473754129        8.1613845963
  F         7.8218217086        3.3707385197        3.8518606507
  F         3.0416343312        3.3418122047       12.9258975226
  F         5.6134411750       -1.1235190097        8.2366629515
  F         4.3152873082        7.0485438900        8.0888551771
  H         3.4293334607        4.6356214356        8.7444432525
  H         6.7740001311        1.4110118453        7.5765593919
  H         5.6243026169        3.5947892498        4.3583542568
  H         5.9033153131        4.2615448723        1.9901031196
  H         1.6508084187        3.9095475781        1.4102154731
  H         9.0098990956        2.4209555822       15.2173106652
  H         4.8305598255        3.2974415806       14.6489486306
  H         5.3193227854        4.1069245903       12.3595747043
  N         3.8667285628        4.5189553835        0.1692183582
  N         6.7300540511        2.2640215990       16.3853042332
  O         7.8733042057        4.8541032517        7.9173320425
  O         7.6126002511        5.3354408279       10.7796360392
  O         4.3776658078        1.1308531381        7.9152708784
  O         2.3068868632        2.9407365361        6.3238183767
  O         2.1877314525        1.1320629739        8.4737976065
  O         4.5630992586        3.2338494559        6.3255136419
  O         5.6764364176        4.7088960381        8.4650642406
  O         7.9752108852        3.1688112146       10.1619437455
  O         3.4034739167        3.6599865762        8.7062536474
  O         6.7306334667        2.3624742110        7.7887731693
  O         5.1230086742        2.3409710749       10.0942443447
  C         5.6945257429        1.1914649077       10.7843216610
  H         5.5868037079        0.2869731351       10.1720429127
  H         5.1600237027        1.0431505167       11.7390651203
  H         6.7491927017        1.3950304310       10.9889289981
  H         4.3278464474        2.6655635938       10.6019371907
      50
 i =      258, E =      -412.9145766823
 Al         8.4134424112        3.0418066177        8.2793236747
 Al         5.0138499754        2.9381252060        8.1332404416
  C         6.7425447926        5.3474815643        8.1984230473
  C         7.7082316488        4.1279605074       11.0092995109
  C         3.2831695887        0.5546841684        8.1848294940
  C         3.4162434847        3.1944622787        5.7528549831
  C         3.4809871714        3.4735016979        4.2828219930
  C         4.7547705508        3.7184165109        3.7165099541
  C         4.9223530015        4.0710135499        2.3926077207
  C         3.8041515619        4.1461051670        1.5418205383
  C         2.5305039384        3.8715242136        2.0558644766
  C         2.3875988227        3.5658559753        3.4052535466
  C         8.1945164873        2.7707051625       14.5894841042
  C         6.8761026584        2.7461882030       15.0670684073
  C         5.8402329735        3.2401217353       14.2499578621
  C         6.1241955529        3.6836220310       12.9644857169
  C         7.4311449394        3.6550117532       12.4313842911
  C         8.4339069690        3.2423518928       13.3107040458
  C         6.6572218071        6.8438196780        8.1975580844
  C         3.2900383238       -0.9470921906        8.1588729484
  F         7.8223995234        3.3710520509        3.8517513790
  F         3.0443759429        3.3417536853       12.9249054790
  F         5.6135566931       -1.1240084200        8.2360723010
  F         4.3157819751        7.0488205711        8.0883648756
  H         3.4346607808        4.6346304709        8.7537642378
  H         6.7804222854        1.4184461908        7.5549836767
  H         5.6229475102        3.6395592596        4.3703248695
  H         5.9031012619        4.3058463617        2.0022358831
  H         1.6586223661        3.9088367433        1.4084397925
  H         9.0127263171        2.4322749176       15.2211856823
  H         4.8319234214        3.2900574843       14.6412025026
  H         5.3208619062        4.0979810421       12.3541934047
  N         3.8700458299        4.5343434190        0.1740989717
  N         6.7340280655        2.2761535984       16.3880954552
  O         7.8744475777        4.8547408899        7.9171238764
  O         7.6220911863        5.3401284695       10.7785191889
  O         4.3791836363        1.1314027627        7.9153927449
  O         2.3084297853        2.9416839792        6.3237779587
  O         2.1898438512        1.1324993355        8.4731275703
  O         4.5651910888        3.2381415152        6.3294239280
  O         5.6771214384        4.7089074680        8.4663325763
  O         7.9765373903        3.1710947519       10.1610331591
  O         3.4064317332        3.6601368386        8.7063233935
  O         6.7346052208        2.3640040549        7.7876497476
  O         5.1277653322        2.3370787331       10.0924877470
  C         5.7144425580        1.1838854869       10.7607733006
  H         5.6194961958        0.3029701950       10.1198813059
  H         5.1781195138        1.0042074722       11.7038119779
  H         6.7655746752        1.3951832095       10.9670781071
  H         4.4086617114        2.7077125141       10.6401610017
      50
 i =      259, E =      -412.9146882586
 Al         8.4133371700        3.0417183196        8.2782984309
 Al         5.0138183972        2.9380869334        8.1324907062
  C         6.7425463206        5.3474412874        8.1978837592
  C         7.7063388150        4.1274035552       11.0091580142
  C         3.2831881677        0.5545102111        8.1844467813
  C         3.4162910349        3.1934857580        5.7524816788
  C         3.4811651712        3.4701038307        4.2820403285
  C         4.7548341043        3.7123861327        3.7141767973
  C         4.9214850007        4.0633937473        2.3898462066
  C         3.8025297845        4.1425102365        1.5401813428
  C         2.5289535133        3.8705470099        2.0556910088
  C         2.3872994213        3.5638453138        3.4049550201
  C         8.1939026967        2.7710701296       14.5896319972
  C         6.8756457356        2.7462313728       15.0674089973
  C         5.8394923365        3.2391494610       14.2501149604
  C         6.1226972387        3.6812310076       12.9640778434
  C         7.4298561814        3.6542697525       12.4312200646
  C         8.4332404922        3.2434351098       13.3111871517
  C         6.6571762812        6.8439288985        8.1968512790
  C         3.2898992515       -0.9470959574        8.1581680958
  F         7.8220903375        3.3710656870        3.8519544153
  F         3.0440093539        3.3417858030       12.9250066334
  F         5.6135454810       -1.1240227850        8.2360362227
  F         4.3156307351        7.0487236078        8.0882434664
  H         3.4351377995        4.6350756761        8.7499158718
  H         6.7786719575        1.4172287924        7.5569163167
  H         5.6239616010        3.6346655902        4.3669195940
  H         5.9022977137        4.2951350582        1.9978626197
  H         1.6555852234        3.9114567618        1.4104710098
  H         9.0119978287        2.4310783345       15.2204024586
  H         4.8310988399        3.2877213263       14.6415557938
  H         5.3174444739        4.0899543336       12.3518558455
  N         3.8682784855        4.5331290271        0.1732620219
  N         6.7327939883        2.2741115881       16.3874697077
  O         7.8745213380        4.8545331303        7.9165433905
  O         7.6181466572        5.3395653115       10.7787702369
  O         4.3793234518        1.1313435077        7.9155113727
  O         2.3082860677        2.9416960602        6.3240085737
  O         2.1901527631        1.1328193210        8.4729031717
  O         4.5650822294        3.2378980243        6.3294026607
  O         5.6773715361        4.7088887020        8.4659818267
  O         7.9762754296        3.1709641102       10.1610275022
  O         3.4067195334        3.6605976694        8.7060756621
  O         6.7338685181        2.3635548149        7.7875496791
  O         5.1256687746        2.3397181477       10.0927383635
  C         5.7049943637        1.1845424528       10.7636415559
  H         5.6039280538        0.3008451022       10.1272113976
  H         5.1678152976        1.0156546125       11.7082042653
  H         6.7585192583        1.3874878852       10.9694280004
  H         4.3922958745        2.7020376979       10.6278196033
      50
 i =      260, E =      -412.9149590881
 Al         8.4136547551        3.0402103733        8.2743003250
 Al         5.0157125061        2.9378007482        8.1273522194
  C         6.7429368366        5.3471397942        8.1947724844
  C         7.6947566735        4.1232755124       11.0083249662
  C         3.2840546658        0.5536056767        8.1807500808
  C         3.4180408176        3.1882835878        5.7495498577
  C         3.4833904010        3.4511302287        4.2760897057
  C         4.7566471800        3.6791074710        3.7003090943
  C         4.9187380939        4.0188253088        2.3728073440
  C         3.7958756599        4.1191848818        1.5300218168
  C         2.5228545298        3.8618232827        2.0526032170
  C         2.3874110790        3.5525651052        3.4020090534
  C         8.1906382984        2.7734248272       14.5907568187
  C         6.8722868494        2.7469846626       15.0674637379
  C         5.8348754994        3.2324321164       14.2481523302
  C         6.1151315616        3.6657303062       12.9590713019
  C         7.4245804650        3.6496255010       12.4301967595
  C         8.4301437636        3.2470533295       13.3133022232
  C         6.6579841442        6.8443437904        8.1916586709
  C         3.2900392426       -0.9471902609        8.1521808429
  F         7.8214647428        3.3709399641        3.8526128038
  F         3.0428745640        3.3417191466       12.9253848973
  F         5.6136271855       -1.1237982869        8.2357537981
  F         4.3154876331        7.0484956762        8.0876829164
  H         3.4393576226        4.6356144835        8.7288181522
  H         6.7727292331        1.4089049164        7.5709702584
  H         5.6311949158        3.6054541106        4.3469777073
  H         5.8995714162        4.2316633406        1.9709461362
  H         1.6426811093        3.9220344632        1.4182569679
  H         9.0081714091        2.4280293810       15.2185511196
  H         4.8262216615        3.2749526427       14.6392803939
  H         5.3007101882        4.0407569632       12.3346963975
  N         3.8608455555        4.5247218226        0.1679837688
  N         6.7271271584        2.2646903029       16.3831023436
  O         7.8754787969        4.8538135489        7.9138303487
  O         7.5932395403        5.3353647273       10.7798252873
  O         4.3807650780        1.1310669869        7.9140350704
  O         2.3093023540        2.9424697836        6.3245272291
  O         2.1928981863        1.1337849482        8.4718397621
  O         4.5660363353        3.2398891940        6.3281994635
  O         5.6786969043        4.7088742604        8.4642472454
  O         7.9761166187        3.1693046449       10.1601950949
  O         3.4100132941        3.6609522056        8.7047598482
  O         6.7325748579        2.3600446723        7.7870694211
  O         5.1115879922        2.3583650366       10.0938246366
  C         5.6456009717        1.1914722853       10.7812769220
  H         5.5091249898        0.2925488084       10.1698570706
  H         5.1056097215        1.0857816893       11.7351938788
  H         6.7116848698        1.3495752895       10.9821338114
  H         4.2906362098        2.6682768129       10.5499624755
      50
 i =      261, E =      -412.9151763221
 Al         8.4162989753        3.0410125862        8.2747606516
 Al         5.0177575540        2.9374905041        8.1281917522
  C         6.7436324942        5.3478534065        8.1946544864
  C         7.6969284709        4.1231302779       11.0077243063
  C         3.2851845104        0.5545646535        8.1800552802
  C         3.4189130131        3.1920977696        5.7498959072
  C         3.4836658280        3.4598878042        4.2770602770
  C         4.7563149569        3.6931048127        3.7029692689
  C         4.9182500411        4.0332955394        2.3753270989
  C         3.7961861777        4.1277499817        1.5316402600
  C         2.5239506184        3.8648844203        2.0527030442
  C         2.3879900711        3.5564928073        3.4024546388
  C         8.1902869795        2.7748355944       14.5906219471
  C         6.8719221905        2.7475038724       15.0666841690
  C         5.8346111021        3.2306540750       14.2457032978
  C         6.1155397730        3.6629800064       12.9565963650
  C         7.4255228613        3.6485570690       12.4289943101
  C         8.4299835935        3.2468625113       13.3125242671
  C         6.6583588964        6.8450024539        8.1912969054
  C         3.2904081446       -0.9464094355        8.1516973824
  F         7.8218789968        3.3710543860        3.8522803726
  F         3.0426248104        3.3417455902       12.9253314242
  F         5.6136094220       -1.1238278152        8.2356440413
  F         4.3156806039        7.0488306717        8.0876024161
  H         3.4423995624        4.6362432311        8.7282751588
  H         6.7769080229        1.4135511063        7.5597644030
  H         5.6302134890        3.6231502936        4.3510636556
  H         5.8983469223        4.2513145753        1.9747815438
  H         1.6452179201        3.9204700579        1.4165754055
  H         9.0076746845        2.4326123705       15.2202978199
  H         4.8252312547        3.2719569535       14.6341741808
  H         5.3020072627        4.0379001794       12.3315198460
  N         3.8607094031        4.5309552531        0.1694399526
  N         6.7267650184        2.2681138010       16.3833119658
  O         7.8759581032        4.8541337655        7.9136834756
  O         7.5972914890        5.3352839137       10.7792420195
  O         4.3821584316        1.1315887949        7.9130398848
  O         2.3105680510        2.9427866671        6.3239072834
  O         2.1946849173        1.1351592861        8.4714447981
  O         4.5672257134        3.2405381151        6.3278727780
  O         5.6795896629        4.7091670692        8.4645965781
  O         7.9780071517        3.1696793985       10.1594178660
  O         3.4120704643        3.6615907822        8.7043725294
  O         6.7357806432        2.3610217926        7.7866317317
  O         5.1106422509        2.3616439077       10.0937443864
  C         5.6550816684        1.1925623829       10.7709450679
  H         5.5254381607        0.3036627856       10.1464096836
  H         5.1175857685        1.0698017282       11.7213599435
  H         6.7192890990        1.3593297139       10.9703725352
  H         4.3130083363        2.6845061823       10.5601180723
      50
 i =      262, E =      -412.9154746688
 Al         8.4199343468        3.0416104997        8.2747825935
 Al         5.0220982036        2.9390418690        8.1258486629
  C         6.7447950760        5.3486199169        8.1937879371
  C         7.6927831122        4.1189513796       11.0065132613
  C         3.2876732912        0.5555986117        8.1772994129
  C         3.4208881627        3.1941382254        5.7478830992
  C         3.4848248598        3.4616911761        4.2742802471
  C         4.7567181064        3.6946300885        3.6988078266
  C         4.9169922459        4.0310653273        2.3698151893
  C         3.7940945072        4.1264948515        1.5284041915
  C         2.5229588716        3.8636624631        2.0503640561
  C         2.3885173858        3.5562495663        3.4007626332
  C         8.1872645013        2.7745618951       14.5899380252
  C         6.8683529931        2.7454205437       15.0640301784
  C         5.8308146974        3.2236231935       14.2407080938
  C         6.1124470366        3.6517465867       12.9506814526
  C         7.4240374636        3.6422986200       12.4266080061
  C         8.4280848562        3.2442225950       13.3109845669
  C         6.6596524684        6.8457944026        8.1894260334
  C         3.2916789840       -0.9453986081        8.1490314067
  F         7.8222326515        3.3711340802        3.8521047119
  F         3.0416392868        3.3416640929       12.9252834766
  F         5.6138517574       -1.1237961334        8.2355046729
  F         4.3162380745        7.0494455845        8.0875185847
  H         3.4475122596        4.6382848443        8.7177730652
  H         6.7822053433        1.4165495986        7.5511229383
  H         5.6317554160        3.6271747416        4.3459289156
  H         5.8960135211        4.2479540448        1.9664273407
  H         1.6442781406        3.9201973346        1.4149037511
  H         9.0040752319        2.4363985652       15.2227003354
  H         4.8207201933        3.2633693014       14.6260297408
  H         5.2988714701        4.0164699220       12.3201373102
  N         3.8571621489        4.5328903263        0.1677182279
  N         6.7229341842        2.2659631455       16.3801475987
  O         7.8769306789        4.8546353701        7.9128940753
  O         7.5878412097        5.3304939921       10.7781038928
  O         4.3848534830        1.1326869338        7.9105155173
  O         2.3129669711        2.9433996501        6.3220394584
  O         2.1986819882        1.1369279605        8.4712100094
  O         4.5695572464        3.2429508880        6.3253621195
  O         5.6806477856        4.7101027155        8.4639706794
  O         7.9813222608        3.1682166089       10.1573323234
  O         3.4157478610        3.6633385495        8.7027212764
  O         6.7409278080        2.3611271933        7.7860872614
  O         5.1006408455        2.3830808799       10.0955406236
  C         5.6344144421        1.2040955004       10.7671199964
  H         5.4977249424        0.3222191902       10.1354420059
  H         5.1017100890        1.0880168992       11.7198867761
  H         6.7005730509        1.3643333182       10.9612369448
  H         4.2869858982        2.6933084696       10.5336337992
      50
 i =      263, E =      -412.9133492648
 Al         8.4330961410        3.0436198288        8.2747247187
 Al         5.0407362784        2.9525920492        8.1104842879
  C         6.7500398342        5.3533952225        8.1910110465
  C         7.6654892737        4.0857078670       11.0007281791
  C         3.2981823625        0.5611805379        8.1652689313
  C         3.4285171555        3.2006447658        5.7350420897
  C         3.4886898660        3.4620927763        4.2569613596
  C         4.7580645241        3.6854395849        3.6721953236
  C         4.9100104246        4.0069441725        2.3372822266
  C         3.7824368313        4.1053946544        1.5066692446
  C         2.5158615449        3.8448211597        2.0340103367
  C         2.3892405406        3.5492848050        3.3889784665
  C         8.1712749740        2.7745122019       14.5887283536
  C         6.8479397294        2.7297638053       15.0487002847
  C         5.8066490529        3.1748975221       14.2123026037
  C         6.0925775379        3.5832404512       12.9187367637
  C         7.4125342290        3.5985757258       12.4135858944
  C         8.4173426693        3.2258171985       13.3030977013
  C         6.6654530359        6.8498881009        8.1838275183
  C         3.2970695755       -0.9405394126        8.1398185177
  F         7.8234719490        3.3712492183        3.8512119488
  F         3.0350175304        3.3415283130       12.9261554328
  F         5.6152722248       -1.1230908393        8.2356119569
  F         4.3187110860        7.0524222475        8.0879673476
  H         3.4648187382        4.6529366249        8.6524722252
  H         6.8052388575        1.4274574786        7.5264851111
  H         5.6389517404        3.6224749466        4.3125236001
  H         5.8839975172        4.2152888151        1.9190149898
  H         1.6388507190        3.9030696045        1.3988886150
  H         8.9850174614        2.4664588920       15.2419302822
  H         4.7929566082        3.2031352734       14.5825134557
  H         5.2811276711        3.8992062728       12.2601811058
  N         3.8385539970        4.5194805229        0.1509565829
  N         6.7027262212        2.2550832465       16.3634573632
  O         7.8803639931        4.8576712069        7.9095815545
  O         7.5265809994        5.2919332232       10.7722955906
  O         4.3957224560        1.1392855800        7.8986434957
  O         2.3233431466        2.9455127710        6.3119585729
  O         2.2138852589        1.1440071913        8.4695747265
  O         4.5792044616        3.2559128112        6.3099160761
  O         5.6844306371        4.7158059012        8.4591250538
  O         7.9985659241        3.1527758646       10.1457769747
  O         3.4265746585        3.6754585101        8.6932184292
  O         6.7620482587        2.3629077815        7.7842334719
  O         5.0363701199        2.5101474797       10.1070153122
  C         5.5003425974        1.2786646264       10.7611633196
  H         5.3148995882        0.4206713963       10.1068599563
  H         4.9977031195        1.2155645856       11.7356936953
  H         6.5799593858        1.3953591187       10.9227034224
  H         4.0958389825        2.7276354310       10.3647693770
      50
 i =      264, E =      -412.9156243342
 Al         8.4197593984        3.0402884675        8.2758330285
 Al         5.0245104178        2.9441823839        8.1229620951
  C         6.7456585104        5.3493437050        8.1944195223
  C         7.6865524223        4.1082154253       11.0044555949
  C         3.2889172346        0.5566423202        8.1756164717
  C         3.4223431552        3.1947561312        5.7446790734
  C         3.4856601739        3.4616749284        4.2698284461
  C         4.7575349481        3.6930009213        3.6926226190
  C         4.9174025364        4.0318585825        2.3639497777
  C         3.7936562369        4.1246622696        1.5241083306
  C         2.5227768988        3.8606960502        2.0457712929
  C         2.3888256176        3.5563187102        3.3970249547
  C         8.1843986156        2.7730110278       14.5895341679
  C         6.8633050850        2.7403853900       15.0580142277
  C         5.8246784174        3.2079237308       14.2306506326
  C         6.1098006643        3.6336132758       12.9412514874
  C         7.4231844181        3.6286608121       12.4225914352
  C         8.4274125742        3.2355182559       13.3078609894
  C         6.6608953444        6.8458309552        8.1906892849
  C         3.2930902413       -0.9449558676        8.1490579779
  F         7.8231994578        3.3709007252        3.8515793744
  F         3.0414638350        3.3412761347       12.9252166696
  F         5.6145816845       -1.1234848115        8.2359387273
  F         4.3171508849        7.0501207416        8.0884285890
  H         3.4455900651        4.6396313749        8.7080180641
  H         6.7898191323        1.4208682287        7.5417809869
  H         5.6330069209        3.6207577563        4.3380931503
  H         5.8954628054        4.2486624000        1.9585310117
  H         1.6476611292        3.9130003297        1.4052178036
  H         8.9999587565        2.4472612172       15.2314212196
  H         4.8141679783        3.2465353172       14.6123550748
  H         5.3002288242        3.9933510758       12.3055374749
  N         3.8555976588        4.5305484106        0.1639043848
  N         6.7198811117        2.2654179939       16.3758141701
  O         7.8771808609        4.8559076431        7.9133209836
  O         7.5698612288        5.3177483271       10.7765833339
  O         4.3855698260        1.1347728031        7.9071040703
  O         2.3149801629        2.9431978822        6.3189272266
  O         2.1988206740        1.1358980119        8.4715391303
  O         4.5711259191        3.2481804797        6.3224086221
  O         5.6802885143        4.7113571127        8.4625892209
  O         7.9852521003        3.1618394442       10.1536608536
  O         3.4131248441        3.6644286854        8.7008798111
  O         6.7443824449        2.3630273058        7.7854722922
  O         5.0846248627        2.4218922091       10.1000615672
  C         5.5946600352        1.2259660917       10.7669464433
  H         5.4461526836        0.3529637126       10.1243521647
  H         5.0698635199        1.1224842228       11.7254438007
  H         6.6628358392        1.3760243570       10.9514478447
  H         4.2494340775        2.7135657625       10.4965142407
      50
 i =      265, E =      -412.9156163102
 Al         8.4177045249        3.0409066527        8.2744765193
 Al         5.0213517686        2.9368061329        8.1241220845
  C         6.7446370932        5.3479626918        8.1955408785
  C         7.6932617818        4.1136447944       11.0063368945
  C         3.2864759955        0.5543903252        8.1793682631
  C         3.4191451192        3.1942095676        5.7483184270
  C         3.4839636313        3.4598891362        4.2749214403
  C         4.7572023659        3.6877123213        3.7001506210
  C         4.9198295720        4.0264836153        2.3716407953
  C         3.7976562936        4.1223551819        1.5289634378
  C         2.5257477103        3.8574486441        2.0492237341
  C         2.3886581190        3.5528217753        3.4000320933
  C         8.1886877410        2.7832201344       14.5927579923
  C         6.8693141881        2.7489361835       15.0648331701
  C         5.8300223927        3.2187213597       14.2387430974
  C         6.1123615381        3.6472698751       12.9492065953
  C         7.4238193284        3.6378883619       12.4259500062
  C         8.4287321373        3.2457898229       13.3112581639
  C         6.6586693262        6.8446669167        8.1930507103
  C         3.2908680334       -0.9465746095        8.1528205402
  F         7.8219285734        3.3709773788        3.8518426250
  F         3.0414466402        3.3419681032       12.9255253135
  F         5.6133079306       -1.1239475261        8.2361553318
  F         4.3159189658        7.0490750501        8.0876676990
  H         3.4441141224        4.6346017704        8.7208806186
  H         6.7838277964        1.4115601994        7.5646368241
  H         5.6305219180        3.6164687100        4.3485339764
  H         5.9003160587        4.2425534473        1.9708426073
  H         1.6504857554        3.9081662801        1.4086754938
  H         9.0058181197        2.4531737427       15.2302751996
  H         4.8183069862        3.2565770337       14.6204726906
  H         5.3013799970        4.0145835754       12.3165947381
  N         3.8599643535        4.5263976413        0.1678720000
  N         6.7256908662        2.2745318252       16.3832033530
  O         7.8770772672        4.8544837149        7.9146231396
  O         7.5894082648        5.3244017208       10.7787741257
  O         4.3827739955        1.1322293331        7.9106092578
  O         2.3116691252        2.9422736563        6.3222554412
  O         2.1964300270        1.1357701431        8.4711952071
  O         4.5677128722        3.2441830607        6.3261690399
  O         5.6797301892        4.7091973457        8.4629076651
  O         7.9796966013        3.1646724916       10.1558015546
  O         3.4120997064        3.6591287023        8.7046860858
  O         6.7399074995        2.3603181708        7.7859111426
  O         5.0984542749        2.3808575100       10.0951009174
  C         5.6310036034        1.2040839050       10.7756239504
  H         5.4914602030        0.3166057231       10.1510898310
  H         5.1013500049        1.0913695397       11.7288361698
  H         6.6958952121        1.3688403369       10.9629053101
  H         4.2663928373        2.6784538067       10.5180278416
      50
 i =      266, E =      -412.9158485341
 Al         8.4179744018        3.0403911822        8.2747687421
 Al         5.0229921230        2.9405364903        8.1227718582
  C         6.7449273605        5.3485329992        8.1953131525
  C         7.6887593518        4.1072000896       11.0052235921
  C         3.2876413656        0.5552022968        8.1777243819
  C         3.4202859571        3.1942242518        5.7461920732
  C         3.4844795647        3.4597681955        4.2720193095
  C         4.7575223265        3.6872239336        3.6960953978
  C         4.9193629926        4.0258791104        2.3675540247
  C         3.7964418669        4.1222155592        1.5264426995
  C         2.5245428259        3.8587599686        2.0471145897
  C         2.3885403770        3.5544170779        3.3980947770
  C         8.1869309637        2.7805720447       14.5923928658
  C         6.8664042258        2.7448946457       15.0616223602
  C         5.8266940946        3.2100103925       14.2333604366
  C         6.1104747049        3.6366800247       12.9438303873
  C         7.4232464846        3.6302936919       12.4239584612
  C         8.4283252570        3.2403102910       13.3097817994
  C         6.6596574089        6.8450080400        8.1925273083
  C         3.2919130299       -0.9460677544        8.1513977385
  F         7.8225501644        3.3709532240        3.8516041944
  F         3.0415014076        3.3416748086       12.9254694909
  F         5.6139591411       -1.1236750977        8.2361499488
  F         4.3165840071        7.0495844820        8.0880524093
  H         3.4433569972        4.6367696723        8.7144808596
  H         6.7873184796        1.4152180707        7.5554284545
  H         5.6316014090        3.6128933808        4.3429755980
  H         5.8991482751        4.2400828252        1.9642891601
  H         1.6499512559        3.9103267580        1.4056344058
  H         9.0036280164        2.4568231232       15.2335278725
  H         4.8151724963        3.2458909800       14.6140435384
  H         5.3008187185        3.9985332048       12.3080824135
  N         3.8585471089        4.5270200641        0.1657411719
  N         6.7234629219        2.2716460448       16.3801928395
  O         7.8768979698        4.8550764025        7.9144422402
  O         7.5765883894        5.3168642649       10.7775088197
  O         4.3839319333        1.1334361104        7.9090085685
  O         2.3129513039        2.9427849592        6.3205856838
  O         2.1973240654        1.1351885608        8.4715000924
  O         4.5689223279        3.2465686043        6.3241331782
  O         5.6794402965        4.7102355915        8.4623079799
  O         7.9822632206        3.1606635775       10.1541111130
  O         3.4113946123        3.6613466223        8.7026773492
  O         6.7419181149        2.3611770612        7.7855325808
  O         5.0887049631        2.4051986138       10.0978681037
  C         5.6037262137        1.2164857312       10.7740527243
  H         5.4548329226        0.3355290960       10.1423121304
  H         5.0778327406        1.1147702353       11.7307586567
  H         6.6711146289        1.3705718312       10.9568366970
  H         4.2450064935        2.6923792957       10.4961345519
      50
 i =      267, E =      -412.9159176358
 Al         8.4171783566        3.0400820985        8.2745154413
 Al         5.0228897794        2.9407587407        8.1221795536
  C         6.7446756272        5.3483477918        8.1957223927
  C         7.6878611918        4.1028364781       11.0050847479
  C         3.2874697152        0.5548739914        8.1779909202
  C         3.4197678752        3.1938025784        5.7460139616
  C         3.4841365494        3.4597015096        4.2720577776
  C         4.7577137459        3.6854063752        3.6965789328
  C         4.9204946547        4.0254444204        2.3685437104
  C         3.7977573394        4.1235607566        1.5274164264
  C         2.5252564337        3.8605128670        2.0472885021
  C         2.3884236074        3.5557888368        3.3980171064
  C         8.1881008676        2.7855669676       14.5948869633
  C         6.8671602221        2.7477328061       15.0628054897
  C         5.8264725195        3.2075468969       14.2323796248
  C         6.1103598102        3.6327874462       12.9425275225
  C         7.4235486318        3.6271282723       12.4239441153
  C         8.4290852135        3.2406690848       13.3105690289
  C         6.6594963991        6.8446889251        8.1932631212
  C         3.2918129158       -0.9464268998        8.1520671986
  F         7.8227232880        3.3710061327        3.8514626837
  F         3.0417866805        3.3417846364       12.9255590086
  F         5.6140149678       -1.1237061496        8.2362153372
  F         4.3165476108        7.0495071332        8.0881829779
  H         3.4415401323        4.6367284661        8.7154825313
  H         6.7877590266        1.4132257461        7.5602990041
  H         5.6313021629        3.6076016634        4.3435703782
  H         5.9008941101        4.2374354546        1.9655543589
  H         1.6516127325        3.9125430775        1.4044182942
  H         9.0051929365        2.4667473699       15.2380199141
  H         4.8145959074        3.2404655573       14.6119708072
  H         5.3013177150        3.9925054496       12.3049067082
  N         3.8602118658        4.5276534094        0.1663328221
  N         6.7250069590        2.2768431168       16.3823377490
  O         7.8765707249        4.8549682213        7.9148361607
  O         7.5737650617        5.3118744468       10.7769499254
  O         4.3836354861        1.1331561314        7.9093490688
  O         2.3124618515        2.9426828394        6.3204674678
  O         2.1968187974        1.1343092106        8.4716586326
  O         4.5684949035        3.2464675441        6.3238537031
  O         5.6788680309        4.7100925139        8.4619827702
  O         7.9817557993        3.1571390527       10.1535286014
  O         3.4101523345        3.6612566404        8.7025165063
  O         6.7418199994        2.3606094745        7.7855802016
  O         5.0827212487        2.4059624965       10.0980318052
  C         5.5949203812        1.2147549787       10.7734162645
  H         5.4425630282        0.3344568785       10.1413706117
  H         5.0714796784        1.1158402666       11.7306804215
  H         6.6630061891        1.3670839379       10.9524988592
  H         4.2323255596        2.6866238956       10.4875013878
      50
 i =      268, E =      -412.9160416678
 Al         8.4143217128        3.0399484420        8.2727960826
 Al         5.0212930823        2.9394568641        8.1222724345
  C         6.7437091776        5.3474133595        8.1970690269
  C         7.6880204528        4.0934776605       11.0051019318
  C         3.2865107789        0.5535494639        8.1795505839
  C         3.4179948781        3.1922507361        5.7467603064
  C         3.4831748379        3.4590349199        4.2737607704
  C         4.7581160501        3.6811859262        3.7002394012
  C         4.9242430983        4.0239265238        2.3734939271
  C         3.8024038097        4.1273477892        1.5315971489
  C         2.5281668870        3.8664451518        2.0491788351
  C         2.3882345835        3.5585114054        3.3988352054
  C         8.1921925389        2.7966335227       14.6006448328
  C         6.8707260418        2.7530460057       15.0660885417
  C         5.8276628163        3.2007574325       14.2308908715
  C         6.1114975512        3.6250118683       12.9406764970
  C         7.4251661000        3.6211279677       12.4244270594
  C         8.4318738386        3.2423955653       13.3127977520
  C         6.6587822802        6.8436806157        8.1954336979
  C         3.2913778246       -0.9475499787        8.1542477385
  F         7.8228580217        3.3710213968        3.8511986993
  F         3.0430864696        3.3418207703       12.9255865495
  F         5.6139880751       -1.1238101284        8.2363882143
  F         4.3164981905        7.0491415677        8.0883344539
  H         3.4357703353        4.6354695228        8.7245397230
  H         6.7869394520        1.4093661827        7.5686339838
  H         5.6297556204        3.5947370560        4.3485227139
  H         5.9067973896        4.2303006570        1.9725889043
  H         1.6568912713        3.9189788010        1.4027581661
  H         9.0106154418        2.4883826441       15.2471789095
  H         4.8145033198        3.2250104984       14.6078818652
  H         5.3039772337        3.9814222698       12.2991103633
  N         3.8660349776        4.5295522457        0.1694307936
  N         6.7301115229        2.2870183957       16.3878771574
  O         7.8757983291        4.8544617930        7.9162286356
  O         7.5712909714        5.3014141264       10.7766543310
  O         4.3823671159        1.1320373577        7.9112934052
  O         2.3105468516        2.9421390293        6.3209640467
  O         2.1955571647        1.1330145256        8.4720199617
  O         4.5665588978        3.2436669114        6.3249359211
  O         5.6776574050        4.7089268072        8.4616246274
  O         7.9788060356        3.1486589365       10.1524984678
  O         3.4058284111        3.6602452343        8.7025847167
  O         6.7401025957        2.3586720474        7.7854450215
  O         5.0745753450        2.4026997624       10.0971180410
  C         5.5807956613        1.2077685433       10.7744910524
  H         5.4205929297        0.3262882002       10.1453699454
  H         5.0616505696        1.1162701131       11.7321723334
  H         6.6499072470        1.3573615808       10.9445980363
  H         4.2079927595        2.6692323640       10.4673594469
      50
 i =      269, E =      -412.9161249997
 Al         8.4121169308        3.0398147987        8.2715932423
 Al         5.0195605173        2.9386490360        8.1239763795
  C         6.7428577992        5.3468288901        8.1977554555
  C         7.6892383612        4.0917301028       11.0050316687
  C         3.2856437919        0.5528763499        8.1807039372
  C         3.4171238359        3.1913211918        5.7476146174
  C         3.4830328461        3.4599278305        4.2754251349
  C         4.7587248939        3.6810334099        3.7034258158
  C         4.9267459909        4.0255127986        2.3773212150
  C         3.8056975796        4.1309626969        1.5343826735
  C         2.5306417179        3.8704489783        2.0507984481
  C         2.3885253848        3.5610715187        3.3998638117
  C         8.1946221107        2.8000836213       14.6021334333
  C         6.8731444029        2.7532732158       15.0665692313
  C         5.8291389152        3.1969696388       14.2299319348
  C         6.1128373595        3.6229585373       12.9401194057
  C         7.4264413419        3.6201742730       12.4245558226
  C         8.4335152541        3.2434312072       13.3133169711
  C         6.6581532244        6.8432624999        8.1963730169
  C         3.2909433796       -0.9480100114        8.1555512872
  F         7.8230825818        3.3711617953        3.8510538761
  F         3.0438231814        3.3420454912       12.9254051721
  F         5.6138173217       -1.1239819385        8.2364315531
  F         4.3163095345        7.0488865199        8.0881197930
  H         3.4320099421        4.6349261530        8.7337673942
  H         6.7858525730        1.4097138095        7.5658452774
  H         5.6292425026        3.5917874636        4.3527314021
  H         5.9105144641        4.2295089062        1.9780345500
  H         1.6606430726        3.9235721573        1.4026567582
  H         9.0135734590        2.4955606717       15.2493768162
  H         4.8153676960        3.2164058589       14.6061023705
  H         5.3060160085        3.9794970621       12.2976911624
  N         3.8694826298        4.5292386636        0.1706717400
  N         6.7332149024        2.2913187359       16.3896568405
  O         7.8750341192        4.8540423659        7.9166136694
  O         7.5736246808        5.3002047006       10.7763118586
  O         4.3815998139        1.1314989693        7.9132471796
  O         2.3095311081        2.9415817318        6.3215815996
  O         2.1943642876        1.1320529299        8.4720404042
  O         4.5656233064        3.2405658233        6.3259855711
  O         5.6768286372        4.7083516668        8.4621673805
  O         7.9759504569        3.1444003064       10.1530276936
  O         3.4024081574        3.6599670354        8.7029944861
  O         6.7386658834        2.3578563791        7.7851626532
  O         5.0751872465        2.4011504912       10.0962889273
  C         5.5790457673        1.2042502928       10.7734767127
  H         5.4160353069        0.3231032171       10.1451439728
  H         5.0612614490        1.1129943176       11.7310814673
  H         6.6480777396        1.3535068986       10.9393107961
  H         4.2035074820        2.6636545491       10.4588396125
      50
 i =      270, E =      -412.9162680367
 Al         8.4063680875        3.0390980257        8.2686730875
 Al         5.0146325901        2.9376952976        8.1291031937
  C         6.7409225866        5.3461892121        8.1987286500
  C         7.6907747758        4.0867258088       11.0041712504
  C         3.2836609068        0.5522418230        8.1822903995
  C         3.4153437510        3.1885027654        5.7498288727
  C         3.4831062443        3.4590212022        4.2788726853
  C         4.7598560969        3.6793468617        3.7096208884
  C         4.9314586597        4.0271912177        2.3850653202
  C         3.8113614684        4.1389496330        1.5413427038
  C         2.5347392381        3.8821597593        2.0559175773
  C         2.3892756412        3.5653519746        3.4029014443
  C         8.1979243232        2.8048737685       14.6047436613
  C         6.8766560870        2.7522296576       15.0678757481
  C         5.8315372944        3.1869724402       14.2281665958
  C         6.1144824004        3.6163105155       12.9391618407
  C         7.4279733727        3.6180221894       12.4250006445
  C         8.4353402578        3.2451765764       13.3147226132
  C         6.6569342473        6.8429619826        8.1972470452
  C         3.2897011921       -0.9485221991        8.1565328858
  F         7.8233509474        3.3716910569        3.8508571954
  F         3.0443961083        3.3421324673       12.9253092262
  F         5.6132564140       -1.1243044571        8.2362291554
  F         4.3155716017        7.0484135857        8.0879240452
  H         3.4240585864        4.6335952644        8.7555847315
  H         6.7821223868        1.4143493414        7.5492875430
  H         5.6283874605        3.5828026001        4.3606381912
  H         5.9175312738        4.2272530848        1.9891775864
  H         1.6663248259        3.9393700337        1.4059761651
  H         9.0171525739        2.5056296708       15.2539247318
  H         4.8164343563        3.1965940757       14.6021144257
  H         5.3080692931        3.9721891595       12.2957714395
  N         3.8751511712        4.5326544384        0.1754754843
  N         6.7378051988        2.2962861410       16.3932822852
  O         7.8731145798        4.8530414023        7.9167479486
  O         7.5765180709        5.2968098067       10.7751412879
  O         4.3801218202        1.1311743600        7.9169558859
  O         2.3068353267        2.9402705177        6.3224724062
  O         2.1922396310        1.1313985501        8.4716084658
  O         4.5634650422        3.2344434596        6.3287756336
  O         5.6754444400        4.7074533216        8.4634893468
  O         7.9691655979        3.1333585359       10.1545680962
  O         3.3935848395        3.6592642860        8.7038111355
  O         6.7340311878        2.3577872681        7.7842615628
  O         5.0792139082        2.4034519718       10.0957951929
  C         5.5688668866        1.1977017987       10.7704111352
  H         5.3940039989        0.3193779254       10.1416947480
  H         5.0529860279        1.1100938159       11.7280420693
  H         6.6403401822        1.3382581457       10.9269925662
  H         4.1980787849        2.6572684889       10.4402872324
      50
 i =      271, E =      -412.9163645687
 Al         8.4010377091        3.0372385957        8.2677445443
 Al         5.0100901681        2.9387054890        8.1329288382
  C         6.7391040640        5.3460896430        8.1987638996
  C         7.6905021107        4.0824935305       11.0041682306
  C         3.2820355930        0.5521703587        8.1819862669
  C         3.4145605725        3.1865560907        5.7515253362
  C         3.4832542176        3.4578386590        4.2812564533
  C         4.7607190155        3.6784416274        3.7141207864
  C         4.9338271633        4.0316926077        2.3911361171
  C         3.8143455037        4.1463034344        1.5470908000
  C         2.5371464361        3.8898902753        2.0600951039
  C         2.3900223423        3.5686534141        3.4055071491
  C         8.1995775041        2.8071027645       14.6069399626
  C         6.8782086489        2.7512113314       15.0695042888
  C         5.8318170091        3.1790711895       14.2282066041
  C         6.1139092678        3.6095338946       12.9393372551
  C         7.4278410676        3.6157126429       12.4260474429
  C         8.4359921548        3.2450385346       13.3159278374
  C         6.6564030220        6.8430579058        8.1963302941
  C         3.2891616930       -0.9483101701        8.1557538873
  F         7.8235555782        3.3718158318        3.8509721207
  F         3.0447218520        3.3424419737       12.9254979664
  F         5.6127500130       -1.1244476584        8.2361343621
  F         4.3153388090        7.0483492925        8.0874105115
  H         3.4159385585        4.6331660373        8.7703285442
  H         6.7771431043        1.4190662590        7.5343334833
  H         5.6284613175        3.5783700949        4.3656420815
  H         5.9205380745        4.2317995826        1.9971193849
  H         1.6691773769        3.9527395020        1.4103332757
  H         9.0189991010        2.5122864724       15.2575351193
  H         4.8162894498        3.1813541455       14.6010314734
  H         5.3062105424        3.9627016634       12.2972024514
  N         3.8779124252        4.5391081183        0.1804776223
  N         6.7402925398        2.2987116871       16.3963173052
  O         7.8710393656        4.8524290387        7.9166569448
  O         7.5791698433        5.2937280725       10.7737654897
  O         4.3788176917        1.1317543382        7.9180706189
  O         2.3057397973        2.9389167775        6.3237445038
  O         2.1900455180        1.1300138265        8.4710848024
  O         4.5622152270        3.2352928837        6.3310732860
  O         5.6735742044        4.7079604403        8.4647453417
  O         7.9631418422        3.1221963046       10.1572497774
  O         3.3852832085        3.6591698891        8.7043198442
  O         6.7290085883        2.3586882004        7.7840033259
  O         5.0808899431        2.4052473963       10.0963723496
  C         5.5621223140        1.1913307580       10.7622700766
  H         5.3779129055        0.3183843354       10.1298458277
  H         5.0492434133        1.1005092145       11.7205071461
  H         6.6356072833        1.3233792212       10.9122729543
  H         4.1953303159        2.6539050052       10.4300747884
      50
 i =      272, E =      -412.9164175536
 Al         8.3912765739        3.0334998774        8.2670491756
 Al         5.0016134373        2.9422295852        8.1375523835
  C         6.7362976323        5.3467290348        8.1983840569
  C         7.6877975219        4.0711958224       11.0039181398
  C         3.2787301625        0.5529265190        8.1798020900
  C         3.4128049625        3.1860895783        5.7542482614
  C         3.4832789685        3.4559302439        4.2843598080
  C         4.7614580263        3.6768625410        3.7192832779
  C         4.9357890253        4.0358737594        2.3982137729
  C         3.8165705943        4.1556415551        1.5548564765
  C         2.5387958374        3.9011536068        2.0661796402
  C         2.3910215242        3.5710631459        3.4091035742
  C         8.2009546320        2.8113165725       14.6115999130
  C         6.8797468117        2.7486279399       15.0736278540
  C         5.8311690275        3.1640806903       14.2295655660
  C         6.1112107223        3.5938010289       12.9404156307
  C         7.4257183142        3.6080728443       12.4275191334
  C         8.4349474936        3.2442877382       13.3185952885
  C         6.6558456637        6.8439209600        8.1947369130
  C         3.2878547854       -0.9476487585        8.1537491683
  F         7.8235403379        3.3720890081        3.8513127502
  F         3.0434095289        3.3425085662       12.9258893589
  F         5.6123155781       -1.1248736367        8.2357043761
  F         4.3146166255        7.0482333629        8.0874034530
  H         3.4009318236        4.6331270300        8.7879115884
  H         6.7642804417        1.4262483684        7.5144903084
  H         5.6286392761        3.5724661543        4.3710492375
  H         5.9226453333        4.2385948483        2.0064356783
  H         1.6705748563        3.9727712504        1.4180119416
  H         9.0216170285        2.5258721038       15.2652025101
  H         4.8148394411        3.1563246359       14.5995622700
  H         5.3008207534        3.9421151252       12.3004218311
  N         3.8806374180        4.5482718437        0.1885163270
  N         6.7430810961        2.3017695084       16.4028196041
  O         7.8677341709        4.8517027575        7.9164233649
  O         7.5806476533        5.2840494360       10.7722049063
  O         4.3758160907        1.1336161832        7.9172010263
  O         2.3034135130        2.9375483606        6.3248465568
  O         2.1860512247        1.1293544717        8.4695618262
  O         4.5600289398        3.2375274449        6.3341488367
  O         5.6706111306        4.7093997425        8.4658605066
  O         7.9536701341        3.1032843625       10.1605622111
  O         3.3710711743        3.6599532450        8.7053477883
  O         6.7182898341        2.3613533109        7.7832567769
  O         5.0804040484        2.4089238074       10.0981241212
  C         5.5474387690        1.1814044854       10.7491138568
  H         5.3452013947        0.3169581479       10.1107466621
  H         5.0398470830        1.0866740328       11.7098331981
  H         6.6257534500        1.2965064333       10.8890975585
  H         4.1867426334        2.6477764730       10.4153422629
      50
 i =      273, E =      -412.9165150247
 Al         8.3934769251        3.0339608020        8.2688203485
 Al         5.0029845200        2.9441038360        8.1359244910
  C         6.7368264838        5.3475279513        8.1975737549
  C         7.6875928206        4.0762580020       11.0043736455
  C         3.2790170676        0.5541181422        8.1782856549
  C         3.4137562657        3.1881529245        5.7538005784
  C         3.4838131146        3.4568476568        4.2831400689
  C         4.7613443362        3.6794859864        3.7167911179
  C         4.9333982192        4.0362625275        2.3948366657
  C         3.8135761258        4.1533534528        1.5521277471
  C         2.5367037393        3.8976126251        2.0648243156
  C         2.3911553227        3.5693673001        3.4082934265
  C         8.1988135933        2.8058450194       14.6087590859
  C         6.8778183392        2.7471316628       15.0725089797
  C         5.8302676723        3.1692991425       14.2310842694
  C         6.1104852938        3.5975250633       12.9415405688
  C         7.4247991610        3.6098479722       12.4269217706
  C         8.4335930127        3.2426157262       13.3172945273
  C         6.6563880582        6.8447402397        8.1932477755
  C         3.2883511386       -0.9465975555        8.1517843723
  F         7.8234317432        3.3719002379        3.8513992130
  F         3.0431210885        3.3422822057       12.9256416802
  F         5.6125683853       -1.1247376507        8.2357063214
  F         4.3149785893        7.0485736352        8.0874329600
  H         3.4047701860        4.6342412035        8.7790817958
  H         6.7629411102        1.4265875556        7.5181660661
  H         5.6296838711        3.5805364046        4.3677465061
  H         5.9187148871        4.2428148297        2.0015526957
  H         1.6670156488        3.9696814551        1.4188150753
  H         9.0192995615        2.5159971088       15.2604128217
  H         4.8149629755        3.1684059932       14.6026249032
  H         5.2996086157        3.9468905729       12.3026069223
  N         3.8775303356        4.5492327364        0.1875032644
  N         6.7403720473        2.2971967124       16.4005546264
  O         7.8681144779        4.8524447506        7.9160161732
  O         7.5813613071        5.2883197988       10.7737550304
  O         4.3760499646        1.1343462652        7.9149668136
  O         2.3045897428        2.9381061666        6.3244594174
  O         2.1864437252        1.1306833999        8.4697504017
  O         4.5608978019        3.2413731162        6.3337662574
  O         5.6710791449        4.7105869070        8.4656668329
  O         7.9572552549        3.1129324002       10.1596893194
  O         3.3755999948        3.6615148617        8.7052438471
  O         6.7183811921        2.3631802627        7.7837627174
  O         5.0800825192        2.4086184319       10.0988406922
  C         5.5562395404        1.1851987684       10.7466363217
  H         5.3598389089        0.3213796598       10.1069690420
  H         5.0488087735        1.0836235110       11.7081351335
  H         6.6328658209        1.3050158664       10.8917930272
  H         4.1933692608        2.6524330963       10.4286925566
      50
 i =      274, E =      -412.9165812704
 Al         8.3900899789        3.0323549275        8.2694548695
 Al         4.9996604694        2.9479334141        8.1359460896
  C         6.7357709675        5.3484572183        8.1969458467
  C         7.6865067255        4.0745256915       11.0050503447
  C         3.2771002350        0.5551665718        8.1764684440
  C         3.4135410325        3.1891659465        5.7539255773
  C         3.4839162982        3.4565053987        4.2829504722
  C         4.7616745107        3.6798135882        3.7163991811
  C         4.9327799355        4.0358483650        2.3942489548
  C         3.8124372588        4.1541036633        1.5524973338
  C         2.5356057151        3.8997041804        2.0656242990
  C         2.3912208265        3.5696707729        3.4085473440
  C         8.1986744797        2.8034456658       14.6092631240
  C         6.8777943444        2.7456305791       15.0739264220
  C         5.8299353377        3.1676760533       14.2331444839
  C         6.1091954632        3.5936919463       12.9428961603
  C         7.4237279263        3.6067991722       12.4272858330
  C         8.4329969106        3.2402904183       13.3178026372
  C         6.6562873267        6.8458041374        8.1915460356
  C         3.2880083512       -0.9455480968        8.1496444679
  F         7.8232061751        3.3719466571        3.8516163893
  F         3.0430952914        3.3421253428       12.9257539402
  F         5.6125421023       -1.1246719041        8.2356159935
  F         4.3148707449        7.0486318480        8.0875973744
  H         3.4005001127        4.6345994058        8.7789876305
  H         6.7536536471        1.4286890904        7.5174991007
  H         5.6308164417        3.5826707805        4.3667215563
  H         5.9171648713        4.2440417021        1.9999397732
  H         1.6647511494        3.9762541553        1.4217326147
  H         9.0199222504        2.5141129214       15.2602130291
  H         4.8152803159        3.1690852535       14.6057180319
  H         5.2965957472        3.9402662601       12.3048395520
  N         3.8773801668        4.5528018031        0.1897929755
  N         6.7406208043        2.2946125568       16.4017140107
  O         7.8666919235        4.8527563364        7.9161308622
  O         7.5815172289        5.2861606441       10.7749578661
  O         4.3742835814        1.1353674288        7.9139633451
  O         2.3042496715        2.9384491320        6.3242040092
  O         2.1839650054        1.1310665664        8.4687831607
  O         4.5602521123        3.2442407384        6.3343382188
  O         5.6697441166        4.7121476902        8.4658893173
  O         7.9567383255        3.1133078601       10.1590628505
  O         3.3728337478        3.6624114929        8.7054296577
  O         6.7115764260        2.3655616220        7.7838054976
  O         5.0784856716        2.4091364119       10.0997363496
  C         5.5547941554        1.1839220659       10.7410975292
  H         5.3539062650        0.3216024137       10.1007129149
  H         5.0503943024        1.0784930137       11.7055036441
  H         6.6320112236        1.2992311482       10.8862668737
  H         4.1903723933        2.6496196938       10.4316202849
      50
 i =      275, E =      -412.9166325214
 Al         8.3846205057        3.0302642772        8.2700202503
 Al         4.9941631330        2.9528901174        8.1364741341
  C         6.7336380082        5.3496399013        8.1968048289
  C         7.6857098158        4.0701999325       11.0058439981
  C         3.2731702385        0.5563685980        8.1753254438
  C         3.4121943378        3.1907190899        5.7544659029
  C         3.4836766291        3.4580127868        4.2837519615
  C         4.7619356758        3.6822689181        3.7176152617
  C         4.9332567626        4.0370234007        2.3952404214
  C         3.8128102270        4.1564871647        1.5538969830
  C         2.5355800724        3.9038276586        2.0668101206
  C         2.3912946857        3.5711017256        3.4090201478
  C         8.2003215345        2.8014929625       14.6108894075
  C         6.8798063919        2.7443793070       15.0765210999
  C         5.8311008117        3.1651135375       14.2360903367
  C         6.1089379411        3.5876841558       12.9447278267
  C         7.4231962555        3.6014067958       12.4279558872
  C         8.4331571696        3.2378915123       13.3187550894
  C         6.6552868246        6.8474175449        8.1907815930
  C         3.2867632521       -0.9441836752        8.1490204514
  F         7.8231610059        3.3720447030        3.8517972167
  F         3.0431487376        3.3420118900       12.9258581098
  F         5.6123250792       -1.1245976827        8.2354485861
  F         4.3141635521        7.0483839123        8.0877206539
  H         3.3932855427        4.6349810265        8.7838287475
  H         6.7393677239        1.4313418633        7.5171636505
  H         5.6312576921        3.5869179455        4.3681311286
  H         5.9172163169        4.2456626513        2.0003509932
  H         1.6645711790        3.9837239711        1.4235163375
  H         9.0222781848        2.5132342619       15.2618459933
  H         4.8169467118        3.1693131704       14.6099468656
  H         5.2945579229        3.9306865711       12.3068913376
  N         3.8790712398        4.5566837620        0.1931537815
  N         6.7428222502        2.2926491290       16.4040275049
  O         7.8640396385        4.8530973093        7.9163006004
  O         7.5829953758        5.2816735523       10.7758511571
  O         4.3707594116        1.1362398932        7.9138758638
  O         2.3027786806        2.9383197570        6.3237680213
  O         2.1784859531        1.1310226764        8.4672505299
  O         4.5585216857        3.2468043175        6.3353284783
  O         5.6670997426        4.7140339451        8.4661797489
  O         7.9557349628        3.1113857403       10.1576732531
  O         3.3681563243        3.6631994473        8.7056655255
  O         6.7013738634        2.3685743776        7.7834773206
  O         5.0762140719        2.4089285261       10.1002754923
  C         5.5550484183        1.1820116039       10.7334102210
  H         5.3490436690        0.3211001020       10.0920219861
  H         5.0561347201        1.0687008198       11.7017143561
  H         6.6328078895        1.2938398030       10.8765351314
  H         4.1874094196        2.6440394299       10.4364308588
      50
 i =      276, E =      -412.9166595334
 Al         8.3845865227        3.0302483710        8.2703654866
 Al         4.9941507432        2.9532425943        8.1364001839
  C         6.7326925095        5.3497120632        8.1971354715
  C         7.6861515433        4.0682830776       11.0061506728
  C         3.2714684638        0.5562421750        8.1763706893
  C         3.4117747774        3.1911118819        5.7546347878
  C         3.4834815782        3.4594749938        4.2843122293
  C         4.7621383169        3.6835412159        3.7187452950
  C         4.9345528421        4.0368564766        2.3961480012
  C         3.8144202215        4.1566766697        1.5542909633
  C         2.5366923177        3.9043052208        2.0665997097
  C         2.3912503393        3.5720053101        3.4088584089
  C         8.2020257510        2.8022643478       14.6118806253
  C         6.8816887363        2.7454691018       15.0774325257
  C         5.8327144846        3.1656139663       14.2366119651
  C         6.1102850336        3.5865529303       12.9447170175
  C         7.4241922067        3.5997001790       12.4281907453
  C         8.4345070089        3.2376978791       13.3191536402
  C         6.6545228809        6.8476829109        8.1917722532
  C         3.2860755732       -0.9441032090        8.1502843588
  F         7.8232770436        3.3721007055        3.8516496835
  F         3.0437738425        3.3419544192       12.9258478130
  F         5.6121528897       -1.1244806446        8.2355536475
  F         4.3138550764        7.0480779093        8.0876491142
  H         3.3921606871        4.6346404468        8.7876931219
  H         6.7369360602        1.4299274582        7.5203709954
  H         5.6310169379        3.5885449423        4.3698151762
  H         5.9191494978        4.2430911867        2.0011468236
  H         1.6667306899        3.9824789525        1.4215843801
  H         9.0237755503        2.5136579386       15.2630194397
  H         4.8186487391        3.1711621153       14.6111592591
  H         5.2956256472        3.9271237849       12.3053875340
  N         3.8809602812        4.5565820113        0.1937292031
  N         6.7448601128        2.2936907842       16.4045857314
  O         7.8629248060        4.8528862466        7.9164808368
  O         7.5834956373        5.2796349555       10.7759172537
  O         4.3692909801        1.1359166564        7.9150154984
  O         2.3023665098        2.9385004964        6.3237803025
  O         2.1756061741        1.1300650663        8.4670963373
  O         4.5581620195        3.2464059034        6.3357622059
  O         5.6658377088        4.7144226984        8.4660959653
  O         7.9567042906        3.1100469414       10.1571139409
  O         3.3686714952        3.6628056354        8.7054072044
  O         6.7014190836        2.3679399275        7.7830871784
  O         5.0753609494        2.4085918097       10.0996239637
  C         5.5566526454        1.1825776124       10.7335039223
  H         5.3509589374        0.3201413394       10.0934320674
  H         5.0599899608        1.0676915544       11.7026958794
  H         6.6340889909        1.2965188817       10.8751866487
  H         4.1858383140        2.6404810331       10.4375391657
      50
 i =      277, E =      -412.9166888548
 Al         8.3824816436        3.0298007357        8.2707120320
 Al         4.9913938471        2.9539952454        8.1368026658
  C         6.7300154806        5.3498876627        8.1977417279
  C         7.6859817590        4.0652945897       11.0064147131
  C         3.2668619095        0.5563397917        8.1789664440
  C         3.4101492298        3.1916954641        5.7553402038
  C         3.4826394414        3.4631723638        4.2859920716
  C         4.7617493830        3.6870866587        3.7221398644
  C         4.9359611194        4.0391979762        2.3994770862
  C         3.8168634615        4.1584565729        1.5560646138
  C         2.5382540286        3.9060036874        2.0670361565
  C         2.3909593276        3.5742551854        3.4092124793
  C         8.2052052832        2.8017767453       14.6128979536
  C         6.8851954334        2.7453468772       15.0789578883
  C         5.8356797204        3.1649004939       14.2381590719
  C         6.1123753202        3.5833393829       12.9452873614
  C         7.4253376284        3.5969436098       12.4286820603
  C         8.4364648896        3.2370563964       13.3196061140
  C         6.6527774703        6.8482148271        8.1939747402
  C         3.2842864434       -0.9437722674        8.1530224378
  F         7.8235045211        3.3719526266        3.8512708266
  F         3.0444124755        3.3419766817       12.9255880116
  F         5.6116340774       -1.1244021201        8.2357949948
  F         4.3132031305        7.0475485354        8.0875322923
  H         3.3877076355        4.6333306804        8.7984970482
  H         6.7314587611        1.4295951443        7.5205623848
  H         5.6291997637        3.5937431906        4.3750881446
  H         5.9217631069        4.2416991804        2.0051037972
  H         1.6699493089        3.9817220911        1.4192509738
  H         9.0268679933        2.5124946405       15.2637621761
  H         4.8220176575        3.1711619952       14.6139495603
  H         5.2973750921        3.9204432414       12.3042469088
  N         3.8841849384        4.5584990326        0.1957902291
  N         6.7482132381        2.2931344272       16.4055010725
  O         7.8599504262        4.8523608586        7.9166591141
  O         7.5850775379        5.2770260492       10.7760489458
  O         4.3652614661        1.1357911445        7.9179417476
  O         2.3010105261        2.9377788848        6.3241443051
  O         2.1684170616        1.1284739631        8.4669278131
  O         4.5569680883        3.2446563265        6.3363203436
  O         5.6628312032        4.7151347464        8.4661995251
  O         7.9562744887        3.1070023732       10.1570602973
  O         3.3665591809        3.6617833960        8.7057750933
  O         6.6992740090        2.3676086524        7.7828872106
  O         5.0752057193        2.4084343581       10.0991448537
  C         5.5610415342        1.1832449958       10.7317956271
  H         5.3555104850        0.3201613210       10.0921681384
  H         5.0672172893        1.0642167363       11.7019344795
  H         6.6388633967        1.3000396305       10.8695958915
  H         4.1862947860        2.6361746577       10.4401711866
      50
 i =      278, E =      -412.9167005031
 Al         8.3817928302        3.0301776204        8.2702304667
 Al         4.9905701464        2.9536082578        8.1365481694
  C         6.7282845676        5.3500599980        8.1979148219
  C         7.6858546430        4.0654830015       11.0066210706
  C         3.2647982843        0.5564065249        8.1799781872
  C         3.4093908742        3.1917240709        5.7554185255
  C         3.4818137681        3.4645947849        4.2864301922
  C         4.7608996528        3.6887407035        3.7233751275
  C         4.9360147100        4.0398736592        2.4006261498
  C         3.8173433998        4.1586161666        1.5565317363
  C         2.5383597931        3.9058144971        2.0668160571
  C         2.3904031199        3.5749634117        3.4092088197
  C         8.2060899370        2.8008210421       14.6125583223
  C         6.8862537117        2.7445972060       15.0792458929
  C         5.8367350696        3.1647744112       14.2389029394
  C         6.1129160227        3.5828473928       12.9456448687
  C         7.4255535149        3.5968971973       12.4288468942
  C         8.4369888441        3.2368030359       13.3195574223
  C         6.6519667847        6.8483852894        8.1946925769
  C         3.2832094251       -0.9437564736        8.1543478011
  F         7.8233433309        3.3719621289        3.8512304762
  F         3.0445557135        3.3419878182       12.9253917751
  F         5.6112968045       -1.1244711448        8.2358229935
  F         4.3127765556        7.0473962557        8.0875248144
  H         3.3866271952        4.6321744545        8.8018671548
  H         6.7320406687        1.4294399106        7.5206447224
  H         5.6276664931        3.5956105558        4.3772087313
  H         5.9223827702        4.2409550679        2.0067511147
  H         1.6706081067        3.9795379785        1.4179896007
  H         9.0279625568        2.5104120026       15.2625257507
  H         4.8231129599        3.1708890280       14.6149896066
  H         5.2978136287        3.9184348752       12.3036728155
  N         3.8848933071        4.5577803106        0.1959532446
  N         6.7490546097        2.2923157583       16.4054896893
  O         7.8580875798        4.8520801822        7.9165615196
  O         7.5852074665        5.2772708391       10.7764683498
  O         4.3635053815        1.1358097470        7.9191191440
  O         2.3003603032        2.9379820472        6.3242662030
  O         2.1651045847        1.1278950575        8.4665110073
  O         4.5565860424        3.2427660696        6.3359949923
  O         5.6609354063        4.7155043538        8.4662301245
  O         7.9564569125        3.1070211678       10.1573416338
  O         3.3660274903        3.6609315705        8.7055314676
  O         6.6993363366        2.3674496599        7.7828243006
  O         5.0754714828        2.4092032344       10.0991121250
  C         5.5624724439        1.1845981380       10.7325630618
  H         5.3572395519        0.3208575064       10.0937283713
  H         5.0687823491        1.0660994062       11.7026947479
  H         6.6403819295        1.3026927750       10.8688579570
  H         4.1862119215        2.6356522633       10.4397502457
      50
 i =      279, E =      -412.9167169411
 Al         8.3789811638        3.0306318535        8.2692150706
 Al         4.9877108449        2.9533569724        8.1358324379
  C         6.7235068620        5.3507103457        8.1981285893
  C         7.6847118280        4.0663193825       11.0071009867
  C         3.2602074260        0.5570373623        8.1812408834
  C         3.4076817210        3.1911438037        5.7553882708
  C         3.4802686970        3.4659979119        4.2870554684
  C         4.7592836088        3.6907685848        3.7253864120
  C         4.9353552731        4.0413076772        2.4027325682
  C         3.8172311948        4.1601657386        1.5578994417
  C         2.5377895086        3.9071145490        2.0672143205
  C         2.3893623895        3.5761421861        3.4094773055
  C         8.2067423904        2.7963614617       14.6109427474
  C         6.8872619876        2.7423197786       15.0797527957
  C         5.8379776241        3.1652245318       14.2412035535
  C         6.1128806521        3.5822184143       12.9469526906
  C         7.4250771944        3.5971241774       12.4293813338
  C         8.4370977846        3.2356786182       13.3192505381
  C         6.6502138897        6.8491036176        8.1956709081
  C         3.2810312228       -0.9431630290        8.1559746534
  F         7.8229460429        3.3719934194        3.8512304591
  F         3.0446653786        3.3418834555       12.9251557881
  F         5.6104872893       -1.1247155850        8.2358197976
  F         4.3121009969        7.0471956799        8.0874347108
  H         3.3831194776        4.6301127078        8.8084765804
  H         6.7322118632        1.4308218487        7.5176201200
  H         5.6250415456        3.5972471318        4.3804430390
  H         5.9224565627        4.2409110681        2.0097534108
  H         1.6702945284        3.9790887986        1.4177605708
  H         9.0293470550        2.5017357323       15.2580387175
  H         4.8248106353        3.1720322397       14.6185316148
  H         5.2971910402        3.9153984662       12.3042066293
  N         3.8853899593        4.5605090297        0.1976066114
  N         6.7498218750        2.2877653504       16.4052005398
  O         7.8527920843        4.8514960628        7.9162476507
  O         7.5849816322        5.2783803039       10.7774085374
  O         4.3596793072        1.1360331121        7.9206530921
  O         2.2988189715        2.9381699102        6.3244666128
  O         2.1582450584        1.1271306816        8.4656120159
  O         4.5554483398        3.2395121340        6.3353101558
  O         5.6554440339        4.7169962970        8.4662089499
  O         7.9561282546        3.1077141834       10.1579291674
  O         3.3636571438        3.6597703643        8.7048649174
  O         6.6974267616        2.3680904613        7.7825317566
  O         5.0758521517        2.4111777088       10.0996160965
  C         5.5642306648        1.1867390677       10.7323159870
  H         5.3577152969        0.3225977766       10.0946175065
  H         5.0710158478        1.0693430093       11.7026327660
  H         6.6422710569        1.3053474455       10.8658215927
  H         4.1858745905        2.6343714251       10.4397070097
      50
 i =      280, E =      -412.9167406898
 Al         8.3767710903        3.0314004066        8.2685297988
 Al         4.9858520780        2.9532719149        8.1349775623
  C         6.7184142823        5.3514577420        8.1982580885
  C         7.6837492690        4.0680016712       11.0072894768
  C         3.2580152200        0.5576281526        8.1813537486
  C         3.4065029870        3.1912250390        5.7552991281
  C         3.4791831183        3.4669860491        4.2872629220
  C         4.7580890010        3.6924955581        3.7263163651
  C         4.9344469433        4.0429876043        2.4036258605
  C         3.8165961880        4.1602859513        1.5583181172
  C         2.5371871097        3.9065306714        2.0671473704
  C         2.3887056056        3.5764247826        3.4096002982
  C         8.2060591802        2.7930154849       14.6093899519
  C         6.8867566424        2.7401826723       15.0795744966
  C         5.8375535923        3.1649005490       14.2422247088
  C         6.1117525912        3.5821542324       12.9476326900
  C         7.4240699962        3.5981050817       12.4294834145
  C         8.4362322261        3.2350069124       13.3187289441
  C         6.6488354868        6.8498675775        8.1960325958
  C         3.2794540032       -0.9424288233        8.1564216753
  F         7.8226544445        3.3719785839        3.8513849948
  F         3.0443476944        3.3418356584       12.9250605056
  F         5.6097739752       -1.1251501427        8.2358023390
  F         4.3115719975        7.0472453846        8.0874393408
  H         3.3817862877        4.6290244535        8.8106979412
  H         6.7338053174        1.4317187388        7.5163830128
  H         5.6233760556        3.5993985018        4.3819857215
  H         5.9216238295        4.2430992537        2.0112919363
  H         1.6697500695        3.9768761391        1.4175647139
  H         9.0291669843        2.4959007344       15.2546490606
  H         4.8246050490        3.1720296998       14.6203451330
  H         5.2955532711        3.9148765101       12.3053136053
  N         3.8848280619        4.5596410571        0.1976615303
  N         6.7494032099        2.2854469765       16.4050119563
  O         7.8467075772        4.8507049310        7.9158999099
  O         7.5845529865        5.2801394010       10.7778586901
  O         4.3576510667        1.1364745222        7.9208748260
  O         2.2977878354        2.9385966235        6.3245164601
  O         2.1556393048        1.1277538340        8.4652470847
  O         4.5547149962        3.2384741851        6.3345400681
  O         5.6489748269        4.7192795862        8.4660396429
  O         7.9559847002        3.1092791209       10.1583852519
  O         3.3619469551        3.6593456710        8.7043431068
  O         6.6965491402        2.3686858900        7.7824819006
  O         5.0754840870        2.4128423741       10.0998428722
  C         5.5651602956        1.1884768147       10.7316727442
  H         5.3576673711        0.3243347796       10.0947540671
  H         5.0722252041        1.0715130903       11.7021769629
  H         6.6430750627        1.3075393119       10.8636844377
  H         4.1854109831        2.6348083291       10.4390214658
      50
 i =      281, E =      -412.8282194780
 Al         8.4409462397        3.0314085536        8.3442439168
 Al         5.0152589715        2.9812398670        8.1743614341
  C         6.5852477605        5.3516460003        8.2319058695
  C         7.7123919333        4.0001498349       11.0198968743
  C         3.2647845363        0.5857690438        8.1970193076
  C         3.4341627720        3.2040091939        5.7465686383
  C         3.4986960801        3.4481656255        4.3050840116
  C         4.7974453521        3.7008196145        3.6989930982
  C         4.9443553574        4.0151405990        2.3998624229
  C         3.8233594588        4.1254584101        1.5217976128
  C         2.5388994262        3.8940458287        2.0649745495
  C         2.3839136011        3.5629682651        3.3796082165
  C         8.2139596265        2.8057053716       14.6451962238
  C         6.9273577240        2.7523569919       15.0685265220
  C         5.8373934275        3.1671855383       14.1922800572
  C         6.1586701995        3.5979808881       12.9545433808
  C         7.4137399494        3.5489412351       12.4552304069
  C         8.4574148005        3.2348683812       13.3176220423
  C         6.5960919578        6.8764500328        8.2108210963
  C         3.3506490314       -0.8810341865        8.1459176105
  F         7.8112340236        3.3725556019        3.8191434109
  F         3.0349462704        3.3449735447       12.9456039040
  F         5.6233221671       -1.1127053855        8.2309533688
  F         4.3131508884        7.0449828278        8.0772258294
  H         3.3981208334        4.6998208420        8.8378615677
  H         6.6122602110        1.4360707091        7.5179201096
  H         5.6597459631        3.6061624215        4.3608481251
  H         5.9410396241        4.2392740350        1.9796985008
  H         1.6695015569        3.9813476312        1.3885639169
  H         9.0133363704        2.4896818245       15.3034595735
  H         4.8427114329        3.1782210711       14.6058345257
  H         5.3247772910        3.9356394654       12.3100348264
  N         3.9282969597        4.6243369882        0.2191627582
  N         6.7502469217        2.1935400672       16.3541703381
  O         7.6414255779        4.8169923596        7.9453989920
  O         7.5730740723        5.2148731271       10.7330572605
  O         4.4004479569        1.0945753647        7.9213933221
  O         2.2983925418        2.9167334245        6.3324796877
  O         2.2046259775        1.0713510647        8.4994672772
  O         4.5573424056        3.2841271586        6.3797414800
  O         5.3989748269        4.8426255531        8.4581054630
  O         7.9324593994        3.0194263791       10.1137947122
  O         3.3787282126        3.6495558299        8.7047302330
  O         6.6744705867        2.3330337715        7.7795326510
  O         5.1273555166        2.3849788612       10.0544113030
  C         5.5310901234        1.2034437782       10.7373114408
  H         5.3445376915        0.2871019276       10.0686694037
  H         5.1058203020        1.0511757887       11.7343723879
  H         6.6580206857        1.3028574742       10.8906123381
  H         4.1261740050        2.5872780930       10.4660807480
      50
 i =      282, E =      -412.9111010313
 Al         8.3304746276        3.0558854890        8.2557702630
 Al         4.9480154479        2.9483761369        8.1129975535
  C         6.5933721334        5.3698699495        8.2010087245
  C         7.6603957326        4.1203967469       11.0115231355
  C         3.2111967484        0.5732748319        8.1817226308
  C         3.3795128157        3.1948700219        5.7512891467
  C         3.4513918244        3.4916881354        4.2922437860
  C         4.7266331776        3.7405743553        3.7447851427
  C         4.9057145701        4.0906686601        2.4220770883
  C         3.7944700975        4.1552211546        1.5619520814
  C         2.5186646853        3.8795300681        2.0627723971
  C         2.3706455802        3.5790181160        3.4103821434
  C         8.1787199968        2.7087424223       14.5663298609
  C         6.8649340214        2.6838669066       15.0672229107
  C         5.8160289883        3.1547357459       14.2578115117
  C         6.0781976775        3.5899900752       12.9615297421
  C         7.3926974469        3.6326646083       12.4310804579
  C         8.4081416057        3.2222045023       13.3017073159
  C         6.6142633414        6.8697572640        8.2028369926
  C         3.2466520826       -0.9217956089        8.1641302112
  F         7.8134815724        3.3712164378        3.8545237616
  F         3.0320561234        3.3414977822       12.9242951256
  F         5.5937096430       -1.1351452174        8.2352406175
  F         4.2986191855        7.0483736976        8.0875345161
  H         3.3636907749        4.6085147831        8.8415774660
  H         6.7953006597        1.4564027842        7.4814060333
  H         5.5802196442        3.6616752574        4.4159887053
  H         5.8935517135        4.3134420221        2.0453909039
  H         1.6504480770        3.9020226512        1.4114688952
  H         9.0148495537        2.3480652083       15.1636810464
  H         4.8079113386        3.1646408975       14.6547774979
  H         5.2488260269        3.9207057721       12.3345025667
  N         3.8635115248        4.5243697028        0.1910381899
  N         6.7288276453        2.2238408838       16.3924576877
  O         7.6939121427        4.8326887689        7.9063649772
  O         7.5722297730        5.3343678170       10.7851620870
  O         4.3148118404        1.1459503570        7.9208757337
  O         2.2732850631        2.9489829058        6.3256675899
  O         2.1085442021        1.1464752963        8.4599113858
  O         4.5386589398        3.2152900641        6.3135976668
  O         5.4847102158        4.7789621409        8.4598873926
  O         7.9524663652        3.1556395272       10.1678716457
  O         3.3261011798        3.6494904495        8.6908907144
  O         6.6839460066        2.3815955238        7.7809498284
  O         5.0717620601        2.4568581244       10.1014360442
  C         5.5930378385        1.2408733856       10.7189285674
  H         5.3724047320        0.3755433067       10.0959094908
  H         5.1011665199        1.1341272290       11.6893365280
  H         6.6677225548        1.3774955798       10.8224927234
  H         4.1784127440        2.6659242234       10.4177604650
      50
 i =      283, E =      -412.9146754121
 Al         8.3908801092        3.0208412730        8.2684263910
 Al         4.9998015427        2.9545389025        8.1416815945
  C         6.7795375252        5.3445520834        8.1951607718
  C         7.6917020481        4.0517679871       11.0038951685
  C         3.2803991165        0.5489112575        8.1775136005
  C         3.4161235395        3.1900525183        5.7579107087
  C         3.4905599263        3.4566253943        4.2828950128
  C         4.7695342765        3.6702675080        3.7184809549
  C         4.9457993394        4.0251249771        2.3940206027
  C         3.8247556292        4.1643200634        1.5581823404
  C         2.5448000237        3.9180314252        2.0686487149
  C         2.3974513609        3.5748644090        3.4111686236
  C         8.2152973914        2.8275508555       14.6243147289
  C         6.8909949435        2.7619385664       15.0838697311
  C         5.8449089540        3.1675033675       14.2369800703
  C         6.1216577564        3.5784175426       12.9400462048
  C         7.4383399963        3.5871389152       12.4256922241
  C         8.4456000842        3.2395378897       13.3253280737
  C         6.6672255364        6.8398282259        8.1918507423
  C         3.2883218342       -0.9549347120        8.1512055533
  F         7.8273975772        3.3723071286        3.8524902042
  F         3.0499594102        3.3416225370       12.9239745790
  F         5.6151712240       -1.1226620273        8.2363561762
  F         4.3166519181        7.0475143889        8.0884754291
  H         3.3896232040        4.6326014049        8.7922214472
  H         6.7139891174        1.4204495321        7.5316832786
  H         5.6413750242        3.5720817866        4.3654507128
  H         5.9305551772        4.2179726382        1.9967533788
  H         1.6772634643        4.0093755621        1.4231345194
  H         9.0345505688        2.5606726842       15.2898375738
  H         4.8285443573        3.1747999720       14.6040504073
  H         5.3126138652        3.9153918116       12.2937769878
  N         3.8897889546        4.5680032985        0.1973461294
  N         6.7569192345        2.3192440899       16.4137661679
  O         7.9235513307        4.8598901560        7.9173021021
  O         7.5895292644        5.2625640382       10.7774415261
  O         4.3742644350        1.1367373962        7.9185704567
  O         2.3078330148        2.9362358522        6.3227895111
  O         2.1773477134        1.1255628758        8.4658050045
  O         4.5606596683        3.2498498176        6.3413477321
  O         5.7347102158        4.6869216349        8.4692523642
  O         7.9586672442        3.0986376118       10.1568300767
  O         3.3744604353        3.6643533125        8.7106888166
  O         6.7030248530        2.3657775042        7.7832112051
  O         5.0724700763        2.3974381008       10.1023737857
  C         5.5524508581        1.1641962659       10.7354952549
  H         5.3470778939        0.3053649072       10.0948475060
  H         5.0546869821        1.0462420124       11.7052104360
  H         6.6281818678        1.2748394368       10.8789485016
  H         4.1917832772        2.6272106334       10.4446852782
      50
 i =      284, E =      -412.9167687757
 Al         8.3739607059        3.0314977049        8.2672518315
 Al         4.9847282462        2.9571865779        8.1352354030
  C         6.7074240158        5.3555374277        8.1987435169
  C         7.6822381055        4.0712158060       11.0066795158
  C         3.2581048918        0.5586477887        8.1791127482
  C         3.4044831337        3.1949735960        5.7568361869
  C         3.4786416792        3.4679093233        4.2876536606
  C         4.7571722460        3.6960510883        3.7253506205
  C         4.9322434627        4.0452140633        2.4021383958
  C         3.8146023734        4.1578125559        1.5560029130
  C         2.5361891546        3.9032639055        2.0662640406
  C         2.3880113687        3.5742645098        3.4089041595
  C         8.2023730752        2.7825818484       14.6031334915
  C         6.8839813111        2.7303537837       15.0744443976
  C         5.8341853986        3.1587316056       14.2389519129
  C         6.1090611604        3.5806331351       12.9463896468
  C         7.4219719846        3.5969269532       12.4273914010
  C         8.4340211000        3.2305535914       13.3145959118
  C         6.6456133282        6.8521020033        8.1956715925
  C         3.2786598775       -0.9387706069        8.1539266806
  F         7.8210588076        3.3720495830        3.8502826862
  F         3.0441795651        3.3412904447       12.9238824490
  F         5.6076688942       -1.1266529697        8.2351370874
  F         4.3101558288        7.0486233234        8.0875332517
  H         3.3818423812        4.6268440417        8.8125799821
  H         6.7311557676        1.4333052899        7.5072160557
  H         5.6227917664        3.6081598353        4.3809077283
  H         5.9181015576        4.2506484336        2.0095104618
  H         1.6684792627        3.9719486162        1.4173554345
  H         9.0255364056        2.4831605216       15.2451719894
  H         4.8220489724        3.1685352683       14.6188034951
  H         5.2924928924        3.9173830595       12.3072431719
  N         3.8833793128        4.5565727834        0.1960276539
  N         6.7462469830        2.2756728799       16.4004299215
  O         7.8294016171        4.8464678455        7.9132700238
  O         7.5815579377        5.2823771987       10.7765646849
  O         4.3543435851        1.1405552175        7.9184899294
  O         2.2936304920        2.9393407198        6.3231468734
  O         2.1590244839        1.1292096673        8.4677833074
  O         4.5510239964        3.2494312700        6.3390985471
  O         5.6339761284        4.7308581564        8.4665003280
  O         7.9546574326        3.1165522416       10.1546089132
  O         3.3575064770        3.6566967101        8.7047256789
  O         6.6942453622        2.3664045246        7.7820184686
  O         5.0769727062        2.4254397615       10.0995014184
  C         5.5642763326        1.1988577528       10.7300941684
  H         5.3538842416        0.3345631327       10.0936590688
  H         5.0742224872        1.0842599931       11.7032314519
  H         6.6424303498        1.3170330391       10.8602607838
  H         4.1779773344        2.6428736814       10.4296384947
      50
 i =      285, E =      -412.9167766569
 Al         8.3665510602        3.0372507034        8.2686699754
 Al         4.9777627139        2.9582896476        8.1343492366
  C         6.6872151243        5.3586947225        8.2000435527
  C         7.6805615589        4.0747525259       11.0080436109
  C         3.2484416298        0.5634749299        8.1800107895
  C         3.4012402289        3.1972601396        5.7567995846
  C         3.4755374819        3.4737568603        4.2895482576
  C         4.7544623218        3.7065555387        3.7301104990
  C         4.9302834624        4.0569432849        2.4074149626
  C         3.8137463307        4.1595017377        1.5580322861
  C         2.5352036992        3.8998997937        2.0657436550
  C         2.3867331290        3.5769757742        3.4092979826
  C         8.2012255144        2.7774560183       14.6022997633
  C         6.8829830339        2.7265292609       15.0750697212
  C         5.8328986250        3.1564927063       14.2405183937
  C         6.1065327287        3.5787696722       12.9481565630
  C         7.4190678454        3.5999700677       12.4289258787
  C         8.4313070819        3.2302464793       13.3151315380
  C         6.6403611606        6.8569541257        8.1977515139
  C         3.2742677425       -0.9341402718        8.1557999909
  F         7.8214855273        3.3718638681        3.8517462291
  F         3.0412600602        3.3418480901       12.9256834736
  F         5.6071569211       -1.1276231942        8.2357946773
  F         4.3090467307        7.0480648544        8.0878181640
  H         3.3757059357        4.6284423213        8.8214747859
  H         6.7312249103        1.4382361235        7.5084262852
  H         5.6188667050        3.6192877383        4.3876548853
  H         5.9164479819        4.2679146326        2.0178516776
  H         1.6679397415        3.9621736952        1.4151337283
  H         9.0259973399        2.4716617881       15.2413929789
  H         4.8206952970        3.1647949759       14.6213104526
  H         5.2861116759        3.9115455243       12.3103963438
  N         3.8833680025        4.5517032787        0.1957430922
  N         6.7471453803        2.2727297885       16.4018858415
  O         7.8062833743        4.8468556539        7.9127594555
  O         7.5828748862        5.2870379877       10.7786827120
  O         4.3496431830        1.1388297053        7.9191894648
  O         2.2914575400        2.9414093451        6.3249166466
  O         2.1464995418        1.1311065667        8.4636285858
  O         4.5497075844        3.2451151688        6.3364403856
  O         5.6066695092        4.7405191596        8.4659329491
  O         7.9549836004        3.1171411941       10.1581739245
  O         3.3521596959        3.6593952490        8.7035711979
  O         6.6906302918        2.3721386304        7.7826260657
  O         5.0762492588        2.4283125557       10.0994931821
  C         5.5679821414        1.2014441050       10.7236399868
  H         5.3532542049        0.3393432669       10.0857151075
  H         5.0818237629        1.0803811253       11.6980796781
  H         6.6473584436        1.3203408714       10.8476285357
  H         4.1854053009        2.6459041415       10.4371166770
      50
 i =      286, E =      -412.9168975767
 Al         8.3724362762        3.0358923205        8.2689129998
 Al         4.9833100089        2.9576545979        8.1356017616
  C         6.7013529771        5.3574356962        8.1993724540
  C         7.6819953216        4.0707356275       11.0070784916
  C         3.2553167391        0.5616764379        8.1795007177
  C         3.4044302009        3.1954728438        5.7566774294
  C         3.4779894510        3.4700719724        4.2884533895
  C         4.7569638805        3.6995401317        3.7277735437
  C         4.9323721155        4.0501949086        2.4047913193
  C         3.8149282945        4.1590502445        1.5577480837
  C         2.5362841748        3.9020516938        2.0663357206
  C         2.3883073605        3.5760063470        3.4095790728
  C         8.2028010229        2.7860273644       14.6057490217
  C         6.8836720337        2.7331120172       15.0762558346
  C         5.8341721199        3.1596258754       14.2395663841
  C         6.1086649919        3.5802261088       12.9467447511
  C         7.4215150111        3.5986236235       12.4285310564
  C         8.4333795534        3.2323692566       13.3165321252
  C         6.6451863077        6.8552674007        8.1963376945
  C         3.2777314058       -0.9366917823        8.1545728319
  F         7.8223654648        3.3719056080        3.8518907275
  F         3.0426618691        3.3419592065       12.9256636513
  F         5.6092680610       -1.1259816343        8.2358094658
  F         4.3111763769        7.0482553770        8.0876428548
  H         3.3808372444        4.6302516838        8.8147596968
  H         6.7310652873        1.4353592240        7.5135509827
  H         5.6226008134        3.6097678252        4.3835341525
  H         5.9184740575        4.2580077292        2.0135801602
  H         1.6683800300        3.9695253257        1.4170531595
  H         9.0261838331        2.4856996813       15.2494593361
  H         4.8211132925        3.1665047878       14.6176192077
  H         5.2905847364        3.9141492353       12.3072844922
  N         3.8833871712        4.5546011752        0.1957505786
  N         6.7474518944        2.2799523470       16.4031345046
  O         7.8239066031        4.8493667866        7.9149006276
  O         7.5824415222        5.2828903025       10.7778052644
  O         4.3557957409        1.1385569534        7.9186334956
  O         2.2949057265        2.9407023704        6.3250399471
  O         2.1542769646        1.1306436709        8.4646633447
  O         4.5525660099        3.2445012550        6.3365569765
  O         5.6250462898        4.7351282413        8.4660199291
  O         7.9562151795        3.1126672695       10.1579940128
  O         3.3580495180        3.6610427932        8.7042420879
  O         6.6947023426        2.3713610201        7.7830150511
  O         5.0755626863        2.4242785523       10.0998094385
  C         5.5624767825        1.1963208969       10.7269899258
  H         5.3479576310        0.3343461287       10.0890706798
  H         5.0745795761        1.0786196934       11.7001607934
  H         6.6414659308        1.3125571004       10.8544276739
  H         4.1849026456        2.6431888642       10.4369045728
      50
 i =      287, E =      -412.9169167169
 Al         8.3712892105        3.0353336615        8.2684201778
 Al         4.9824065137        2.9582932838        8.1352297084
  C         6.6993688352        5.3583904454        8.2002483540
  C         7.6816985557        4.0708678759       11.0070452089
  C         3.2551664405        0.5617208932        8.1792341758
  C         3.4044061447        3.1947460903        5.7560252639
  C         3.4779285814        3.4700278051        4.2880559820
  C         4.7570055636        3.6988837899        3.7274433819
  C         4.9324638811        4.0496525434        2.4046983012
  C         3.8150177991        4.1588948463        1.5575492769
  C         2.5362760269        3.9022956907        2.0662096038
  C         2.3880104928        3.5759267058        3.4093755145
  C         8.2033149855        2.7860248733       14.6058845989
  C         6.8845204420        2.7328440880       15.0765544915
  C         5.8346563054        3.1589761831       14.2398197034
  C         6.1090426416        3.5805980449       12.9472010122
  C         7.4216285797        3.5985767186       12.4285384723
  C         8.4339129848        3.2322645381       13.3163905605
  C         6.6442464911        6.8560478909        8.1969569157
  C         3.2769032523       -0.9362194914        8.1541876361
  F         7.8220355239        3.3719722300        3.8514457129
  F         3.0431969347        3.3419144605       12.9254435716
  F         5.6086498745       -1.1256136771        8.2357904179
  F         4.3105875119        7.0483897199        8.0874423580
  H         3.3800742195        4.6294960508        8.8158038430
  H         6.7289619604        1.4341760109        7.5168633165
  H         5.6225541581        3.6090695239        4.3832949479
  H         5.9184552743        4.2571603539        2.0135048870
  H         1.6684384076        3.9697910850        1.4167986757
  H         9.0268272057        2.4869648658       15.2495488224
  H         4.8218172923        3.1655812918       14.6181963518
  H         5.2915594384        3.9151802882       12.3079098527
  N         3.8836151577        4.5535204477        0.1955649873
  N         6.7476731665        2.2807466839       16.4036329195
  O         7.8207279837        4.8481602179        7.9165912154
  O         7.5815052007        5.2829236443       10.7774181166
  O         4.3555283203        1.1394345738        7.9196103390
  O         2.2950704074        2.9404961737        6.3248281838
  O         2.1543551662        1.1307781392        8.4653373070
  O         4.5525746739        3.2427410533        6.3356415451
  O         5.6222341475        4.7372118622        8.4659001270
  O         7.9552784857        3.1125035511       10.1578689791
  O         3.3565730906        3.6602602529        8.7037854878
  O         6.6931631806        2.3710134769        7.7827542937
  O         5.0744907866        2.4239650468       10.0996672989
  C         5.5601319505        1.1957573715       10.7278130916
  H         5.3446590384        0.3331665233       10.0913842154
  H         5.0728744099        1.0807204428       11.7018132707
  H         6.6393559037        1.3106377126       10.8543451256
  H         4.1804705533        2.6409079773       10.4338296915
      50
 i =      288, E =      -412.9169289471
 Al         8.3712858503        3.0357264839        8.2685870190
 Al         4.9821946772        2.9587550506        8.1351235257
  C         6.6977173259        5.3596545598        8.2011268546
  C         7.6818878845        4.0704327653       11.0073957156
  C         3.2547837877        0.5622417466        8.1793839552
  C         3.4046489911        3.1938312226        5.7555180136
  C         3.4780485819        3.4698936862        4.2876570302
  C         4.7569638048        3.6995172307        3.7270518348
  C         4.9323908790        4.0505992927        2.4044621443
  C         3.8149213931        4.1588084309        1.5571671434
  C         2.5363044743        3.9017438592        2.0657745121
  C         2.3880546133        3.5757277898        3.4091608949
  C         8.2037079720        2.7874005259       14.6067143271
  C         6.8847829418        2.7340926483       15.0767870189
  C         5.8349164238        3.1594865371       14.2399618553
  C         6.1095736659        3.5812368062       12.9474649963
  C         7.4221213242        3.5984111112       12.4289205060
  C         8.4343758774        3.2326413370       13.3169127871
  C         6.6440192053        6.8570624952        8.1972193450
  C         3.2765189279       -0.9354980671        8.1543830209
  F         7.8221840752        3.3719184831        3.8513664932
  F         3.0433658796        3.3418666812       12.9254598575
  F         5.6087593599       -1.1254959235        8.2357401064
  F         4.3105531870        7.0486173483        8.0874917039
  H         3.3803654326        4.6300972663        8.8155937696
  H         6.7270306914        1.4334389759        7.5218415945
  H         5.6225370484        3.6095330551        4.3828635984
  H         5.9182153389        4.2590557178        2.0134793385
  H         1.6686188999        3.9679852783        1.4159598848
  H         9.0271173272        2.4885165469       15.2508581948
  H         4.8220726148        3.1662853138       14.6181669817
  H         5.2924584484        3.9170560199       12.3083977504
  N         3.8837447863        4.5527881701        0.1949693931
  N         6.7479364536        2.2819822713       16.4039777950
  O         7.8185796430        4.8481138695        7.9181681083
  O         7.5815177635        5.2824791281       10.7776033906
  O         4.3556795236        1.1395710186        7.9202850921
  O         2.2954997406        2.9406008090        6.3248517667
  O         2.1536571730        1.1311091557        8.4651154275
  O         4.5530122966        3.2403872648        6.3344312509
  O         5.6198151658        4.7397922053        8.4659212040
  O         7.9553429176        3.1117782959       10.1582455166
  O         3.3566918047        3.6609445085        8.7035913303
  O         6.6928742959        2.3718341211        7.7828064775
  O         5.0735368480        2.4223893467       10.0997102732
  C         5.5601238940        1.1947470318       10.7282935744
  H         5.3443187907        0.3316208084       10.0926642872
  H         5.0736709457        1.0799794821       11.7025890287
  H         6.6394664095        1.3093995226       10.8539346316
  H         4.1803170729        2.6392796334       10.4353967712
      50
 i =      289, E =      -412.9169387239
 Al         8.3713561424        3.0358323971        8.2687675399
 Al         4.9821769933        2.9594475768        8.1351915487
  C         6.6975701852        5.3609022676        8.2014858594
  C         7.6822980822        4.0698423548       11.0076121286
  C         3.2549202832        0.5625563376        8.1795050744
  C         3.4052998207        3.1930245737        5.7549594883
  C         3.4785375050        3.4691671394        4.2868806406
  C         4.7572613243        3.6997505442        3.7261745694
  C         4.9323827945        4.0513731941        2.4036658029
  C         3.8147667260        4.1585143728        1.5564792630
  C         2.5363440810        3.9006508596        2.0650529799
  C         2.3883416866        3.5750321920        3.4087395037
  C         8.2041994705        2.7891359765       14.6077335356
  C         6.8850686629        2.7355176020       15.0770366988
  C         5.8353987346        3.1606931222       14.2401875171
  C         6.1103170059        3.5825248612       12.9477748297
  C         7.4228920520        3.5987036593       12.4293531833
  C         8.4349183335        3.2332658342       13.3176121463
  C         6.6443561479        6.8578934640        8.1970956896
  C         3.2764915031       -0.9349953083        8.1544820225
  F         7.8224531297        3.3718122055        3.8513839240
  F         3.0437015129        3.3418368023       12.9254298254
  F         5.6090501565       -1.1252901664        8.2357734195
  F         4.3107391577        7.0488661032        8.0875334153
  H         3.3809773150        4.6309352551        8.8148197938
  H         6.7244930155        1.4319330990        7.5280794794
  H         5.6231847831        3.6103579845        4.3815781440
  H         5.9179435628        4.2608619039        2.0124785457
  H         1.6687255492        3.9659369407        1.4150730511
  H         9.0271975647        2.4913491836       15.2528560569
  H         4.8225138418        3.1680499375       14.6181516083
  H         5.2937213927        3.9200998668       12.3091213354
  N         3.8836205871        4.5517542758        0.1939882531
  N         6.7480541784        2.2836469338       16.4042460538
  O         7.8183200503        4.8483952901        7.9190227408
  O         7.5818182925        5.2818489986       10.7775970642
  O         4.3561420680        1.1396044145        7.9205253857
  O         2.2963337828        2.9407233901        6.3247485148
  O         2.1535602417        1.1314555382        8.4651578620
  O         4.5536143087        3.2392633416        6.3335396907
  O         5.6191309351        4.7425383438        8.4661820253
  O         7.9554122423        3.1109906930       10.1587163343
  O         3.3570096848        3.6618795696        8.7035595489
  O         6.6925499197        2.3722317915        7.7830802221
  O         5.0725496888        2.4195026937       10.0998400954
  C         5.5607571534        1.1927294232       10.7288767114
  H         5.3448669622        0.3288858761       10.0943215010
  H         5.0748491130        1.0782162547       11.7034433784
  H         6.6401299724        1.3070679557       10.8537795616
  H         4.1804496401        2.6367136095       10.4376738951
      50
 i =      290, E =      -412.9169469960
 Al         8.3717045179        3.0359249819        8.2687347539
 Al         4.9824344866        2.9601468466        8.1354340942
  C         6.6981444340        5.3621598017        8.2013362941
  C         7.6829280921        4.0692631109       11.0075668046
  C         3.2552814381        0.5627729455        8.1795030200
  C         3.4061288869        3.1928626007        5.7546288457
  C         3.4792697214        3.4681685502        4.2860398453
  C         4.7577379790        3.6998842989        3.7250071015
  C         4.9323051639        4.0516528282        2.4024330668
  C         3.8144869165        4.1577868639        1.5555012680
  C         2.5363579590        3.8990643781        2.0642061934
  C         2.3887851314        3.5738668990        3.4081815392
  C         8.2045175592        2.7910625925       14.6085500738
  C         6.8851335475        2.7370811025       15.0770992635
  C         5.8358416850        3.1626722732       14.2403258318
  C         6.1110436479        3.5843963787       12.9479583090
  C         7.4236810942        3.5990265270       12.4295476888
  C         8.4352685898        3.2340046910       13.3182212464
  C         6.6450021619        6.8586180894        8.1966282973
  C         3.2767408013       -0.9345476362        8.1544150983
  F         7.8226970867        3.3717496996        3.8513681733
  F         3.0440068497        3.3417905687       12.9253491838
  F         5.6094943215       -1.1250578193        8.2357594111
  F         4.3110720203        7.0490780341        8.0875585186
  H         3.3820823565        4.6318119521        8.8139094780
  H         6.7224522223        1.4302047682        7.5346713266
  H         5.6241432157        3.6116689434        4.3799230338
  H         5.9175771163        4.2625405781        2.0108121038
  H         1.6687121124        3.9634576895        1.4142263638
  H         9.0271070125        2.4942521936       15.2547095455
  H         4.8229969773        3.1707923288       14.6182278753
  H         5.2949510703        3.9240815377       12.3097073416
  N         3.8832339157        4.5511190673        0.1928399443
  N         6.7477924720        2.2848874180       16.4040638856
  O         7.8186702236        4.8484699472        7.9187413239
  O         7.5822202502        5.2811615319       10.7773838761
  O         4.3564478830        1.1397280862        7.9201378102
  O         2.2972323498        2.9407065607        6.3245042090
  O         2.1538988519        1.1317771412        8.4653200932
  O         4.5541781534        3.2399832965        6.3334104524
  O         5.6191717142        4.7455431954        8.4665497955
  O         7.9554453632        3.1104032225       10.1587877579
  O         3.3576397138        3.6627247549        8.7036386724
  O         6.6926414472        2.3724201594        7.7834098868
  O         5.0719010443        2.4157936372       10.0999299787
  C         5.5620304142        1.1901185977       10.7295146842
  H         5.3458164476        0.3252549401       10.0963104396
  H         5.0765578090        1.0762385397       11.7041373630
  H         6.6413880994        1.3043573907       10.8537138713
  H         4.1811809729        2.6333865623       10.4405225600
      50
 i =      291, E =      -412.9169528286
 Al         8.3712576728        3.0360900515        8.2685220663
 Al         4.9821459197        2.9607872402        8.1356428608
  C         6.6987284756        5.3628620784        8.2007375405
  C         7.6833928027        4.0689435558       11.0075066123
  C         3.2549546781        0.5629404193        8.1794044103
  C         3.4063973791        3.1935555283        5.7546911441
  C         3.4796251742        3.4683187481        4.2857868181
  C         4.7579499266        3.7005519291        3.7246009808
  C         4.9322062978        4.0520370815        2.4017899827
  C         3.8143551988        4.1570915778        1.5548891890
  C         2.5364365838        3.8976822824        2.0636644106
  C         2.3890473563        3.5732547629        3.4078579192
  C         8.2046496089        2.7912058683       14.6085322432
  C         6.8850708467        2.7369723502       15.0767922683
  C         5.8360550879        3.1634086583       14.2401786828
  C         6.1112489573        3.5851618838       12.9478064062
  C         7.4240126446        3.5991630087       12.4294979026
  C         8.4353670074        3.2340408070       13.3183059688
  C         6.6453232608        6.8590580342        8.1960711897
  C         3.2767601655       -0.9342846611        8.1542376245
  F         7.8227847774        3.3717141746        3.8514113822
  F         3.0441521137        3.3418112187       12.9252715991
  F         5.6096526452       -1.1248589326        8.2358060082
  F         4.3112031241        7.0491225249        8.0875541417
  H         3.3820298510        4.6320073508        8.8145455510
  H         6.7214888031        1.4295797064        7.5371610658
  H         5.6245725037        3.6137542873        4.3794488221
  H         5.9173288352        4.2635936519        2.0098839359
  H         1.6687953151        3.9616575895        1.4136752494
  H         9.0271085529        2.4951163481       15.2551262816
  H         4.8232019585        3.1718025193       14.6182249652
  H         5.2954870068        3.9256094528       12.3095301958
  N         3.8829162701        4.5503944770        0.1920451249
  N         6.7474891934        2.2846832003       16.4034565870
  O         7.8190989170        4.8486145267        7.9178970275
  O         7.5825479189        5.2807126589       10.7772845841
  O         4.3558922943        1.1399899889        7.9197146048
  O         2.2975362265        2.9407361631        6.3243500907
  O         2.1535037638        1.1319995555        8.4652916003
  O         4.5542723838        3.2416241725        6.3339211583
  O         5.6195973297        4.7471993076        8.4667257453
  O         7.9554176505        3.1101537874       10.1587533220
  O         3.3574778003        3.6630082466        8.7037707552
  O         6.6923743761        2.3724017158        7.7835433988
  O         5.0718354661        2.4142724125       10.0999058230
  C         5.5631119440        1.1888611630       10.7293876235
  H         5.3459056628        0.3235813103       10.0971707930
  H         5.0782141824        1.0757424071       11.7042989215
  H         6.6424652772        1.3031016434       10.8523407505
  H         4.1810192186        2.6311182672       10.4407814739
      50
 i =      292, E =      -412.9169611894
 Al         8.3710334079        3.0366117182        8.2680782070
 Al         4.9820253069        2.9615908141        8.1359066039
  C         6.6994136495        5.3638388945        8.1997003909
  C         7.6842006509        4.0688160989       11.0073337769
  C         3.2544482158        0.5631761031        8.1788968718
  C         3.4067783196        3.1953584212        5.7548987543
  C         3.4799557626        3.4690792848        4.2855371710
  C         4.7579879872        3.7025549442        3.7240218420
  C         4.9316112356        4.0526849349        2.4006556845
  C         3.8137574291        4.1551649708        1.5535850537
  C         2.5362498510        3.8944857790        2.0625916959
  C         2.3892253685        3.5720622385        3.4072372628
  C         8.2042704009        2.7898050317       14.6077280109
  C         6.8844792439        2.7359034318       15.0758973950
  C         5.8360767480        3.1651107402       14.2398095939
  C         6.1114960976        3.5869587771       12.9474868454
  C         7.4243350622        3.5992851073       12.4291978097
  C         8.4352960219        3.2335052384       13.3180469403
  C         6.6456998398        6.8596947091        8.1950400213
  C         3.2768065119       -0.9339300667        8.1535062707
  F         7.8227287823        3.3717621995        3.8514000195
  F         3.0442382295        3.3418100626       12.9252326310
  F         5.6098236229       -1.1245208156        8.2357726173
  F         4.3112861817        7.0491191288        8.0874301372
  H         3.3823420023        4.6320528463        8.8158387130
  H         6.7215856886        1.4291920431        7.5394167597
  H         5.6248947060        3.6179848008        4.3789059063
  H         5.9163523190        4.2658972450        2.0083858862
  H         1.6684574458        3.9570475166        1.4126826436
  H         9.0265452818        2.4933288308       15.2545084761
  H         4.8233479386        3.1744484843       14.6183513847
  H         5.2964616497        3.9286937136       12.3088829635
  N         3.8818851134        4.5492553028        0.1907590001
  N         6.7463785347        2.2816573947       16.4015772607
  O         7.8193045350        4.8485829675        7.9165456803
  O         7.5828072033        5.2804007793       10.7769834793
  O         4.3547872513        1.1406167463        7.9186492468
  O         2.2978920186        2.9409638023        6.3240584120
  O         2.1531576023        1.1320785253        8.4653872155
  O         4.5544623019        3.2447717818        6.3349660144
  O         5.6199741999        4.7495322619        8.4667994810
  O         7.9555948089        3.1101723743       10.1583844230
  O         3.3576152970        3.6631254095        8.7038308169
  O         6.6926828967        2.3724488791        7.7835469208
  O         5.0725282672        2.4129882367       10.0997866547
  C         5.5654119305        1.1878702589       10.7290144313
  H         5.3464007047        0.3221108280       10.0981979277
  H         5.0818095717        1.0762645815       11.7044797888
  H         6.6446800473        1.3027516234       10.8497306646
  H         4.1816655941        2.6284838110       10.4411450344
      50
 i =      293, E =      -412.9169684534
 Al         8.3702005242        3.0370212960        8.2678293783
 Al         4.9813100994        2.9622097264        8.1361379039
  C         6.6996774176        5.3640676544        8.1991157853
  C         7.6843566953        4.0686391649       11.0072554318
  C         3.2535425374        0.5635681765        8.1786428139
  C         3.4065747784        3.1970280794        5.7552763192
  C         3.4797986473        3.4708994857        4.2859993140
  C         4.7577088816        3.7045054031        3.7243672633
  C         4.9312150108        4.0536197064        2.4005919166
  C         3.8134857142        4.1544616979        1.5531592563
  C         2.5361376825        3.8932601868        2.0623622270
  C         2.3891585062        3.5722122743        3.4072352581
  C         8.2037647600        2.7880327469       14.6069541483
  C         6.8838584966        2.7341335809       15.0750883108
  C         5.8355847966        3.1642639567       14.2390853883
  C         6.1111823226        3.5862291684       12.9467908091
  C         7.4241377582        3.5987806769       12.4288750950
  C         8.4351133285        3.2327130179       13.3176441779
  C         6.6456272439        6.8600165768        8.1944510174
  C         3.2766186082       -0.9337024167        8.1531964741
  F         7.8226749022        3.3717518981        3.8514320074
  F         3.0440560071        3.3418228534       12.9252736802
  F         5.6098150732       -1.1243825720        8.2357610747
  F         4.3111882008        7.0490275931        8.0873794926
  H         3.3812468888        4.6320391601        8.8180532277
  H         6.7219443732        1.4303249626        7.5370977971
  H         5.6245472560        3.6213565448        4.3795841390
  H         5.9158202166        4.2674450575        2.0084116219
  H         1.6683335306        3.9550522880        1.4123776217
  H         9.0260112064        2.4909190277       15.2535380131
  H         4.8227778872        3.1736396776       14.6177005275
  H         5.2963933142        3.9274830012       12.3074237594
  N         3.8812448176        4.5482062997        0.1902677989
  N         6.7456924949        2.2793105011       16.4003513867
  O         7.8195415522        4.8489560127        7.9158609220
  O         7.5829125688        5.2801854859       10.7769882589
  O         4.3537004608        1.1410651255        7.9182034345
  O         2.2978211765        2.9410629473        6.3241208288
  O         2.1522345548        1.1321963271        8.4652671714
  O         4.5543122452        3.2471356284        6.3357263795
  O         5.6205384143        4.7496122389        8.4667620758
  O         7.9554694657        3.1099544457       10.1582616635
  O         3.3569288224        3.6632940391        8.7039354986
  O         6.6921846393        2.3727035256        7.7835037601
  O         5.0729722386        2.4142511651       10.0996152188
  C         5.5661716598        1.1881949381       10.7274563056
  H         5.3443673619        0.3228931141       10.0970426287
  H         5.0842006658        1.0774944801       11.7036672851
  H         6.6457894593        1.3028486314       10.8453990888
  H         4.1803028160        2.6271803476       10.4382790783
      50
 i =      294, E =      -412.9169797065
 Al         8.3695188619        3.0378286940        8.2675634945
 Al         4.9806798331        2.9635461886        8.1363047850
  C         6.6997504053        5.3647588428        8.1983424456
  C         7.6849710709        4.0689717547       11.0073289449
  C         3.2524326050        0.5642154777        8.1776561079
  C         3.4067353305        3.2002610141        5.7556092471
  C         3.4795627844        3.4740502340        4.2864011203
  C         4.7570204392        3.7087301481        3.7242722771
  C         4.9299526696        4.0557922257        2.3997935411
  C         3.8121925777        4.1525837622        1.5517348661
  C         2.5352952245        3.8900122080        2.0615338678
  C         2.3887886733        3.5720755879        3.4070462395
  C         8.2023634207        2.7834934270       14.6052943348
  C         6.8823416903        2.7312956749       15.0735711711
  C         5.8347810627        3.1653085734       14.2381486584
  C         6.1110699325        3.5877311854       12.9460249263
  C         7.4240512684        3.5990308653       12.4286301593
  C         8.4348865779        3.2310562668       13.3169808007
  C         6.6455436320        6.8607875368        8.1932487049
  C         3.2763930344       -0.9332502496        8.1519415516
  F         7.8224945830        3.3717504475        3.8514943161
  F         3.0437909569        3.3417187096       12.9254819902
  F         5.6098703365       -1.1240353287        8.2356543032
  F         4.3110066876        7.0489276126        8.0872548141
  H         3.3800524496        4.6316273869        8.8226216189
  H         6.7229626635        1.4313408534        7.5358105418
  H         5.6239267214        3.6281616383        4.3798222121
  H         5.9140108511        4.2718376029        2.0077525389
  H         1.6672067606        3.9492907340        1.4115676527
  H         9.0241176688        2.4837164188       15.2512721991
  H         4.8220326094        3.1768568022       14.6171723451
  H         5.2972941766        3.9294588559       12.3055645043
  N         3.8791378691        4.5467529659        0.1890583574
  N         6.7436271841        2.2737088826       16.3976437747
  O         7.8194383167        4.8494070439        7.9154238900
  O         7.5829851413        5.2805302395       10.7767824833
  O         4.3521012590        1.1422240139        7.9170902590
  O         2.2983463771        2.9414937392        6.3240480005
  O         2.1513880261        1.1322102607        8.4652837973
  O         4.5544706888        3.2522902443        6.3367621188
  O         5.6207527272        4.7507461076        8.4667581949
  O         7.9554370673        3.1100364642       10.1582251421
  O         3.3565028619        3.6632166171        8.7039987033
  O         6.6919950654        2.3731903015        7.7833745742
  O         5.0737341751        2.4151677094       10.0994294666
  C         5.5686348766        1.1876828921       10.7244814547
  H         5.3415094481        0.3230598394       10.0954417754
  H         5.0911367398        1.0793352963       11.7028429822
  H         6.6486781919        1.3024367370       10.8363773139
  H         4.1784852717        2.6227806343       10.4348919848
      50
 i =      295, E =      -412.9169972898
 Al         8.3694143797        3.0382714364        8.2674732009
 Al         4.9804212614        2.9651531850        8.1364247053
  C         6.6996175870        5.3653672112        8.1985317413
  C         7.6855022207        4.0693487615       11.0075216289
  C         3.2518652485        0.5649799534        8.1765860791
  C         3.4073712624        3.2037227853        5.7559017823
  C         3.4794543024        3.4772425991        4.2867367354
  C         4.7564732318        3.7134621428        3.7242349557
  C         4.9288537104        4.0589472074        2.3992653136
  C         3.8111406048        4.1510423526        1.5503775798
  C         2.5347403045        3.8865999097        2.0606663823
  C         2.3885164759        3.5720040157        3.4070040060
  C         8.2011639932        2.7812827805       14.6046511018
  C         6.8810258402        2.7300098818       15.0726135017
  C         5.8337292068        3.1653006249       14.2371538600
  C         6.1109404784        3.5878275441       12.9452380285
  C         7.4240327290        3.5986363720       12.4284632098
  C         8.4347569972        3.2300100021       13.3166934886
  C         6.6454207812        6.8615165033        8.1927875843
  C         3.2763006228       -0.9326772527        8.1510632092
  F         7.8224724576        3.3717437125        3.8514785053
  F         3.0434958627        3.3416012321       12.9257182900
  F         5.6099499604       -1.1238231327        8.2355229083
  F         4.3109334689        7.0489861312        8.0871918035
  H         3.3789083944        4.6316104888        8.8275617187
  H         6.7231403492        1.4314333344        7.5377961162
  H         5.6233781150        3.6355302162        4.3801142486
  H         5.9123321081        4.2777324706        2.0076829158
  H         1.6666514482        3.9420545880        1.4103385366
  H         9.0223481271        2.4795732709       15.2507081882
  H         4.8210214419        3.1787054411       14.6161028038
  H         5.2976292845        3.9299995430       12.3041788524
  N         3.8775844057        4.5438426777        0.1876281053
  N         6.7422035207        2.2715608821       16.3963851333
  O         7.8191547600        4.8496830748        7.9159475429
  O         7.5834491065        5.2809332201       10.7767504498
  O         4.3512692324        1.1433948263        7.9159585958
  O         2.2995730109        2.9416996327        6.3240176595
  O         2.1510549719        1.1323811220        8.4652013962
  O         4.5550105720        3.2588674242        6.3374541463
  O         5.6207820703        4.7515073817        8.4671533687
  O         7.9552694959        3.1101051524       10.1582873054
  O         3.3562714467        3.6635760544        8.7040993833
  O         6.6917621134        2.3738295948        7.7833015396
  O         5.0737821073        2.4152187964       10.0993000284
  C         5.5711449969        1.1865179516       10.7211112517
  H         5.3381679037        0.3224432570       10.0934583664
  H         5.0994944454        1.0798573278       11.7022369593
  H         6.6518395018        1.3011333124       10.8261311678
  H         4.1765092993        2.6174979762       10.4320821124
      50
 i =      296, E =      -412.8245238592
 Al         8.3599027589        3.0555075596        8.2619287477
 Al         5.0110972219        2.9584051146        8.1101298884
  C         6.7129497815        5.3677714169        8.1921447455
  C         7.6595949415        4.0555939377       10.9891082878
  C         3.2844820024        0.5133246776        8.1944021240
  C         3.4323788591        3.2264689894        5.7855671654
  C         3.4837383380        3.4765075991        4.2631066247
  C         4.7460059105        3.7366076691        3.7282864745
  C         4.8997679434        4.0726677244        2.4045725236
  C         3.8050942439        4.1339814931        1.6089114922
  C         2.5424990582        3.8721501835        2.0458054819
  C         2.4181455728        3.5674156902        3.3980690189
  C         8.2418440117        2.7694291243       14.5795020527
  C         6.8623029482        2.7054484303       15.0572172175
  C         5.8796271015        3.1770517749       14.2514571249
  C         6.0732167499        3.5910053339       12.9372776838
  C         7.4503581172        3.6354487012       12.4127028564
  C         8.3847913559        3.2219272741       13.3524570478
  C         6.6655179206        6.8275902009        8.1965843080
  C         3.2556717937       -0.9247629874        8.1544198570
  F         7.8027924066        3.3551020796        3.8841830759
  F         3.0802700747        3.3540248507       12.9083423930
  F         5.5973523373       -1.1377615815        8.2543999815
  F         4.3458381752        7.0595760374        8.0922012664
  H         3.3858301358        4.5763455039        8.8245432697
  H         6.7029822902        1.4321155988        7.5393071993
  H         5.6240139575        3.6684822416        4.3754963303
  H         5.9364643725        4.3012271207        1.9861594391
  H         1.6615159352        3.9168523568        1.4108320753
  H         9.0020467275        2.4854653912       15.2313073061
  H         4.8136136809        3.1647075557       14.6153724155
  H         5.3135590153        3.9285220780       12.3163610164
  N         3.9080303580        4.5830779923        0.1452934879
  N         6.7185158097        2.2604730606       16.3793126398
  O         7.8516038812        4.8560775253        7.8783538205
  O         7.5934768433        5.2395981404       10.7932223749
  O         4.3472991563        1.1332502041        7.8862963984
  O         2.2907755110        2.9381733145        6.3351019770
  O         2.0975460387        1.1601566759        8.4686236841
  O         4.5586113262        3.5088674242        6.3879877407
  O         5.5988486695        4.7889215655        8.4780903484
  O         7.9902882779        3.1366265286       10.1514638246
  O         3.3459055440        3.6814909489        8.7378399919
  O         6.7130953499        2.3337729388        7.7862302328
  O         5.1009775758        2.3782144955       10.0649064585
  C         5.5630652888        1.2558241763       10.6801681637
  H         5.3490080332        0.3301076271       10.1053989645
  H         5.1227265295        1.0570902607       11.7277651577
  H         6.6554065232        1.2645509767       10.7949484490
  H         4.1378702572        2.6053242698       10.4607047036
      50
 i =      297, E =      -412.8656257079
 Al         8.3593763875        3.0626490197        8.2610149392
 Al         4.9977445479        2.9997089571        8.1186182467
  C         6.7056146233        5.3825025570        8.1995281013
  C         7.6780564550        4.0682069618       10.9983704252
  C         3.2632296616        0.5440702443        8.1635737677
  C         3.4420747676        3.3057035609        5.7855431273
  C         3.4793314116        3.5565556524        4.2767101796
  C         4.7342577510        3.8489294719        3.7272721019
  C         4.8786519783        4.1486062517        2.3914659349
  C         3.7804150975        4.0997526853        1.5628517082
  C         2.5270162848        3.7906382461        2.0276835002
  C         2.4042610861        3.5675120521        3.3992174360
  C         8.2029127091        2.7194030928       14.5704237752
  C         6.8334280958        2.6804525336       15.0378502084
  C         5.8426002002        3.1733275291       14.2237820425
  C         6.0779584513        3.5910833322       12.9195466695
  C         7.4438920494        3.6161103216       12.4123599290
  C         8.3925401502        3.1982070029       13.3382244489
  C         6.6575119790        6.8534575756        8.1853978545
  C         3.2574461761       -0.9119721399        8.1319518893
  F         7.8064149923        3.3586965488        3.8763935249
  F         3.0645274351        3.3483003792       12.9181668778
  F         5.6019338797       -1.1294788714        8.2468358185
  F         4.3362743021        7.0588219417        8.0894782219
  H         3.3548548970        4.5885626034        8.9505486497
  H         6.7125099536        1.4336755256        7.5915262053
  H         5.6092531899        3.8426564437        4.3850388004
  H         5.8894724486        4.4432839077        1.9915823580
  H         1.6492603784        3.7412046839        1.3796701840
  H         8.9623128208        2.3828888464       15.2234443147
  H         4.7892092837        3.2123585948       14.5884698454
  H         5.3180155786        3.9404751295       12.2787596591
  N         3.8627116835        4.4999628744        0.1191806270
  N         6.6886410146        2.2125851750       16.3536667381
  O         7.8363059121        4.8611763384        7.9014674465
  O         7.6024124123        5.2589487768       10.7891136179
  O         4.3278203054        1.1649443948        7.8656882127
  O         2.3228417159        2.9442713188        6.3320685141
  O         2.1010830319        1.1585189474        8.4658454972
  O         4.5712342672        3.6105296272        6.3921363155
  O         5.6036549918        4.7987486942        8.4855415157
  O         7.9776877536        3.1323453250       10.1549623729
  O         3.3421615099        3.6871592024        8.7328054594
  O         6.7026642869        2.3591781671        7.7835779692
  O         5.0949305292        2.3876578753       10.0693199693
  C         5.6247101074        1.2107062430       10.6053667078
  H         5.2590171797        0.3118332883       10.0540292589
  H         5.3241742883        1.0760060164       11.7078194070
  H         6.7310746653        1.2386837727       10.5449484490
  H         4.0946333297        2.4746658193       10.3815343270
      50
 i =      298, E =      -412.8878048366
 Al         8.3644362314        3.0483254960        8.2643521815
 Al         4.9976887603        2.9635758245        8.1216663042
  C         6.7067525296        5.3671754385        8.1958494150
  C         7.6714175644        4.0623976033       10.9975876216
  C         3.2699945367        0.5369744308        8.1850908521
  C         3.4223805985        3.2214181817        5.7729500920
  C         3.4816507486        3.4811943415        4.2740080924
  C         4.7498697309        3.7327505991        3.7266950737
  C         4.9112736449        4.0713295526        2.4020656538
  C         3.8066296479        4.1404153231        1.5820051983
  C         2.5385000338        3.8751340604        2.0516267957
  C         2.4047194222        3.5698342478        3.4022233239
  C         8.2226134269        2.7723850382       14.5901061536
  C         6.8692051467        2.7153853561       15.0634072744
  C         5.8583051871        3.1721536569       14.2446261085
  C         6.0896591088        3.5896951733       12.9403831972
  C         7.4386869055        3.6189495089       12.4197161533
  C         8.4065426138        3.2244124518       13.3365983949
  C         6.6564883341        6.8432035182        8.1948050217
  C         3.2647296781       -0.9275705120        8.1520392314
  F         7.8114483830        3.3624129672        3.8697667379
  F         3.0636903209        3.3483391198       12.9162827226
  F         5.6029771516       -1.1314327753        8.2458535427
  F         4.3304499608        7.0551190179        8.0899656511
  H         3.3811782553        4.6001679591        8.8347333373
  H         6.7121417206        1.4313998421        7.5427834796
  H         5.6228476881        3.6628516214        4.3781167115
  H         5.9239240772        4.2984623538        1.9960704538
  H         1.6632124846        3.9197538781        1.4094601948
  H         9.0088894037        2.4778602735       15.2392393286
  H         4.8158803864        3.1737214351       14.6151364731
  H         5.3067299336        3.9298965770       12.3104595158
  N         3.8932012869        4.5623129824        0.1624657660
  N         6.7276619124        2.2643229479       16.3862886602
  O         7.8369267224        4.8535082129        7.8962943888
  O         7.5896657562        5.2586763591       10.7859369173
  O         4.3485679578        1.1392816266        7.8976232595
  O         2.2965643570        2.9402091622        6.3302850330
  O         2.1211845712        1.1482601704        8.4669152089
  O         4.5577116522        3.4087374869        6.3666237752
  O         5.6084959929        4.7726045817        8.4740921997
  O         7.9745630542        3.1253507417       10.1546941545
  O         3.3502822187        3.6739463380        8.7231241976
  O         6.7035868396        2.3522442668        7.7847127508
  O         5.0892725422        2.3940184228       10.0799545030
  C         5.5698920824        1.2234182186       10.6937704651
  H         5.3396930058        0.3254683922       10.0976900126
  H         5.1245270583        1.0677388958       11.7163929543
  H         6.6579358536        1.2781644384       10.7949484490
  H         4.1535555627        2.6033715029       10.4461014584
      50
 i =      299, E =      -412.9102846574
 Al         8.3676735234        3.0384098163        8.2631089578
 Al         4.9685030358        3.0087954013        8.1532238062
  C         6.6955402889        5.3806591456        8.2103594234
  C         7.6931943134        4.0718260810       11.0158801739
  C         3.2408717564        0.5792187026        8.1529077055
  C         3.4109549342        3.2885366443        5.7669671035
  C         3.4785408171        3.5648316424        4.3033772216
  C         4.7466398737        3.8569129127        3.7443525088
  C         4.9159060272        4.1702194435        2.4095401569
  C         3.8140852904        4.1256017026        1.5261840303
  C         2.5495514218        3.8094279410        2.0419495382
  C         2.3935460942        3.5750068304        3.4063830702
  C         8.1848271207        2.7636374389       14.6072311331
  C         6.8731683481        2.7126784636       15.0718990109
  C         5.8225657118        3.1333793632       14.2303255618
  C         6.1099427132        3.5547939611       12.9395592465
  C         7.4170156738        3.5781877480       12.4327902074
  C         8.4308078876        3.2084734053       13.3183849571
  C         6.6350979876        6.8812607265        8.1774697887
  C         3.2642375123       -0.9256945276        8.1336289238
  F         7.8339376284        3.3783494686        3.8303263125
  F         3.0211045189        3.3337475396       12.9371316403
  F         5.6063030081       -1.1134824226        8.2208176316
  F         4.2930673463        7.0501487446        8.0838636723
  H         3.3324486923        4.6215518363        8.9985144771
  H         6.7216431825        1.4414185275        7.6135913390
  H         5.6052222002        3.8453124195        4.4172551716
  H         5.8808745643        4.4476153051        2.0371100820
  H         1.6848538113        3.7645304436        1.3805911098
  H         9.0107215267        2.4554646652       15.2456637508
  H         4.8152076272        3.1631307659       14.6067904960
  H         5.2964394044        3.8980065830       12.3044548757
  N         3.8776670219        4.4483899117        0.1661799979
  N         6.7408088643        2.2553856421       16.3966883701
  O         7.8066251152        4.8523207631        7.9455273740
  O         7.6010045115        5.2845653403       10.7747673090
  O         4.3341934659        1.1724810247        7.8969625362
  O         2.3180100668        2.9438203046        6.3196736938
  O         2.1599086905        1.1294752701        8.4590539392
  O         4.5463274427        3.4000727958        6.3739020281
  O         5.6254217013        4.7630018946        8.4813784418
  O         7.9414312842        3.1018043653       10.1636797657
  O         3.3476497237        3.6763045464        8.6912916213
  O         6.6712582225        2.4063013208        7.7836947029
  O         5.0713398522        2.4076920118       10.1076475386
  C         5.6446747467        1.1617808592       10.6178666962
  H         5.3109560993        0.3375496524        9.9748825379
  H         5.3105708430        1.0320405741       11.6518217714
  H         6.7312896353        1.2989609032       10.5754138529
  H         4.2009859989        2.5392956259       10.4522756964
      50
 i =      300, E =      -412.9164521445
 Al         8.3765455595        3.0375336688        8.2630741664
 Al         4.9863564014        2.9637537967        8.1416363010
  C         6.7017798924        5.3603604705        8.1975242232
  C         7.6793857524        4.0633125135       11.0042107991
  C         3.2627087618        0.5623196521        8.1743468434
  C         3.3960759236        3.2088359676        5.7621789761
  C         3.4787161200        3.4687947378        4.2879747788
  C         4.7543262531        3.7030786511        3.7233816163
  C         4.9292353148        4.0528011574        2.4003774229
  C         3.8146843572        4.1584936663        1.5541585780
  C         2.5388686559        3.8931880375        2.0620163160
  C         2.3926178133        3.5697287240        3.4056161869
  C         8.1966244099        2.7931491019       14.6030835102
  C         6.8766752448        2.7373612933       15.0702555702
  C         5.8283967050        3.1604183750       14.2328485561
  C         6.1087291624        3.5745849977       12.9379730746
  C         7.4219722514        3.5929711697       12.4234463120
  C         8.4328577499        3.2342917560       13.3144519274
  C         6.6494318068        6.8562407599        8.1948643217
  C         3.2818289812       -0.9335221159        8.1536559666
  F         7.8248628236        3.3729874757        3.8473377624
  F         3.0422467466        3.3387104341       12.9211978142
  F         5.6122913829       -1.1249715034        8.2297796813
  F         4.3143078738        7.0538399313        8.0886144103
  H         3.3879240194        4.6121360538        8.8266863236
  H         6.7254180174        1.4387956380        7.5365867329
  H         5.6215710205        3.6209951015        4.3763375415
  H         5.9125078756        4.2738741832        2.0087739770
  H         1.6700886993        3.9533283658        1.4152173135
  H         9.0150077262        2.4880055435       15.2500530853
  H         4.8151450066        3.1679214040       14.6069464059
  H         5.2959349684        3.9090168191       12.2933186301
  N         3.8799054685        4.5466572483        0.1895232080
  N         6.7387970761        2.2917342769       16.3989280555
  O         7.8234815210        4.8504315177        7.9041576001
  O         7.5783288523        5.2756976441       10.7801332694
  O         4.3586635119        1.1450721686        7.9031139207
  O         2.2884188028        2.9369771395        6.3248729723
  O         2.1631453275        1.1322806486        8.4648645347
  O         4.5319221374        3.2896112291        6.3585664847
  O         5.6228672832        4.7469869855        8.4695860109
  O         7.9543139892        3.1112429831       10.1525078750
  O         3.3594063097        3.6568130296        8.7094633016
  O         6.6926700333        2.3775581737        7.7850621987
  O         5.0681116858        2.4208702364       10.1025339663
  C         5.5482021789        1.1905059838       10.7136880921
  H         5.2936013274        0.3256157088       10.0943275284
  H         5.0946321475        1.0842404660       11.7017746256
  H         6.6349962123        1.2797382733       10.8115693829
  H         4.1494627224        2.6075703228       10.4192136832
      50
 i =      301, E =      -412.9170395608
 Al         8.3678862603        3.0410718311        8.2667240972
 Al         4.9802677291        2.9774972793        8.1397993247
  C         6.6999607305        5.3675253078        8.1976917913
  C         7.6847415363        4.0648907931       11.0086211750
  C         3.2540093328        0.5680868197        8.1699417494
  C         3.3977316123        3.2302609644        5.7675186726
  C         3.4750673937        3.4982463807        4.2956519691
  C         4.7506597304        3.7471001030        3.7371172636
  C         4.9252723842        4.0846996836        2.4106299848
  C         3.8127330566        4.1505818266        1.5560758451
  C         2.5377617995        3.8737296431        2.0612043251
  C         2.3879412199        3.5754184834        3.4103772500
  C         8.2003985441        2.7811267920       14.6056511937
  C         6.8790014779        2.7263310599       15.0741731759
  C         5.8318012452        3.1542030690       14.2375819527
  C         6.1063084579        3.5743477292       12.9439654939
  C         7.4216063899        3.5926458573       12.4282945976
  C         8.4324423560        3.2265863361       13.3180151345
  C         6.6460462813        6.8631108944        8.1930730601
  C         3.2775530445       -0.9283641866        8.1487417325
  F         7.8204095376        3.3722924170        3.8522634482
  F         3.0438269250        3.3406173797       12.9246396567
  F         5.6109582678       -1.1232814432        8.2346301415
  F         4.3140331771        7.0518928744        8.0884303281
  H         3.3699751160        4.6183267325        8.8855238900
  H         6.7154956528        1.4290414565        7.5590864488
  H         5.6159576228        3.6846643465        4.3959137577
  H         5.9090966087        4.3175790004        2.0218885957
  H         1.6727567678        3.9097243868        1.4059162492
  H         9.0182869660        2.4798910225       15.2535042166
  H         4.8171819573        3.1662642761       14.6148110930
  H         5.2912569345        3.9083736613       12.3043525813
  N         3.8812528099        4.5281296126        0.1859799793
  N         6.7432191886        2.2796550294       16.4023130232
  O         7.8190656163        4.8516756290        7.9093029535
  O         7.5889932999        5.2758724357       10.7775871418
  O         4.3493877283        1.1512109292        7.8988918513
  O         2.2905958004        2.9419854154        6.3243848063
  O         2.1511634009        1.1351118842        8.4649877116
  O         4.5352999811        3.3259472691        6.3630583305
  O         5.6216357203        4.7551541403        8.4724836839
  O         7.9531371274        3.1088551377       10.1565434779
  O         3.3513139046        3.6621683892        8.7117241431
  O         6.6885770011        2.3754788538        7.7824881532
  O         5.0749581315        2.4114633912       10.0984978915
  C         5.5883211646        1.1800701059       10.6935357830
  H         5.3240596486        0.3188136152       10.0772731818
  H         5.1639982335        1.0704130022       11.6991062585
  H         6.6715497115        1.2846997641       10.7564972352
  H         4.1707081995        2.5873424614       10.4320213207
      50
 i =      302, E =      -412.9171760946
 Al         8.3680353902        3.0409815966        8.2665406130
 Al         4.9795297269        2.9771358805        8.1405017324
  C         6.6990121721        5.3693668302        8.2005249336
  C         7.6866361100        4.0656378081       11.0084747927
  C         3.2512129347        0.5689269681        8.1664722892
  C         3.3967868695        3.2373810887        5.7682737491
  C         3.4746659878        3.5053726271        4.2973725314
  C         4.7503147941        3.7555086048        3.7382744364
  C         4.9236444445        4.0894520983        2.4099426562
  C         3.8108383615        4.1478954195        1.5522804857
  C         2.5359039216        3.8700085828        2.0594414977
  C         2.3874839405        3.5755936634        3.4101983390
  C         8.2006922918        2.7795404710       14.6068388719
  C         6.8796365396        2.7259154294       15.0731472905
  C         5.8319168359        3.1544566390       14.2356037507
  C         6.1091642549        3.5751631503       12.9428956782
  C         7.4230681730        3.5919613542       12.4283378165
  C         8.4335875791        3.2267463563       13.3188103101
  C         6.6450141583        6.8650162368        8.1919754624
  C         3.2760233942       -0.9294600299        8.1470663403
  F         7.8220572675        3.3716888807        3.8518498450
  F         3.0423419883        3.3412209580       12.9271303940
  F         5.6107321807       -1.1223126223        8.2354728909
  F         4.3113271332        7.0499973628        8.0875219940
  H         3.3687583594        4.6198987534        8.8933215269
  H         6.7154409438        1.4259264286        7.5652861729
  H         5.6151171210        3.6973978887        4.3987256439
  H         5.9058476104        4.3209506486        2.0213140228
  H         1.6698951422        3.8996259132        1.4041994630
  H         9.0202736035        2.4796032924       15.2543915564
  H         4.8186491649        3.1672067418       14.6127625471
  H         5.2949350638        3.9132578102       12.3025058842
  N         3.8792446593        4.5216632548        0.1833967405
  N         6.7423925481        2.2767671286       16.4010478230
  O         7.8166569446        4.8513159478        7.9143892631
  O         7.5892756686        5.2775051467       10.7776489834
  O         4.3464845736        1.1515124452        7.8923230164
  O         2.2912462180        2.9431578047        6.3255572475
  O         2.1507574279        1.1332882303        8.4646528979
  O         4.5330581860        3.3302911191        6.3654314745
  O         5.6212640627        4.7572750015        8.4736165303
  O         7.9529000454        3.1077621309       10.1578656754
  O         3.3521743278        3.6621467829        8.7102383531
  O         6.6884754400        2.3750843799        7.7826860435
  O         5.0764716123        2.4063279867       10.0980824748
  C         5.5916434869        1.1742279955       10.6950232959
  H         5.3150206069        0.3110373103       10.0827961168
  H         5.1724477377        1.0760913646       11.7010324711
  H         6.6779706446        1.2786449146       10.7453658500
  H         4.1740432019        2.5772449996       10.4301468048
      50
 i =      303, E =      -412.9173262333
 Al         8.3696040205        3.0409569521        8.2664888549
 Al         4.9803380803        2.9766520225        8.1397662198
  C         6.6985069302        5.3686706537        8.2028167609
  C         7.6877069354        4.0679236435       11.0090046943
  C         3.2517983802        0.5694028244        8.1602034014
  C         3.3962314027        3.2455221645        5.7701637604
  C         3.4737147567        3.5121097870        4.2992387876
  C         4.7488127150        3.7647616057        3.7397619825
  C         4.9214480776        4.0960352282        2.4105668586
  C         3.8083612257        4.1486424048        1.5515857735
  C         2.5340032627        3.8682658399        2.0591881534
  C         2.3867146530        3.5765185759        3.4110963164
  C         8.1996298331        2.7748125109       14.6052983381
  C         6.8790168836        2.7221227469       15.0715913788
  C         5.8314245334        3.1530109037       14.2343419736
  C         6.1103281494        3.5744628805       12.9422223920
  C         7.4240659791        3.5917364464       12.4281642405
  C         8.4338462634        3.2254459129       13.3181485177
  C         6.6452898305        6.8647173838        8.1908714648
  C         3.2767010764       -0.9296454063        8.1443450500
  F         7.8219814670        3.3709601445        3.8523328780
  F         3.0425167891        3.3415925472       12.9276737037
  F         5.6104896209       -1.1223107249        8.2354963883
  F         4.3113823952        7.0496333215        8.0866816588
  H         3.3697895095        4.6195583690        8.8993081718
  H         6.7180035840        1.4254942418        7.5649503257
  H         5.6134590103        3.7090919280        4.4010102446
  H         5.9026095944        4.3298479671        2.0221193858
  H         1.6671404323        3.8924627174        1.4043041355
  H         9.0190573025        2.4714635250       15.2525151441
  H         4.8183936301        3.1676126178       14.6111554581
  H         5.2971915837        3.9158928361       12.3008955590
  N         3.8762174343        4.5203155552        0.1826123131
  N         6.7398935119        2.2724550920       16.3994320453
  O         7.8164157473        4.8509441442        7.9195892660
  O         7.5898153746        5.2802428779       10.7784791244
  O         4.3446050302        1.1530936572        7.8768840287
  O         2.2917192857        2.9444892360        6.3268451932
  O         2.1533067593        1.1333913007        8.4648566766
  O         4.5306354677        3.3431148532        6.3688738018
  O         5.6210921142        4.7556542422        8.4740643403
  O         7.9537168274        3.1090283812       10.1584699292
  O         3.3530250677        3.6615099960        8.7098895140
  O         6.6893019466        2.3752783686        7.7824479623
  O         5.0772074267        2.4059692902       10.0970850061
  C         5.5960110970        1.1726579312       10.6915623799
  H         5.3096605857        0.3095682410       10.0827396352
  H         5.1872009135        1.0801994777       11.7017663088
  H         6.6835924234        1.2763696440       10.7301629502
  H         4.1722459235        2.5710041546       10.4246237772
      50
 i =      304, E =      -412.7988053064
 Al         8.3380302048        3.0568847265        8.2696154245
 Al         4.9612082097        3.0365954952        8.1069383188
  C         6.7290766276        5.3937251434        8.1756532955
  C         7.6566757769        4.0237339953       10.9949158342
  C         3.2968357492        0.5771498430        8.1213544758
  C         3.3943610457        3.2083449510        5.7742196524
  C         3.4656548826        3.5146553210        4.2738286232
  C         4.7426635469        3.7532028919        3.7347789953
  C         4.8784528569        4.1020230600        2.4134837991
  C         3.8149615137        4.1411930804        1.5835402483
  C         2.5577644085        3.8435523096        2.0682254672
  C         2.3990956069        3.6113354498        3.3909356421
  C         8.2315519230        2.7540350447       14.6215864902
  C         6.8197873569        2.7216350057       15.0741376016
  C         5.8545521987        3.1584904835       14.2047203173
  C         6.0465269257        3.6179476162       12.9103863171
  C         7.4200469479        3.6296588808       12.4275314901
  C         8.4123281298        3.1870857886       13.3573235714
  C         6.6260017385        6.8775134233        8.2281878371
  C         3.2408175601       -0.8972591935        8.1278246892
  F         7.7892158796        3.4354306122        3.8346559259
  F         3.0468883748        3.3090507167       12.8999325449
  F         5.6285802819       -1.1162884575        8.2250724328
  F         4.3169866118        7.0886491980        8.1561894687
  H         3.3682953676        4.5475919191        8.8923352539
  H         6.6892754011        1.4432757072        7.5743859037
  H         5.6082449069        3.7348416389        4.3794038930
  H         5.9197793972        4.3487460519        2.0080042002
  H         1.7053796464        3.8980341593        1.4135727140
  H         9.0062284847        2.4954259473       15.2414562190
  H         4.8088730533        3.1724682877       14.6167890170
  H         5.3002027527        3.8919089235       12.3289325898
  N         3.9321047111        4.5281648899        0.1350341639
  N         6.7695040256        2.2834814182       16.4096538487
  O         7.8633138216        4.8687334327        7.7417665297
  O         7.5961585805        5.2001783262       10.7585197185
  O         4.3763764461        1.1495715605        7.6268840287
  O         2.2839700094        2.9164743216        6.2874648796
  O         2.1150983842        1.1458216189        8.4802067376
  O         4.5668415116        3.5628831266        6.3505635162
  O         5.6186486633        4.8482732442        8.5034288468
  O         7.9441655203        3.1173098034       10.1362582870
  O         3.3089233682        3.7108453660        8.7864296892
  O         6.6728431999        2.3286537439        7.7778482898
  O         5.0763830906        2.3492544270       10.0439543345
  C         5.5833878516        1.2246293426       10.6457215654
  H         5.3164020438        0.2977945631       10.1115612038
  H         5.1831498254        1.0310992830       11.7088075632
  H         6.6482794046        1.2520474443       10.7247568846
  H         4.1654495634        2.5743860470       10.4545867459
      50
 i =      305, E =      -412.9066611344
 Al         8.4009905359        3.0389568084        8.2689579361
 Al         4.9997112061        2.9520073586        8.1158623393
  C         6.6951226531        5.3423096139        8.2436910325
  C         7.6958308262        4.1105050949       11.0147447366
  C         3.2807868427        0.5670789664        8.0500984909
  C         3.3769072311        3.3524087873        5.8044959833
  C         3.4518847810        3.6040048608        4.3271950557
  C         4.7212766087        3.8773943003        3.7645222957
  C         4.8783149655        4.1751344920        2.4242381013
  C         3.7658079630        4.1792161762        1.5580535590
  C         2.5000868595        3.8743494242        2.0687442198
  C         2.3727331644        3.6036635377        3.4265345843
  C         8.1890022171        2.6864973449       14.5767810234
  C         6.8588067561        2.6549279327       15.0461855157
  C         5.8308481065        3.1269659014       14.2082671297
  C         6.1197967714        3.5745377189       12.9268140316
  C         7.4410508413        3.6015330103       12.4238328599
  C         8.4367095070        3.1975910885       13.3108384197
  C         6.6461169323        6.8447812044        8.1834473000
  C         3.2865498700       -0.9382066812        8.0969717702
  F         7.8114404090        3.3726995007        3.8574966450
  F         3.0480039536        3.3410515107       12.9289136498
  F         5.6072629705       -1.1280712110        8.2345417121
  F         4.3151756297        7.0495289163        8.0859523138
  H         3.4091029713        4.5962498642        8.9420405476
  H         6.7861827761        1.4306451422        7.4986261197
  H         5.5827458117        3.8382190997        4.4335348411
  H         5.8599729733        4.4259978498        2.0344876637
  H         1.6184561492        3.8420185643        1.4249383426
  H         8.9987138989        2.3199676068       15.2041992528
  H         4.8139582177        3.1647804655       14.5839247011
  H         5.3405747328        3.9637544320       12.2806127313
  N         3.8349744476        4.5339385006        0.1749081678
  N         6.7018481748        2.1995184213       16.3765427582
  O         7.8287716365        4.8422393780        7.9917665297
  O         7.5890385218        5.3220425275       10.7939467567
  O         4.3283047703        1.1660002547        7.5609769722
  O         2.2844836024        2.9605898732        6.3427329622
  O         2.2047063280        1.1340726644        8.4731468928
  O         4.4880638647        3.5662186798        6.4241769372
  O         5.6191857315        4.7150030352        8.4803509205
  O         7.9718607035        3.1430255216       10.1653200233
  O         3.3685299677        3.6525561228        8.7168586253
  O         6.7137673211        2.3594880555        7.7783153056
  O         5.0909200514        2.4124047788       10.0707396266
  C         5.6382796630        1.1832258251       10.6590014219
  H         5.2267954009        0.3067370674       10.1173992119
  H         5.3662440701        1.1782098657       11.7317039910
  H         6.7388513176        1.2579990761       10.5519934333
  H         4.1335872194        2.5164964072       10.3165293621
      50
 i =      306, E =      -412.9170852297
 Al         8.3768030202        3.0398948817        8.2672459314
 Al         4.9847457504        2.9714547324        8.1343216326
  C         6.6992181611        5.3628565848        8.2105078588
  C         7.6898067420        4.0744394875       11.0107526779
  C         3.2601800403        0.5687009076        8.1320198528
  C         3.3919976594        3.2644612143        5.7760527253
  C         3.4695401313        3.5251290413        4.3041721419
  C         4.7442087850        3.7796759190        3.7436459472
  C         4.9156577193        4.1093822164        2.4138024097
  C         3.8010522741        4.1605475333        1.5543852704
  C         2.5278562998        3.8761903577        2.0625333533
  C         2.3836097784        3.5830452314        3.4147939557
  C         8.1978423462        2.7652495784       14.6013810713
  C         6.8776215788        2.7129523758       15.0679866434
  C         5.8305435810        3.1467426217       14.2307731416
  C         6.1131011438        3.5732220597       12.9408265764
  C         7.4268954114        3.5923320459       12.4276938015
  C         8.4353271559        3.2220615165       13.3159792667
  C         6.6472518658        6.8599174898        8.1893839862
  C         3.2817540628       -0.9316215955        8.1320153183
  F         7.8198863742        3.3707897224        3.8532225025
  F         3.0439725459        3.3419069092       12.9270235750
  F         5.6104397020       -1.1237339760        8.2351938980
  F         4.3136811321        7.0502134176        8.0856832169
  H         3.3821736532        4.6177802827        8.8924047331
  H         6.7290319695        1.4254195032        7.5530444938
  H         5.6093920529        3.7226492556        4.4047109320
  H         5.8953851888        4.3473700678        2.0243935667
  H         1.6575547056        3.8938995882        1.4111104227
  H         9.0172397801        2.4540304504       15.2471913142
  H         4.8171527094        3.1630490064       14.6061903684
  H         5.3032659720        3.9242752915       12.2973445161
  N         3.8686040584        4.5301286464        0.1850250701
  N         6.7334152336        2.2644305645       16.3965415940
  O         7.8197725141        4.8484568992        7.9368595420
  O         7.5892750189        5.2871075980       10.7812564126
  O         4.3418656022        1.1556742776        7.8109769722
  O         2.2901901376        2.9478477023        6.3310411748
  O         2.1706896332        1.1345316251        8.4634844014
  O         4.5211309229        3.3805372315        6.3777322566
  O         5.6220645640        4.7460909535        8.4744396420
  O         7.9579120255        3.1144589834       10.1594335076
  O         3.3566687444        3.6575392956        8.7111335832
  O         6.6931898236        2.3727318122        7.7825578365
  O         5.0761675240        2.4045971245       10.0917327146
  C         5.5995557074        1.1699489900       10.6870911181
  H         5.2925887195        0.3058410247       10.0903014540
  H         5.2155256670        1.0931601213       11.7068898763
  H         6.6882062860        1.2667583866       10.7042301912
  H         4.1642880625        2.5643021017       10.4057437168
      50
 i =      307, E =      -412.9172378916
 Al         8.3683303195        3.0414232028        8.2642543032
 Al         4.9803892957        2.9751884107        8.1407977561
  C         6.7005630520        5.3686435495        8.1948770250
  C         7.6831487993        4.0588015193       11.0056002978
  C         3.2579670820        0.5695743881        8.1575054233
  C         3.3974196770        3.2282014112        5.7689917476
  C         3.4757966904        3.4928965381        4.2972756530
  C         4.7534603048        3.7360468305        3.7377732441
  C         4.9283612243        4.0763374111        2.4116866732
  C         3.8142429138        4.1536292987        1.5572057113
  C         2.5377885973        3.8807773539        2.0636952687
  C         2.3881587965        3.5758318355        3.4114651912
  C         8.2043927494        2.7961265985       14.6115445964
  C         6.8839834174        2.7350533458       15.0773446784
  C         5.8338497322        3.1504023734       14.2354973017
  C         6.1084170612        3.5705106105       12.9423362588
  C         7.4219946572        3.5907256559       12.4273592996
  C         8.4342091717        3.2329327293       13.3192390361
  C         6.6467268957        6.8637929267        8.1927284923
  C         3.2797694271       -0.9291288654        8.1465251056
  F         7.8205539821        3.3745996850        3.8512960035
  F         3.0431079324        3.3405503651       12.9246339566
  F         5.6129460079       -1.1225623853        8.2350939790
  F         4.3130373598        7.0530029691        8.0913337390
  H         3.3777782527        4.6263413808        8.8690473541
  H         6.7090396989        1.4227089983        7.5653133751
  H         5.6195615437        3.6694473721        4.3953651188
  H         5.9122220952        4.3008215138        2.0202449425
  H         1.6708846691        3.9237852249        1.4107301708
  H         9.0259709062        2.5099791547       15.2633514998
  H         4.8193924429        3.1517176205       14.6097419065
  H         5.2891463250        3.8970729713       12.2985396021
  N         3.8834686778        4.5364671608        0.1900016173
  N         6.7475459539        2.2897101320       16.4069730868
  O         7.8177399228        4.8521664338        7.8937392506
  O         7.5831736113        5.2708941717       10.7745649092
  O         4.3507511403        1.1497572260        7.8613685768
  O         2.2894669047        2.9387704736        6.3252027349
  O         2.1602899230        1.1344912726        8.4675177081
  O         4.5347165157        3.3182678270        6.3642657741
  O         5.6218528247        4.7580320091        8.4730367775
  O         7.9509700650        3.1017162116       10.1548759141
  O         3.3516879000        3.6629780384        8.7128820123
  O         6.6873148588        2.3734796428        7.7822547534
  O         5.0695487682        2.4029932757       10.0952402410
  C         5.5663843423        1.1687896839       10.7041740227
  H         5.2893424290        0.3006378095       10.0975983763
  H         5.1375688094        1.0802348390       11.7070385253
  H         6.6539913203        1.2566995164       10.7676326108
  H         4.1611640427        2.5821841233       10.4192656652
      50
 i =      308, E =      -412.9174036306
 Al         8.3713435252        3.0406278977        8.2651935849
 Al         4.9822615117        2.9729314009        8.1366904915
  C         6.6999392584        5.3664462310        8.1970930017
  C         7.6846564531        4.0656757339       11.0075240992
  C         3.2598819601        0.5691608401        8.1464337286
  C         3.3960919184        3.2389502152        5.7694546762
  C         3.4739004969        3.5044459446        4.2980445714
  C         4.7503349515        3.7510449362        3.7385005705
  C         4.9228394375        4.0885044436        2.4110628705
  C         3.8084569825        4.1583850161        1.5554296968
  C         2.5335116090        3.8814649621        2.0629331352
  C         2.3867296567        3.5792945033        3.4121268486
  C         8.2005991964        2.7808974039       14.6056842835
  C         6.8798185829        2.7250538600       15.0718005559
  C         5.8316726459        3.1495076779       14.2326270107
  C         6.1091812874        3.5728952127       12.9408157420
  C         7.4233550644        3.5916333531       12.4270010303
  C         8.4337942235        3.2273312282       13.3168946054
  C         6.6463220686        6.8620730977        8.1908341702
  C         3.2797828591       -0.9303377804        8.1398590512
  F         7.8212811336        3.3719500554        3.8522210473
  F         3.0430444180        3.3413950672       12.9261415379
  F         5.6108592240       -1.1233368381        8.2353645571
  F         4.3131850366        7.0517157178        8.0881217482
  H         3.3789962612        4.6227844528        8.8656613932
  H         6.7181918571        1.4265264097        7.5519042436
  H         5.6161127472        3.6863532972        4.3972443195
  H         5.9048964961        4.3176076791        2.0205904072
  H         1.6649359959        3.9160062099        1.4112894389
  H         9.0220557261        2.4856674312       15.2539651161
  H         4.8181202256        3.1575477686       14.6081627722
  H         5.2952347889        3.9109208665       12.2986430563
  N         3.8770020485        4.5356795341        0.1874159891
  N         6.7412869223        2.2784725073       16.4012581550
  O         7.8170172056        4.8506996436        7.9000847937
  O         7.5844201863        5.2773004754       10.7772295879
  O         4.3476608510        1.1522225136        7.8404058944
  O         2.2907415294        2.9425880726        6.3266084794
  O         2.1661715628        1.1350645663        8.4656173518
  O         4.5313145425        3.3364645796        6.3661958418
  O         5.6230515909        4.7524423723        8.4731655161
  O         7.9548077190        3.1092618000       10.1563453590
  O         3.3539268978        3.6603475179        8.7111628236
  O         6.6907406925        2.3722911044        7.7834923517
  O         5.0711066891        2.4060143667       10.0937442868
  C         5.5776375565        1.1724572359       10.6981690089
  H         5.2925483672        0.3072208359       10.0933941372
  H         5.1617145802        1.0849918496       11.7054519121
  H         6.6647806598        1.2651771949       10.7489472454
  H         4.1655849744        2.5836116375       10.4168739603
      50
 i =      309, E =      -412.9174807734
 Al         8.3723704902        3.0411037722        8.2656452974
 Al         4.9819654537        2.9768756405        8.1346754809
  C         6.6990359491        5.3664722905        8.2002082320
  C         7.6871839715        4.0721542419       11.0089368266
  C         3.2573159886        0.5698093232        8.1435808316
  C         3.3960373042        3.2562426961        5.7712536412
  C         3.4727391438        3.5225080178        4.3005254051
  C         4.7468975454        3.7781055594        3.7416803872
  C         4.9182283081        4.1092266486        2.4121228575
  C         3.8047778271        4.1582553605        1.5533475091
  C         2.5318370051        3.8732218528        2.0608140263
  C         2.3860912526        3.5813903742        3.4131642110
  C         8.1974897171        2.7648502072       14.6002386130
  C         6.8761019064        2.7141097876       15.0665684581
  C         5.8300507998        3.1495684575       14.2308899037
  C         6.1107015224        3.5747679505       12.9399962630
  C         7.4253379141        3.5921105357       12.4268107761
  C         8.4340291327        3.2211828929       13.3150333552
  C         6.6456781099        6.8624461230        8.1881399995
  C         3.2784554347       -0.9297525023        8.1344671928
  F         7.8225204166        3.3690491246        3.8529951861
  F         3.0432545621        3.3420115870       12.9269860805
  F         5.6094907675       -1.1237925209        8.2351194255
  F         4.3128383788        7.0500157674        8.0844249252
  H         3.3738982754        4.6193428191        8.8874655194
  H         6.7217219970        1.4298953139        7.5499391202
  H         5.6111108157        3.7226888698        4.4038614237
  H         5.8986690996        4.3456673995        2.0244731162
  H         1.6634638340        3.8909234495        1.4074759977
  H         9.0174940109        2.4565862606       15.2451346227
  H         4.8172952907        3.1658827856       14.6085923065
  H         5.3009712346        3.9227964993       12.2991653507
  N         3.8726297629        4.5270199521        0.1831359978
  N         6.7364063005        2.2641433187       16.3947112305
  O         7.8158141974        4.8504053432        7.9110246182
  O         7.5886474701        5.2839690773       10.7791855261
  O         4.3437272738        1.1556088518        7.8452480737
  O         2.2937790647        2.9461196720        6.3272347442
  O         2.1641810561        1.1360982815        8.4631664595
  O         4.5283490585        3.3678868463        6.3712313090
  O         5.6234503702        4.7513144551        8.4744534394
  O         7.9568653525        3.1151778601       10.1572409574
  O         3.3548400306        3.6599128698        8.7105800289
  O         6.6913545905        2.3741807125        7.7842256302
  O         5.0752348283        2.4052952638       10.0921716379
  C         5.6005548673        1.1734385387       10.6836156002
  H         5.3029985216        0.3121869610       10.0810121004
  H         5.2075696246        1.0846723923       11.7011651837
  H         6.6874290090        1.2742730802       10.7088268209
  H         4.1716109748        2.5719561410       10.4194248904
      50
 i =      310, E =      -412.9175623548
 Al         8.3713755481        3.0404057803        8.2644754415
 Al         4.9816999715        2.9763704034        8.1365462314
  C         6.7000800142        5.3672422356        8.1990949205
  C         7.6861977735        4.0677149856       11.0076915007
  C         3.2572099595        0.5697330394        8.1488753047
  C         3.3966455489        3.2474264592        5.7704673308
  C         3.4738359045        3.5130351136        4.2995773280
  C         4.7490207711        3.7648964362        3.7403339815
  C         4.9219011608        4.0995954258        2.4121003840
  C         3.8080913964        4.1579497924        1.5546554886
  C         2.5341999740        3.8763097226        2.0618150274
  C         2.3867743222        3.5800525785        3.4127173094
  C         8.1999070599        2.7746289482       14.6038461371
  C         6.8791345781        2.7207140238       15.0699938379
  C         5.8318009550        3.1498496676       14.2319949561
  C         6.1104065266        3.5731579741       12.9404383561
  C         7.4245151131        3.5914297834       12.4268005121
  C         8.4345113377        3.2242286136       13.3161023504
  C         6.6461735556        6.8630491648        8.1892939062
  C         3.2787430264       -0.9296485928        8.1382932578
  F         7.8219268474        3.3708078214        3.8523659328
  F         3.0434433234        3.3417743797       12.9264874250
  F         5.6105494327       -1.1231217921        8.2351221781
  F         4.3126061310        7.0505091271        8.0863206718
  H         3.3744934923        4.6213639435        8.8800016551
  H         6.7165007837        1.4275247872        7.5533287597
  H         5.6139382554        3.7057653716        4.4009447026
  H         5.9033694094        4.3328342070        2.0235727094
  H         1.6665986027        3.9019421836        1.4082801234
  H         9.0203184753        2.4741489501       15.2513174522
  H         4.8185106884        3.1615103480       14.6084075254
  H         5.2979803352        3.9146444641       12.2987225815
  N         3.8764795684        4.5322374326        0.1858279239
  N         6.7404520272        2.2727583060       16.3986426604
  O         7.8169314200        4.8508294818        7.9088457419
  O         7.5870105318        5.2798478088       10.7780447585
  O         4.3466983566        1.1531448458        7.8536124942
  O         2.2927754859        2.9431797291        6.3262690431
  O         2.1620657344        1.1350189011        8.4640047341
  O         4.5298105542        3.3526742059        6.3696934560
  O         5.6232482973        4.7539512985        8.4738949323
  O         7.9553246480        3.1107781119       10.1561828793
  O         3.3540091075        3.6604506406        8.7109659867
  O         6.6898034913        2.3737741856        7.7831702638
  O         5.0734501875        2.4039102313       10.0930448710
  C         5.5894728241        1.1713744943       10.6905104222
  H         5.2972540838        0.3076035238       10.0870652191
  H         5.1860045270        1.0833649999       11.7037182475
  H         6.6767557140        1.2672520119       10.7262215986
  H         4.1685190798        2.5748574774       10.4199598272
      50
 i =      311, E =      -412.9175881025
 Al         8.3719969632        3.0399397885        8.2641954419
 Al         4.9821160354        2.9774433427        8.1369043908
  C         6.7012914644        5.3673511400        8.2021852220
  C         7.6861071171        4.0658421621       11.0072890759
  C         3.2588303602        0.5700441553        8.1463653608
  C         3.3961804335        3.2501584045        5.7726267405
  C         3.4734927641        3.5130697762        4.3009983126
  C         4.7490732778        3.7647865614        3.7416177604
  C         4.9225701928        4.1004036806        2.4139194799
  C         3.8090609655        4.1593990070        1.5565626703
  C         2.5352184370        3.8770698563        2.0630276943
  C         2.3867478169        3.5809273822        3.4133714590
  C         8.2013660881        2.7785203465       14.6058674852
  C         6.8802016930        2.7223263624       15.0716718793
  C         5.8327634506        3.1480794806       14.2318033698
  C         6.1101581764        3.5715465080       12.9404081128
  C         7.4244591404        3.5912146551       12.4269028225
  C         8.4348337774        3.2251045682       13.3171224732
  C         6.6470020177        6.8632044023        8.1898429286
  C         3.2797512126       -0.9292293210        8.1377369546
  F         7.8206851277        3.3728844475        3.8519188840
  F         3.0436999911        3.3411567010       12.9257926420
  F         5.6118772286       -1.1225668593        8.2347942940
  F         4.3129929241        7.0513553465        8.0881572589
  H         3.3764830008        4.6214189972        8.8821719050
  H         6.7143016469        1.4257688746        7.5561425578
  H         5.6143894072        3.7059333885        4.4014788363
  H         5.9048270320        4.3345196577        2.0247611260
  H         1.6680144079        3.9031981283        1.4092566538
  H         9.0209719670        2.4810776023       15.2548721114
  H         4.8185118325        3.1568808059       14.6070798254
  H         5.2967112398        3.9098389568       12.2982455653
  N         3.8778031028        4.5357377600        0.1873946518
  N         6.7417808960        2.2758266723       16.4006806985
  O         7.8194866693        4.8507012468        7.9165298802
  O         7.5867208329        5.2782617812       10.7779196237
  O         4.3483854328        1.1525955018        7.8449464854
  O         2.2923602812        2.9421249701        6.3266737383
  O         2.1630215961        1.1347784789        8.4641245686
  O         4.5281983322        3.3623154372        6.3728926675
  O         5.6226067008        4.7559898052        8.4744481988
  O         7.9545751346        3.1084865062       10.1558862397
  O         3.3534380578        3.6608395945        8.7128917622
  O         6.6890454639        2.3735046540        7.7817365709
  O         5.0734323766        2.4007271739       10.0916290478
  C         5.5861839443        1.1682816238       10.6915233855
  H         5.2880386910        0.3017918253       10.0927306933
  H         5.1874349796        1.0854275067       11.7074648995
  H         6.6743064674        1.2577354571       10.7222335592
  H         4.1654471907        2.5702859598       10.4165430428
      50
 i =      312, E =      -412.9176203623
 Al         8.3718322598        3.0394799223        8.2648886581
 Al         4.9823107270        2.9782297238        8.1376101370
  C         6.7009607661        5.3677268568        8.2028744821
  C         7.6852539705        4.0660656563       11.0074539238
  C         3.2583937531        0.5701339944        8.1485205128
  C         3.3962298003        3.2509930193        5.7726980324
  C         3.4739962157        3.5140810250        4.3012155612
  C         4.7495243678        3.7666453432        3.7422214390
  C         4.9228020729        4.1022352442        2.4143890092
  C         3.8094011123        4.1600795008        1.5564951168
  C         2.5356531533        3.8766939833        2.0628640457
  C         2.3873218562        3.5805194124        3.4134691266
  C         8.2001075158        2.7772098663       14.6048495196
  C         6.8792767170        2.7212730913       15.0706106467
  C         5.8313813293        3.1469029524       14.2312135463
  C         6.1092116747        3.5704250468       12.9399158347
  C         7.4234893111        3.5905971643       12.4266418415
  C         8.4339413611        3.2249751346       13.3163393960
  C         6.6468830876        6.8635324856        8.1901607275
  C         3.2795119873       -0.9292160885        8.1384288733
  F         7.8216898652        3.3717788309        3.8521715389
  F         3.0430559242        3.3414234230       12.9261924598
  F         5.6114347205       -1.1227698592        8.2350325524
  F         4.3130329397        7.0510247816        8.0871520349
  H         3.3748120565        4.6210226553        8.8815221626
  H         6.7143812527        1.4277612740        7.5522385112
  H         5.6146263327        3.7081974658        4.4023867001
  H         5.9044567178        4.3371797120        2.0256524759
  H         1.6685576591        3.9013053713        1.4088323901
  H         9.0201014131        2.4799067362       15.2536764091
  H         4.8175236590        3.1551597475       14.6063674795
  H         5.2954075226        3.9087411827       12.2981704789
  N         3.8772801365        4.5350618738        0.1875339833
  N         6.7412076744        2.2749539921       16.3998431810
  O         7.8189834888        4.8504438657        7.9185042921
  O         7.5861054423        5.2786202346       10.7784701068
  O         4.3486051121        1.1532112290        7.8516990085
  O         2.2927790466        2.9420265152        6.3269903177
  O         2.1625592669        1.1348554590        8.4641861090
  O         4.5277147543        3.3631751516        6.3739018619
  O         5.6221544043        4.7562701628        8.4743055086
  O         7.9545071022        3.1087950894       10.1564003295
  O         3.3534494954        3.6602887096        8.7126015286
  O         6.6894549213        2.3742843725        7.7821806688
  O         5.0737047706        2.4032909629       10.0923039196
  C         5.5861841038        1.1696266442       10.6907807643
  H         5.2865906281        0.3047108348       10.0910749917
  H         5.1883703019        1.0863815595       11.7070842385
  H         6.6745382844        1.2586514767       10.7196698214
  H         4.1669243627        2.5730166255       10.4175503452
      50
 i =      313, E =      -412.9176342809
 Al         8.3717246249        3.0393013884        8.2655732228
 Al         4.9823978874        2.9781184723        8.1382124816
  C         6.7009914776        5.3679790742        8.2031108771
  C         7.6843127958        4.0660952482       11.0075277192
  C         3.2589458223        0.5699937637        8.1492050074
  C         3.3961654893        3.2503208683        5.7730532943
  C         3.4743430770        3.5138352445        4.3015355489
  C         4.7500573037        3.7661914063        3.7428255510
  C         4.9234320055        4.1021806683        2.4150331972
  C         3.8100387424        4.1609921763        1.5570964183
  C         2.5360597737        3.8778219442        2.0632661948
  C         2.3877115660        3.5806434528        3.4136755566
  C         8.2000177302        2.7782365060       14.6047106649
  C         6.8793501824        2.7212368462       15.0704750394
  C         5.8309700086        3.1455748190       14.2312568833
  C         6.1087196397        3.5697590709       12.9400440689
  C         7.4229275586        3.5903815201       12.4265840067
  C         8.4335771315        3.2256345113       13.3161109777
  C         6.6470503683        6.8635459438        8.1907657275
  C         3.2796969540       -0.9294305093        8.1390195979
  F         7.8220530000        3.3713872971        3.8521545148
  F         3.0428600339        3.3415653568       12.9262112290
  F         5.6113648490       -1.1228574352        8.2353047639
  F         4.3132507702        7.0511460608        8.0869910170
  H         3.3748295394        4.6213410286        8.8773614502
  H         6.7141571686        1.4287899092        7.5489158780
  H         5.6150200813        3.7073303138        4.4031901083
  H         5.9050378704        4.3367331366        2.0264173370
  H         1.6691084522        3.9033477545        1.4089732266
  H         9.0209384255        2.4823827879       15.2533963630
  H         4.8171970506        3.1525482012       14.6063079888
  H         5.2944351941        3.9078441605       12.2987232411
  N         3.8779310894        4.5360850319        0.1884074571
  N         6.7417399977        2.2745926987       16.3999134582
  O         7.8190599636        4.8503948874        7.9181524657
  O         7.5851698213        5.2784409613       10.7787784509
  O         4.3495000175        1.1529372565        7.8532600882
  O         2.2924993019        2.9422355644        6.3274200112
  O         2.1634196432        1.1350695292        8.4642684046
  O         4.5278042468        3.3617797532        6.3742192811
  O         5.6221628969        4.7564566391        8.4742422464
  O         7.9544105406        3.1086815728       10.1568190436
  O         3.3536740396        3.6599317657        8.7131407005
  O         6.6897510191        2.3744070313        7.7825998670
  O         5.0733187629        2.4043347020       10.0928038538
  C         5.5843771259        1.1705679096       10.6923603909
  H         5.2853057381        0.3060776150       10.0927680973
  H         5.1854979876        1.0874267183       11.7081842596
  H         6.6726870345        1.2589711952       10.7221301013
  H         4.1675066072        2.5766480466       10.4185126978
      50
 i =      314, E =      -412.9176595951
 Al         8.3716323061        3.0385830268        8.2668398505
 Al         4.9825042070        2.9780675821        8.1397048607
  C         6.7013297173        5.3684109404        8.2043245766
  C         7.6820734385        4.0657853510       11.0076572623
  C         3.2604997163        0.5697972152        8.1498986577
  C         3.3959351830        3.2505096864        5.7744079533
  C         3.4747747436        3.5144512671        4.3027992454
  C         4.7509462832        3.7664414613        3.7447909506
  C         4.9250291696        4.1029017120        2.4171090961
  C         3.8116795140        4.1638421247        1.5591002766
  C         2.5371272446        3.8815727059        2.0647725828
  C         2.3882539952        3.5821043217        3.4146139385
  C         8.2003419343        2.7798405331       14.6047729085
  C         6.8802390297        2.7207448352       15.0710023338
  C         5.8308574255        3.1428053239       14.2320872896
  C         6.1077854452        3.5686792802       12.9410712713
  C         7.4216308830        3.5903764526       12.4268590890
  C         8.4330194617        3.2267179965       13.3158796870
  C         6.6474380331        6.8634767677        8.1919598599
  C         3.2801314251       -0.9298523913        8.1400048253
  F         7.8224754319        3.3711168653        3.8521422480
  F         3.0425008341        3.3418779366       12.9262089469
  F         5.6113053343       -1.1228786485        8.2356196364
  F         4.3135587749        7.0514606520        8.0868115637
  H         3.3748662715        4.6221978296        8.8684131988
  H         6.7129458383        1.4310817362        7.5407699685
  H         5.6155881758        3.7067085108        4.4056032828
  H         5.9067770421        4.3366043878        2.0289205936
  H         1.6706648640        3.9090655963        1.4097770038
  H         9.0230918804        2.4874641953       15.2529284686
  H         4.8171105608        3.1469938887       14.6068843145
  H         5.2926858419        3.9062304518       12.3005331844
  N         3.8796854652        4.5396758754        0.1911836849
  N         6.7434827200        2.2739410398       16.4007465620
  O         7.8197557139        4.8503108782        7.9199630329
  O         7.5827036100        5.2780641789       10.7790579039
  O         4.3515203941        1.1523940912        7.8543609280
  O         2.2919006250        2.9427172224        6.3282509967
  O         2.1656414174        1.1353268404        8.4644766437
  O         4.5275450546        3.3619280415        6.3758911691
  O         5.6223042275        4.7569421369        8.4742842853
  O         7.9542031312        3.1084560415       10.1576246662
  O         3.3541652779        3.6590550866        8.7148594929
  O         6.6900128256        2.3747396391        7.7830045405
  O         5.0724942656        2.4051778067       10.0935791089
  C         5.5802675221        1.1717584885       10.6966048011
  H         5.2793285366        0.3065864947       10.0998422797
  H         5.1814650421        1.0915853648       11.7125306602
  H         6.6687962428        1.2571303319       10.7253623515
  H         4.1687476361        2.5831000299       10.4209567065
      50
 i =      315, E =      -412.9176831586
 Al         8.3715198525        3.0381571968        8.2675817335
 Al         4.9822253896        2.9778229479        8.1412126929
  C         6.7015207011        5.3684476432        8.2044568946
  C         7.6802741314        4.0658134175       11.0079541631
  C         3.2619162965        0.5696413513        8.1500402969
  C         3.3958278721        3.2511163405        5.7756640399
  C         3.4751588666        3.5155904939        4.3041631743
  C         4.7518134348        3.7674471143        3.7472657818
  C         4.9269923014        4.1043516448        2.4198499519
  C         3.8139447477        4.1666278017        1.5616766075
  C         2.5387723100        3.8848448774        2.0664365270
  C         2.3887313985        3.5838665325        3.4157050237
  C         8.2016353892        2.7811410317       14.6053070345
  C         6.8819644506        2.7201477968       15.0723010225
  C         5.8317011147        3.1405472882       14.2338216835
  C         6.1073946824        3.5678786997       12.9429120990
  C         7.4208760732        3.5905988303       12.4276040077
  C         8.4331096464        3.2274892070       13.3161552880
  C         6.6477462394        6.8631362609        8.1926900259
  C         3.2806332678       -0.9300789909        8.1405246023
  F         7.8226524487        3.3712816605        3.8520412598
  F         3.0424689037        3.3419193884       12.9259700287
  F         5.6113725949       -1.1229403552        8.2356936908
  F         4.3138694528        7.0518481798        8.0870151169
  H         3.3748142781        4.6236404046        8.8600760737
  H         6.7118523023        1.4330345272        7.5335052874
  H         5.6159087529        3.7073234469        4.4087773661
  H         5.9091576984        4.3376462269        2.0324537216
  H         1.6731591693        3.9141049503        1.4104241736
  H         9.0257865364        2.4909245626       15.2528078929
  H         4.8180345642        3.1418956421       14.6089083304
  H         5.2913646112        3.9048363810       12.3030995627
  N         3.8821711352        4.5435848172        0.1945303830
  N         6.7458977521        2.2728163704       16.4019464836
  O         7.8200904606        4.8502737395        7.9192397870
  O         7.5801030762        5.2778370297       10.7790072268
  O         4.3528787251        1.1519714587        7.8538539731
  O         2.2914640769        2.9432777736        6.3287923910
  O         2.1677632188        1.1356133864        8.4647283071
  O         4.5276833763        3.3623756701        6.3771442212
  O         5.6224839155        4.7571955907        8.4744790523
  O         7.9541407488        3.1086551365       10.1581188831
  O         3.3545067921        3.6587212867        8.7168858168
  O         6.6901560985        2.3748875880        7.7832108866
  O         5.0715910180        2.4049252033       10.0942524280
  C         5.5768757672        1.1727999532       10.7013039770
  H         5.2735132523        0.3055635672       10.1091869180
  H         5.1796714544        1.0969271662       11.7181962555
  H         6.6653629475        1.2555668891       10.7277926787
  H         4.1699079405        2.5888250516       10.4240402718
      50
 i =      316, E =      -412.9177083247
 Al         8.3715831814        3.0374094747        8.2681905327
 Al         4.9816272747        2.9772704855        8.1432708918
  C         6.7019387043        5.3681545218        8.2042301811
  C         7.6789702021        4.0656906473       11.0083546860
  C         3.2632089861        0.5695502427        8.1497596323
  C         3.3959322978        3.2530075656        5.7772081976
  C         3.4756112887        3.5184535905        4.3063579203
  C         4.7526337673        3.7715734389        3.7508847250
  C         4.9293761079        4.1090130044        2.4238706945
  C         3.8167701948        4.1708494042        1.5651042694
  C         2.5410819767        3.8886661974        2.0687038998
  C         2.3894028461        3.5863577286        3.4173479458
  C         8.2036054522        2.7808693991       14.6060625270
  C         6.8844478492        2.7190034176       15.0741827328
  C         5.8334380541        3.1389047629       14.2362053596
  C         6.1078421975        3.5676740558       12.9455473715
  C         7.4206760072        3.5912201830       12.4288459274
  C         8.4339033124        3.2277963838       13.3167427983
  C         6.6480389248        6.8627241752        8.1923830297
  C         3.2811355766       -0.9302531095        8.1403181407
  F         7.8229191247        3.3715046825        3.8519220784
  F         3.0427220916        3.3419855845       12.9258525834
  F         5.6114758413       -1.1227729849        8.2356437539
  F         4.3138912965        7.0519664133        8.0872008124
  H         3.3740253752        4.6256637993        8.8497895525
  H         6.7099903243        1.4358953449        7.5230109651
  H         5.6159933348        3.7117932203        4.4133856056
  H         5.9119076732        4.3430971992        2.0378441898
  H         1.6766097675        3.9186352019        1.4113835957
  H         9.0284337701        2.4914118380       15.2530568266
  H         4.8199239107        3.1372979511       14.6118720488
  H         5.2911203113        3.9047702196       12.3065144396
  N         3.8852796705        4.5497688047        0.1992657677
  N         6.7489604926        2.2704873240       16.4032130416
  O         7.8205648578        4.8502000365        7.9194564074
  O         7.5774500628        5.2776469473       10.7786312554
  O         4.3539478806        1.1516502590        7.8527114267
  O         2.2915040997        2.9435224166        6.3293000993
  O         2.1698098983        1.1356456970        8.4651367916
  O         4.5276343415        3.3642758479        6.3789715902
  O         5.6228952478        4.7573476730        8.4746840465
  O         7.9542974910        3.1085255422       10.1585621432
  O         3.3547479893        3.6585304162        8.7192014747
  O         6.6898414904        2.3749827792        7.7832412594
  O         5.0705995824        2.4030940029       10.0949567764
  C         5.5749320325        1.1729326762       10.7059860006
  H         5.2654105749        0.3024767860       10.1214549423
  H         5.1837382361        1.1031190619       11.7256446736
  H         6.6638292112        1.2524552553       10.7250269702
  H         4.1716434997        2.5935974706       10.4288362847
      50
 i =      317, E =      -412.9177289030
 Al         8.3715577990        3.0374785779        8.2677172709
 Al         4.9812157778        2.9769307128        8.1439060604
  C         6.7018673495        5.3677322731        8.2031057779
  C         7.6792164429        4.0658673696       11.0086789499
  C         3.2631841799        0.5696285763        8.1493695560
  C         3.3964958081        3.2541264380        5.7775219947
  C         3.4760213452        3.5203910746        4.3073043164
  C         4.7530879260        3.7751593814        3.7528838269
  C         4.9306434424        4.1127409424        2.4261269513
  C         3.8185509673        4.1724537540        1.5667016102
  C         2.5428390076        3.8887917928        2.0694695986
  C         2.3900081219        3.5871454280        3.4180603017
  C         8.2051027256        2.7801073406       14.6066639214
  C         6.8860679122        2.7188815919       15.0756341150
  C         5.8349690862        3.1396519128       14.2380547104
  C         6.1085930176        3.5681580725       12.9472577660
  C         7.4212388852        3.5917372848       12.4297423837
  C         8.4347634262        3.2276482172       13.3173833010
  C         6.6480641947        6.8625644226        8.1912974111
  C         3.2812094095       -0.9301007824        8.1395663223
  F         7.8231536880        3.3718236887        3.8518220664
  F         3.0430625955        3.3417998349       12.9256574860
  F         5.6115910729       -1.1228085912        8.2353876349
  F         4.3138092187        7.0519392387        8.0873736469
  H         3.3735155816        4.6266727793        8.8475526293
  H         6.7101328326        1.4363611958        7.5213599006
  H         5.6158782561        3.7165673094        4.4161036085
  H         5.9133912992        4.3482461808        2.0410695090
  H         1.6791223727        3.9174236376        1.4113447746
  H         9.0294899296        2.4893198735       15.2534110522
  H         4.8215060087        3.1373572549       14.6143098981
  H         5.2915219992        3.9051255220       12.3084878365
  N         3.8871933609        4.5514366026        0.2011038101
  N         6.7509289449        2.2700066523       16.4042414136
  O         7.8202764382        4.8500596360        7.9177644514
  O         7.5765054283        5.2778125224       10.7781060214
  O         4.3535639353        1.1519618139        7.8519614675
  O         2.2923231540        2.9434250261        6.3292461231
  O         2.1698373405        1.1357201060        8.4651281775
  O         4.5281941501        3.3650670004        6.3791500992
  O         5.6230003889        4.7572224453        8.4748635509
  O         7.9545352861        3.1089822800       10.1585702678
  O         3.3545591518        3.6591202636        8.7199234707
  O         6.6898653594        2.3749824757        7.7830146382
  O         5.0701015877        2.4017024021       10.0953966576
  C         5.5752227465        1.1724979505       10.7075926242
  H         5.2604323100        0.2997605230       10.1286729173
  H         5.1903150446        1.1075410160       11.7303235407
  H         6.6641430605        1.2511899543       10.7195382702
  H         4.1717242642        2.5932144360       10.4307975637
      50
 i =      318, E =      -412.9177649305
 Al         8.3718106936        3.0373390798        8.2669351175
 Al         4.9806544653        2.9758373943        8.1455048917
  C         6.7018612686        5.3667545250        8.2013964253
  C         7.6803026985        4.0659748849       11.0092861763
  C         3.2627060913        0.5698818230        8.1482905744
  C         3.3979860631        3.2562621924        5.7783398275
  C         3.4770715536        3.5251769660        4.3097778212
  C         4.7540631034        3.7854583593        3.7576020316
  C         4.9331451557        4.1240956831        2.4315443794
  C         3.8220852480        4.1777197357        1.5704037270
  C         2.5465456327        3.8897369832        2.0713359886
  C         2.3915539559        3.5889721055        3.4197651443
  C         8.2079799428        2.7774604537       14.6075732675
  C         6.8892681701        2.7189638310       15.0782111239
  C         5.8380378285        3.1420469278       14.2414536430
  C         6.1107875562        3.5693814696       12.9503408014
  C         7.4230020565        3.5923178096       12.4313377700
  C         8.4368739174        3.2265930734       13.3184145632
  C         6.6480837989        6.8625436132        8.1886406994
  C         3.2813588039       -0.9296241791        8.1374283097
  F         7.8238066878        3.3720794922        3.8516345556
  F         3.0439853772        3.3415146652       12.9254419238
  F         5.6117126778       -1.1227214153        8.2350532070
  F         4.3133960920        7.0515549388        8.0874971979
  H         3.3723655374        4.6287445515        8.8415696459
  H         6.7099059064        1.4382309558        7.5155522319
  H         5.6156237544        3.7304134628        4.4225265694
  H         5.9158893199        4.3643982652        2.0485829840
  H         1.6841970911        3.9143649387        1.4116337481
  H         9.0309057310        2.4816320928       15.2536090043
  H         4.8249095497        3.1396733446       14.6192281954
  H         5.2932583681        3.9066370670       12.3121576292
  N         3.8910107431        4.5576833393        0.2056349058
  N         6.7546557042        2.2688810419       16.4058308309
  O         7.8199178851        4.8498263307        7.9163289790
  O         7.5752467820        5.2777707685       10.7771975758
  O         4.3529033969        1.1524079343        7.8507701716
  O         2.2943565673        2.9425236947        6.3293142666
  O         2.1691220657        1.1355727662        8.4651875477
  O         4.5290715113        3.3663837524        6.3801342787
  O         5.6232528125        4.7566637656        8.4751790245
  O         7.9546923720        3.1088872401       10.1584447630
  O         3.3540659893        3.6603001703        8.7203818864
  O         6.6894813344        2.3751105487        7.7826858554
  O         5.0691813639        2.3989997731       10.0965693562
  C         5.5774589829        1.1708783071       10.7087010211
  H         5.2462440457        0.2941664578       10.1432482672
  H         5.2117062020        1.1167874795       11.7399542491
  H         6.6671209032        1.2465232041       10.6992948951
  H         4.1715076686        2.5903091890       10.4349527496
      50
 i =      319, E =      -412.9177975372
 Al         8.3719135143        3.0375790549        8.2662040901
 Al         4.9810078510        2.9753825323        8.1454899109
  C         6.7014795268        5.3664576152        8.2007485658
  C         7.6812808991        4.0661218877       11.0093446964
  C         3.2618952900        0.5700534258        8.1478663289
  C         3.3988949352        3.2568060653        5.7783041452
  C         3.4776963018        3.5281199218        4.3104884018
  C         4.7544456360        3.7924376471        3.7594849094
  C         4.9337185333        4.1314023688        2.4336002095
  C         3.8232878085        4.1802466528        1.5713647123
  C         2.5481393675        3.8891886109        2.0714953517
  C         2.3924799110        3.5896246326        3.4201819484
  C         8.2089293932        2.7759374955       14.6074753884
  C         6.8903313910        2.7199318864       15.0789975015
  C         5.8392803502        3.1444723951       14.2426416290
  C         6.1117358329        3.5704392691       12.9510865102
  C         7.4240248763        3.5926197951       12.4316113103
  C         8.4375930746        3.2259640730       13.3184756495
  C         6.6480185543        6.8628810282        8.1873667622
  C         3.2811242885       -0.9292407117        8.1362233671
  F         7.8242692150        3.3721928970        3.8515668466
  F         3.0443981785        3.3412778650       12.9252268559
  F         5.6117057580       -1.1228009266        8.2348396462
  F         4.3132364013        7.0513864057        8.0874364009
  H         3.3726004446        4.6293091508        8.8404019815
  H         6.7112502071        1.4379001275        7.5170529154
  H         5.6154082560        3.7402328360        4.4253681496
  H         5.9162212776        4.3751345442        2.0515672120
  H         1.6863098658        3.9100001447        1.4110287281
  H         9.0308806040        2.4767609018       15.2528051862
  H         4.8262626326        3.1440444465       14.6212111663
  H         5.2943125170        3.9078627580       12.3131753799
  N         3.8923284649        4.5580906723        0.2058752392
  N         6.7560768686        2.2709001468       16.4068538858
  O         7.8193680646        4.8496939852        7.9154708363
  O         7.5755367798        5.2779442598       10.7767095700
  O         4.3521764858        1.1529092258        7.8508447449
  O         2.2955338508        2.9419339233        6.3290455833
  O         2.1677063006        1.1355353302        8.4650012472
  O         4.5297670120        3.3659155290        6.3799359025
  O         5.6229892801        4.7563485130        8.4752243770
  O         7.9545051018        3.1091258837       10.1583008515
  O         3.3536660200        3.6612468360        8.7188520542
  O         6.6897601168        2.3750365793        7.7826914984
  O         5.0686231576        2.3986152861       10.0971445960
  C         5.5798214604        1.1700372109       10.7068450297
  H         5.2363758086        0.2923935388       10.1494285772
  H         5.2280915286        1.1226509447       11.7440747966
  H         6.6696390894        1.2436692452       10.6821557665
  H         4.1697185465        2.5856446143       10.4346596830
      50
 i =      320, E =      -412.9178590279
 Al         8.3722984780        3.0378655482        8.2656043632
 Al         4.9823290620        2.9741905738        8.1453921979
  C         6.7009771512        5.3662152690        8.2005497440
  C         7.6826517840        4.0663436694       11.0093099937
  C         3.2605403583        0.5701074156        8.1474100836
  C         3.3998741938        3.2568941160        5.7786567399
  C         3.4785020086        3.5342328248        4.3121428863
  C         4.7547485923        3.8078826057        3.7637739690
  C         4.9340350284        4.1488248959        2.4384386954
  C         3.8248394725        4.1879418471        1.5739940121
  C         2.5504057634        3.8902655241        2.0722089122
  C         2.3939347602        3.5917713472        3.4210815294
  C         8.2098989189        2.7728982949       14.6065988033
  C         6.8917442901        2.7221286117       15.0799273823
  C         5.8408475248        3.1494558759       14.2446205366
  C         6.1130599261        3.5722696978       12.9519742517
  C         7.4255289004        3.5923484652       12.4315618661
  C         8.4383329931        3.2243975316       13.3180454720
  C         6.6479103886        6.8635743516        8.1863277730
  C         3.2806880406       -0.9287384258        8.1348073367
  F         7.8249896263        3.3719913913        3.8514959066
  F         3.0450503165        3.3410021840       12.9248960864
  F         5.6114762279       -1.1229531686        8.2348251487
  F         4.3129921579        7.0510643685        8.0871675736
  H         3.3743872442        4.6309072712        8.8321372452
  H         6.7134511028        1.4383000069        7.5163481001
  H         5.6146015943        3.7615108759        4.4316511682
  H         5.9156294687        4.4006225699        2.0582336731
  H         1.6893190413        3.9041413786        1.4103394476
  H         9.0307739591        2.4662733300       15.2494488181
  H         4.8283552525        3.1544797689       14.6251005868
  H         5.2956122605        3.9101502224       12.3147505688
  N         3.8943313551        4.5618661149        0.2072788435
  N         6.7580294756        2.2747872005       16.4085817181
  O         7.8188320229        4.8496294894        7.9149892683
  O         7.5762514747        5.2777998233       10.7763529831
  O         4.3514552200        1.1531287359        7.8518005025
  O         2.2962655217        2.9413045693        6.3286846813
  O         2.1653259551        1.1354611846        8.4647288315
  O         4.5305508269        3.3630725811        6.3799797013
  O         5.6227335205        4.7553482645        8.4751457159
  O         7.9537496309        3.1089163768       10.1580988031
  O         3.3532512935        3.6627942377        8.7142739653
  O         6.6900351079        2.3749979409        7.7830278543
  O         5.0679403023        2.3991791233       10.0983755002
  C         5.5844143966        1.1689265508       10.7016795374
  H         5.2097183556        0.2906231136       10.1632134891
  H         5.2666049394        1.1370833791       11.7524613694
  H         6.6744626370        1.2339436317       10.6404862765
  H         4.1665864215        2.5771710681       10.4340554352
      50
 i =      321, E =      -412.9179036637
 Al         8.3729968105        3.0379537546        8.2663615882
 Al         4.9838868851        2.9736694773        8.1445038557
  C         6.7009926559        5.3664532256        8.2018615450
  C         7.6826775048        4.0662461013       11.0088697849
  C         3.2610763595        0.5696449556        8.1481485051
  C         3.3991586244        3.2558545153        5.7788429219
  C         3.4782911074        3.5364365633        4.3123180059
  C         4.7542681008        3.8139296995        3.7650062863
  C         4.9329481597        4.1565636771        2.4399128928
  C         3.8242423568        4.1921277876        1.5746280221
  C         2.5501264210        3.8922417482        2.0721772824
  C         2.3939919149        3.5932139031        3.4210006702
  C         8.2088724441        2.7733826508       14.6056611415
  C         6.8908889931        2.7243840587       15.0793773119
  C         5.8400687535        3.1515921476       14.2440497399
  C         6.1124344807        3.5731750384       12.9509276092
  C         7.4251426619        3.5922649858       12.4306321100
  C         8.4374251785        3.2244782104       13.3170861410
  C         6.6479960853        6.8635900200        8.1876176356
  C         3.2805820536       -0.9290110093        8.1356211164
  F         7.8251298328        3.3718186790        3.8515291338
  F         3.0449438743        3.3410688936       12.9247867434
  F         5.6112824096       -1.1230707640        8.2350863952
  F         4.3131742582        7.0511310743        8.0869330712
  H         3.3777316182        4.6315328495        8.8264042780
  H         6.7154818103        1.4375463148        7.5177553461
  H         5.6138728367        3.7692904191        4.4335128730
  H         5.9140107425        4.4119411644        2.0604284606
  H         1.6891453367        3.9039590632        1.4097587636
  H         9.0301845099        2.4658157001       15.2473718990
  H         4.8277078936        3.1603594603       14.6249758158
  H         5.2951914163        3.9116283839       12.3141372365
  N         3.8938770712        4.5625544221        0.2064097882
  N         6.7575387395        2.2800002120       16.4096127969
  O         7.8192249162        4.8497278621        7.9165509647
  O         7.5775384491        5.2776690431       10.7764022570
  O         4.3524730195        1.1524543237        7.8531205925
  O         2.2949789253        2.9412901608        6.3285647225
  O         2.1656745306        1.1355231504        8.4649208319
  O         4.5301941959        3.3602049582        6.3800301874
  O         5.6225981278        4.7549488090        8.4748101784
  O         7.9530219661        3.1084181901       10.1581788810
  O         3.3537445183        3.6631953552        8.7118048683
  O         6.6909426027        2.3746652760        7.7834857912
  O         5.0680657777        2.4004900292       10.0983165614
  C         5.5865230751        1.1690536157       10.6975680043
  H         5.1962967986        0.2930641030       10.1676849449
  H         5.2855362229        1.1434422217       11.7537219712
  H         6.6755831974        1.2272037478       10.6192435114
  H         4.1653393148        2.5741000935       10.4321126283
      50
 i =      322, E =      -412.9179616970
 Al         8.3739250422        3.0377436623        8.2686803271
 Al         4.9850299166        2.9732692621        8.1438998390
  C         6.7014212792        5.3669083853        8.2044050192
  C         7.6817089003        4.0661499423       11.0085458130
  C         3.2632454628        0.5687816265        8.1494310713
  C         3.3972079098        3.2556413971        5.7797945042
  C         3.4770173830        3.5391793421        4.3130701985
  C         4.7527284009        3.8205806168        3.7670968588
  C         4.9311154838        4.1660894159        2.4425669646
  C         3.8229821833        4.1989468271        1.5764191289
  C         2.5489070878        3.8970343703        2.0729795788
  C         2.3930331952        3.5959959700        3.4212529507
  C         8.2067972652        2.7746349489       14.6047031699
  C         6.8891763070        2.7266277819       15.0788079686
  C         5.8382424131        3.1535960898       14.2435549739
  C         6.1108392092        3.5741410433       12.9500096667
  C         7.4235868295        3.5921035711       12.4296836649
  C         8.4355827527        3.2249536465       13.3162236237
  C         6.6483253737        6.8630451033        8.1907370308
  C         3.2809256016       -0.9298992258        8.1378713713
  F         7.8247916926        3.3715200651        3.8516448340
  F         3.0442150934        3.3412812482       12.9250060959
  F         5.6112098837       -1.1231473745        8.2356413533
  F         4.3136844504        7.0514316306        8.0868452392
  H         3.3825626062        4.6327715481        8.8144587943
  H         6.7165482688        1.4381750841        7.5144031124
  H         5.6121094886        3.7766380943        4.4362164643
  H         5.9115619513        4.4250293567        2.0643115178
  H         1.6880969366        3.9086195228        1.4099398156
  H         9.0294804031        2.4676018298       15.2450378938
  H         4.8262235297        3.1659345247       14.6247375817
  H         5.2933587000        3.9129445753       12.3135451846
  N         3.8929342933        4.5664526853        0.2072530439
  N         6.7562537735        2.2851186339       16.4108506585
  O         7.8203050372        4.8498609949        7.9199239675
  O         7.5772612240        5.2771742050       10.7769389910
  O         4.3548981805        1.1509695777        7.8543089572
  O         2.2923705608        2.9423256927        6.3291644570
  O         2.1687420421        1.1361344882        8.4654405202
  O         4.5291555359        3.3584613821        6.3806429198
  O         5.6226614601        4.7547416650        8.4745619756
  O         7.9525815346        3.1078906490       10.1586785611
  O         3.3548409667        3.6629255261        8.7119956864
  O         6.6915841888        2.3746643131        7.7837165889
  O         5.0697374502        2.4021492676       10.0978013491
  C         5.5855221842        1.1696463920       10.6958319500
  H         5.1709276245        0.2950625434       10.1812793445
  H         5.3069328347        1.1577006940       11.7587713807
  H         6.6734670139        1.2115330030       10.5944130244
  H         4.1673075503        2.5749388717       10.4315114908
      50
 i =      323, E =      -412.9180130397
 Al         8.3750892925        3.0375968424        8.2713582385
 Al         4.9855571504        2.9733515369        8.1430881165
  C         6.7024174583        5.3672238407        8.2064384655
  C         7.6809546906        4.0655526580       11.0081458863
  C         3.2662759086        0.5678874646        8.1505397799
  C         3.3947260296        3.2557619651        5.7802186169
  C         3.4750434049        3.5409469291        4.3131892463
  C         4.7504396372        3.8241147275        3.7680684162
  C         4.9284884593        4.1727262197        2.4442744454
  C         3.8208088140        4.2057948336        1.5777500366
  C         2.5466163504        3.9029548350        2.0734495558
  C         2.3912319293        3.5989684547        3.4209695803
  C         8.2050709702        2.7773391699       14.6044569678
  C         6.8874794549        2.7294647089       15.0784984860
  C         5.8365923456        3.1557594320       14.2431477211
  C         6.1095493624        3.5756372883       12.9492271574
  C         7.4219930519        3.5920232487       12.4288864060
  C         8.4340536712        3.2259844681       13.3157295871
  C         6.6485726000        6.8619179577        8.1941594984
  C         3.2814620999       -0.9309965914        8.1407231236
  F         7.8241737890        3.3714233814        3.8515925847
  F         3.0435509759        3.3415825344       12.9251630241
  F         5.6112289960       -1.1230732045        8.2359759502
  F         4.3141100293        7.0518758529        8.0868469687
  H         3.3863522124        4.6333355061        8.8068046813
  H         6.7167612102        1.4386611027        7.5126578533
  H         5.6098808807        3.7787314123        4.4371472816
  H         5.9085989169        4.4344198323        2.0673301569
  H         1.6860145717        3.9161194438        1.4098856130
  H         9.0293542126        2.4739453385       15.2448947988
  H         4.8247258360        3.1709059094       14.6242049755
  H         5.2920437804        3.9144558910       12.3126168733
  N         3.8912876666        4.5717107591        0.2080312206
  N         6.7543682468        2.2907112722       16.4119890887
  O         7.8216461164        4.8500783158        7.9215971425
  O         7.5786240722        5.2766838874       10.7771492667
  O         4.3575685616        1.1494690153        7.8541854052
  O         2.2895657788        2.9434656473        6.3296897622
  O         2.1729840968        1.1364772316        8.4663019970
  O         4.5278011715        3.3572149920        6.3810179488
  O         5.6232661073        4.7547524661        8.4744547164
  O         7.9522867927        3.1069046285       10.1589290699
  O         3.3560524830        3.6621547189        8.7140985655
  O         6.6920198154        2.3746776810        7.7839236915
  O         5.0719386326        2.4028315768       10.0964851306
  C         5.5872685890        1.1706649762       10.6931133456
  H         5.1576698931        0.2996794471       10.1898502810
  H         5.3263687968        1.1651989399       11.7593292057
  H         6.6726896715        1.1983565129       10.5758610183
  H         4.1708768586        2.5778817612       10.4329551967
      50
 i =      324, E =      -412.9180515989
 Al         8.3760178679        3.0376128507        8.2739105531
 Al         4.9853814340        2.9731721214        8.1431402512
  C         6.7034244582        5.3673382348        8.2078496458
  C         7.6804861759        4.0648350884       11.0080543935
  C         3.2698143760        0.5669816803        8.1509990669
  C         3.3919989830        3.2587986203        5.7815225814
  C         3.4725243782        3.5487833214        4.3154838175
  C         4.7471062903        3.8393861155        3.7732334136
  C         4.9257952120        4.1934471374        2.4510346446
  C         3.8196436782        4.2218962127        1.5825957114
  C         2.5455437798        3.9137086330        2.0757628042
  C         2.3893098722        3.6056709223        3.4221120490
  C         8.2048502306        2.7792161217       14.6049743414
  C         6.8876744744        2.7347098613       15.0806344061
  C         5.8369703094        3.1624961725       14.2460418590
  C         6.1094564596        3.5792529987       12.9506903379
  C         7.4211715934        3.5925307737       12.4291860732
  C         8.4335626189        3.2267317421       13.3161618557
  C         6.6491010378        6.8606521077        8.1967577174
  C         3.2823836471       -0.9322017095        8.1427047565
  F         7.8236887631        3.3714087069        3.8515598171
  F         3.0432324093        3.3416035011       12.9252872900
  F         5.6115739527       -1.1229131124        8.2362795091
  F         4.3147195084        7.0522795896        8.0869218081
  H         3.3890772290        4.6352257675        8.7904072110
  H         6.7168205502        1.4404038486        7.5070586400
  H         5.6056967660        3.7944469732        4.4434176347
  H         5.9051699599        4.4623018566        2.0773813106
  H         1.6861066320        3.9257034099        1.4104906143
  H         9.0304257683        2.4772010071       15.2448022757
  H         4.8257980130        3.1818098585       14.6283282996
  H         5.2912702615        3.9169080061       12.3135584455
  N         3.8914710446        4.5864602580        0.2128960479
  N         6.7545281996        2.2987546991       16.4152883150
  O         7.8225580736        4.8501003392        7.9222533172
  O         7.5774827784        5.2759140957       10.7770961788
  O         4.3598797281        1.1484934322        7.8531264905
  O         2.2868367696        2.9453983706        6.3302560365
  O         2.1785432458        1.1371738281        8.4675210417
  O         4.5263930832        3.3579100995        6.3819763353
  O         5.6237998864        4.7552524577        8.4748377804
  O         7.9522777035        3.1060533052       10.1594889252
  O         3.3569660150        3.6617696969        8.7166420579
  O         6.6922199414        2.3748018238        7.7837850819
  O         5.0752194785        2.4020069136       10.0951216880
  C         5.5868407922        1.1695603707       10.6916054403
  H         5.1084883387        0.2981814036       10.2243857359
  H         5.3753365910        1.1946845125       11.7724726623
  H         6.6696467263        1.1638227606       10.5241570549
  H         4.1764149434        2.5784540892       10.4368582264
      50
 i =      325, E =      -412.9181268919
 Al         8.3759088318        3.0378430427        8.2734170921
 Al         4.9843841457        2.9733360538        8.1428558103
  C         6.7038264936        5.3670417832        8.2065608615
  C         7.6808733118        4.0652691622       11.0079045056
  C         3.2708637008        0.5671733143        8.1505834755
  C         3.3916184958        3.2588479763        5.7808096815
  C         3.4717724398        3.5472186793        4.3149104524
  C         4.7461428801        3.8353694232        3.7718302000
  C         4.9248812040        4.1916345952        2.4502322949
  C         3.8183918511        4.2246498736        1.5826758155
  C         2.5442908039        3.9169357157        2.0760272492
  C         2.3882524908        3.6063924161        3.4219345724
  C         8.2052258958        2.7818787882       14.6061164360
  C         6.8878675111        2.7379067300       15.0818491758
  C         5.8376443383        3.1656301533       14.2469479696
  C         6.1099410999        3.5807779863       12.9509590773
  C         7.4214143076        3.5934543013       12.4295497196
  C         8.4341317752        3.2278428196       13.3169379157
  C         6.6492411153        6.8601940213        8.1960132737
  C         3.2828355084       -0.9323825128        8.1423273598
  F         7.8232738652        3.3717232828        3.8514798563
  F         3.0434125894        3.3415106816       12.9252229519
  F         5.6118566278       -1.1228065094        8.2361256645
  F         4.3147989467        7.0523669235        8.0871654060
  H         3.3863923916        4.6338888203        8.7968482993
  H         6.7174309391        1.4396794845        7.5096986070
  H         5.6051468576        3.7866148441        4.4409108508
  H         5.9044707786        4.4583669724        2.0765131320
  H         1.6847692101        3.9317939053        1.4112629814
  H         9.0308791756        2.4823001253       15.2475570599
  H         4.8264685513        3.1833854753       14.6289339561
  H         5.2913644667        3.9169438497       12.3128101937
  N         3.8905232972        4.5932818563        0.2141995180
  N         6.7540206023        2.3008021263       16.4157738028
  O         7.8223077397        4.8498780114        7.9200442988
  O         7.5780134120        5.2766614915       10.7769773826
  O         4.3599493945        1.1490879449        7.8519779304
  O         2.2866329446        2.9455772025        6.3296984174
  O         2.1805886760        1.1374350878        8.4681043326
  O         4.5262694541        3.3589786210        6.3812560979
  O         5.6242361560        4.7553963694        8.4750312148
  O         7.9527986034        3.1065294080       10.1591914270
  O         3.3568716013        3.6611875977        8.7185191446
  O         6.6923646719        2.3747291615        7.7833986770
  O         5.0761990117        2.4013512794       10.0938511040
  C         5.5869859988        1.1697491867       10.6912342725
  H         5.1132339233        0.2992420075       10.2243467242
  H         5.3752147083        1.1932644725       11.7683271850
  H         6.6665736164        1.1610818622       10.5272305389
  H         4.1791767701        2.5816697547       10.4389023895
      50
 i =      326, E =      -412.9182101144
 Al         8.3759227477        3.0379052409        8.2728353824
 Al         4.9829082540        2.9727740919        8.1434799180
  C         6.7045013798        5.3662405807        8.2051005509
  C         7.6822488923        4.0653137934       11.0077308541
  C         3.2726597943        0.5676714539        8.1497387400
  C         3.3914111560        3.2611134108        5.7805039579
  C         3.4709631961        3.5518185480        4.3159166099
  C         4.7447963269        3.8431950930        3.7741838377
  C         4.9237973891        4.2050430850        2.4541743287
  C         3.8177128921        4.2392140531        1.5861510595
  C         2.5439232173        3.9268540284        2.0777442055
  C         2.3874101582        3.6115279548        3.4228248760
  C         8.2074633287        2.7885012601       14.6092116670
  C         6.8900710140        2.7483997573       15.0858819661
  C         5.8405132225        3.1762725975       14.2505084000
  C         6.1121885950        3.5860958244       12.9527038287
  C         7.4230745734        3.5955982626       12.4306077212
  C         8.4361372223        3.2306965748       13.3185451990
  C         6.6497901799        6.8598904858        8.1940558488
  C         3.2837858399       -0.9322577496        8.1406988627
  F         7.8233865554        3.3720883118        3.8512132564
  F         3.0441932937        3.3414035038       12.9249774581
  F         5.6122821127       -1.1226673009        8.2358086914
  F         4.3146533298        7.0524501843        8.0874278473
  H         3.3826809228        4.6330260545        8.8017748288
  H         6.7177023594        1.4387984398        7.5126696131
  H         5.6033424254        3.7922004236        4.4433447231
  H         5.9033832818        4.4746298611        2.0823758550
  H         1.6852510845        3.9415427950        1.4121730017
  H         9.0326968481        2.4910268736       15.2527567977
  H         4.8294910512        3.1938366305       14.6331547412
  H         5.2934241174        3.9203346520       12.3133599549
  N         3.8906346632        4.6133198080        0.2193177572
  N         6.7548364443        2.3113298027       16.4191247845
  O         7.8222065365        4.8494048949        7.9183607058
  O         7.5793235453        5.2772033615       10.7761794928
  O         4.3611944292        1.1494853518        7.8508275874
  O         2.2870687045        2.9451393135        6.3289268172
  O         2.1835307084        1.1379091839        8.4689204050
  O         4.5258582134        3.3607968484        6.3814871204
  O         5.6246759180        4.7556663017        8.4752434883
  O         7.9529230573        3.1064435022       10.1586146441
  O         3.3565606873        3.6608269950        8.7207291481
  O         6.6923510859        2.3746430596        7.7829662533
  O         5.0762961052        2.3994408951       10.0929256940
  C         5.5903578389        1.1684699072       10.6874688312
  H         5.0963262676        0.3002863606       10.2411151447
  H         5.4123821660        1.2028616121       11.7698758923
  H         6.6642218004        1.1434518422       10.4923855170
  H         4.1816145989        2.5820422829       10.4448452740
      50
 i =      327, E =      -412.9183038668
 Al         8.3750789919        3.0381618979        8.2713251538
 Al         4.9810887624        2.9717385719        8.1440880859
  C         6.7045508355        5.3654998760        8.2031140025
  C         7.6838521272        4.0661999112       11.0070362899
  C         3.2746548354        0.5682288931        8.1481231719
  C         3.3920900933        3.2633156785        5.7792840580
  C         3.4697730886        3.5595766309        4.3163611130
  C         4.7426197962        3.8561107736        3.7755921030
  C         4.9208371115        4.2251565184        2.4574351425
  C         3.8146715066        4.2620431552        1.5895637986
  C         2.5417864382        3.9439683587        2.0797199826
  C         2.3860056274        3.6203848814        3.4236751330
  C         8.2087328090        2.8035949522       14.6142850579
  C         6.8911229941        2.7700597053       15.0913871094
  C         5.8427863948        3.1965440620       14.2546190561
  C         6.1142736475        3.5969507425       12.9538382906
  C         7.4249521694        3.6006272457       12.4312668460
  C         8.4376757300        3.2374944392       13.3207063333
  C         6.6509878395        6.8601042784        8.1907549119
  C         3.2852243823       -0.9319835450        8.1373373501
  F         7.8236480156        3.3725096971        3.8510585665
  F         3.0445865959        3.3413376230       12.9249322261
  F         5.6128340731       -1.1226262792        8.2355250729
  F         4.3149711154        7.0526109928        8.0873692476
  H         3.3774507102        4.6320887208        8.8087691258
  H         6.7195034828        1.4358662843        7.5224222330
  H         5.6012695860        3.8012354543        4.4439078457
  H         5.9000145431        4.4971803284        2.0865530638
  H         1.6832748793        3.9577198346        1.4142365050
  H         9.0333720420        2.5090170555       15.2601652834
  H         4.8321478681        3.2153063796       14.6382668626
  H         5.2953099692        3.9282705420       12.3129531926
  N         3.8883135519        4.6427464847        0.2242702035
  N         6.7537216197        2.3343633393       16.4242495638
  O         7.8213529461        4.8486073209        7.9161020188
  O         7.5806258803        5.2786458328       10.7749764885
  O         4.3627713987        1.1505953149        7.8499764784
  O         2.2889533108        2.9442862538        6.3279337976
  O         2.1869014792        1.1384498579        8.4697274576
  O         4.5262505694        3.3615864344        6.3802242957
  O         5.6245544277        4.7558551394        8.4753562634
  O         7.9527740779        3.1074688832       10.1579948776
  O         3.3558087213        3.6609050827        8.7224136876
  O         6.6929416363        2.3744043826        7.7825129502
  O         5.0778693298        2.3989564672       10.0909486963
  C         5.5904284021        1.1668224958       10.6827225837
  H         5.0512626194        0.3000966032       10.2775731288
  H         5.4725350430        1.2280397184       11.7736818329
  H         6.6534479639        1.1071072025       10.4311871273
  H         4.1866289840        2.5835045424       10.4503003175
      50
 i =      328, E =      -412.9183865241
 Al         8.3728744647        3.0381675301        8.2690183294
 Al         4.9795088847        2.9713577059        8.1452588508
  C         6.7032397937        5.3653640016        8.2012266249
  C         7.6853758035        4.0679332026       11.0068144535
  C         3.2720822137        0.5693587996        8.1467305143
  C         3.3951429179        3.2637682230        5.7779453871
  C         3.4707995222        3.5628397430        4.3152912172
  C         4.7433194763        3.8604825252        3.7732192265
  C         4.9195289694        4.2309078874        2.4551961774
  C         3.8118137361        4.2707991229        1.5888059007
  C         2.5398635514        3.9503359033        2.0797350944
  C         2.3863222490        3.6235655488        3.4237362302
  C         8.2087221243        2.8169185277       14.6184538904
  C         6.8906491566        2.7856572246       15.0941394837
  C         5.8433397223        3.2102613523       14.2554273884
  C         6.1157867440        3.6058351826       12.9538324142
  C         7.4269463873        3.6054323711       12.4315208661
  C         8.4385095939        3.2442416669       13.3222956870
  C         6.6512991693        6.8618163102        8.1868026896
  C         3.2852014158       -0.9305027840        8.1336499700
  F         7.8242444709        3.3723412076        3.8511179101
  F         3.0447426279        3.3415476096       12.9251288372
  F         5.6126630976       -1.1227633146        8.2353035150
  F         4.3145885305        7.0524723899        8.0872277748
  H         3.3718990077        4.6309348808        8.8233381861
  H         6.7183542872        1.4328963392        7.5327073668
  H         5.6029711873        3.8047466072        4.4402336122
  H         5.8985291123        4.5012698639        2.0820608933
  H         1.6801221922        3.9621593682        1.4156753389
  H         9.0317985318        2.5225443762       15.2659727780
  H         4.8323007209        3.2292460998       14.6387051474
  H         5.2979935183        3.9377169021       12.3127874237
  N         3.8850658332        4.6557162038        0.2244401447
  N         6.7511596208        2.3490933489       16.4259941947
  O         7.8201074198        4.8482131937        7.9151697171
  O         7.5827471158        5.2804714500       10.7744917086
  O         4.3616610611        1.1519236521        7.8509493635
  O         2.2932472779        2.9422350777        6.3275390153
  O         2.1831015545        1.1381445129        8.4685936466
  O         4.5277450939        3.3619080845        6.3791425024
  O         5.6235544024        4.7560197851        8.4748537647
  O         7.9524367232        3.1092232651       10.1576293772
  O         3.3544578127        3.6612683937        8.7215151358
  O         6.6923163465        2.3742010516        7.7830837531
  O         5.0763653238        2.4002646295       10.0913807486
  C         5.5916211085        1.1668977214       10.6795063137
  H         5.0444093214        0.3022328580       10.2875994482
  H         5.4955035811        1.2296396135       11.7693762483
  H         6.6473886519        1.1012923523       10.4081271889
  H         4.1868192387        2.5859166769       10.4534180359
      50
 i =      329, E =      -412.9184528541
 Al         8.3711545134        3.0383763160        8.2689641081
 Al         4.9785487633        2.9713983839        8.1461483941
  C         6.7024042407        5.3658560396        8.2003595285
  C         7.6857335251        4.0704842219       11.0064840296
  C         3.2712215859        0.5696615789        8.1461622473
  C         3.3968648774        3.2644415085        5.7779697033
  C         3.4706654153        3.5695450124        4.3154790615
  C         4.7422036194        3.8728201172        3.7729206070
  C         4.9156128775        4.2503867174        2.4566095464
  C         3.8066135823        4.2931662757        1.5919259363
  C         2.5359414801        3.9666272822        2.0827019335
  C         2.3854348991        3.6314946306        3.4250696011
  C         8.2063199266        2.8343421544       14.6228449443
  C         6.8882044169        2.8070457464       15.0982829554
  C         5.8421901996        3.2304479469       14.2575884337
  C         6.1159800777        3.6198407292       12.9547139228
  C         7.4271927145        3.6119557114       12.4316213355
  C         8.4375009924        3.2530311532       13.3238653348
  C         6.6512585438        6.8628903555        8.1860317273
  C         3.2849608873       -0.9296561287        8.1327624573
  F         7.8241389937        3.3720925711        3.8513096238
  F         3.0443038254        3.3419103665       12.9253475472
  F         5.6121829704       -1.1228533988        8.2355024707
  F         4.3144511413        7.0527504835        8.0871869045
  H         3.3690079708        4.6314745739        8.8268406809
  H         6.7167005690        1.4320076444        7.5371587914
  H         5.6032284165        3.8153978434        4.4381558111
  H         5.8935772781        4.5235166727        2.0820665239
  H         1.6746702762        3.9776308745        1.4202558992
  H         9.0287607778        2.5401454957       15.2709680230
  H         4.8308576350        3.2547522816       14.6402212198
  H         5.2994778501        3.9534751483       12.3135074518
  N         3.8801093054        4.6816302691        0.2288210246
  N         6.7468399569        2.3722797236       16.4304848243
  O         7.8200667986        4.8484049788        7.9144039525
  O         7.5849977594        5.2829340795       10.7743751252
  O         4.3619462985        1.1523228116        7.8517695766
  O         2.2955421039        2.9416959923        6.3279042391
  O         2.1816848013        1.1381721895        8.4678154801
  O         4.5290682060        3.3615221215        6.3789110717
  O         5.6233888973        4.7559582302        8.4739756941
  O         7.9517131326        3.1106986649       10.1581924910
  O         3.3540243179        3.6617146337        8.7209316085
  O         6.6920284112        2.3740470117        7.7844419258
  O         5.0766973957        2.4030165539       10.0911338581
  C         5.5929639744        1.1674240456       10.6729296967
  H         5.0086937948        0.3067899559       10.3186601049
  H         5.5519170858        1.2473218538       11.7689932619
  H         6.6363904234        1.0762688225       10.3505153293
  H         4.1910244961        2.5933765764       10.4596769902
      50
 i =      330, E =      -412.9185394164
 Al         8.3697987704        3.0387123195        8.2692611880
 Al         4.9791777086        2.9725717890        8.1458704995
  C         6.7015030627        5.3671758143        8.2014463501
  C         7.6838508213        4.0724688824       11.0061097474
  C         3.2688547500        0.5690665856        8.1471979002
  C         3.3975543989        3.2621667216        5.7783733837
  C         3.4709288786        3.5677326496        4.3142028785
  C         4.7421122774        3.8699010292        3.7689486790
  C         4.9120605535        4.2490885172        2.4528420796
  C         3.8012238455        4.2973328800        1.5910118375
  C         2.5313147096        3.9725803155        2.0843608181
  C         2.3846915806        3.6330671104        3.4254683083
  C         8.2011833720        2.8451969846       14.6247938516
  C         6.8827122651        2.8166975442       15.0985823516
  C         5.8369555604        3.2377622126       14.2556603095
  C         6.1131008299        3.6277801590       12.9538638434
  C         7.4248734283        3.6160804702       12.4310501657
  C         8.4341373855        3.2586620520       13.3243480740
  C         6.6503240953        6.8636222823        8.1887094515
  C         3.2835027013       -0.9294274969        8.1350838572
  F         7.8235721006        3.3717042922        3.8519603372
  F         3.0430080548        3.3424178642       12.9259691575
  F         5.6115684291       -1.1229293483        8.2359894405
  F         4.3144438298        7.0527865831        8.0868913017
  H         3.3708657956        4.6327406369        8.8241908443
  H         6.7136717904        1.4324061842        7.5363003220
  H         5.6055411013        3.8106205941        4.4312418297
  H         5.8891740874        4.5195311117        2.0741436309
  H         1.6669887568        3.9867011962        1.4256422642
  H         9.0234298064        2.5518196083       15.2729542608
  H         4.8249715778        3.2659041375       14.6359004190
  H         5.2984161271        3.9656778283       12.3131268399
  N         3.8739894810        4.6860044305        0.2280959424
  N         6.7407281265        2.3832567188       16.4316504747
  O         7.8207205130        4.8493509582        7.9160710589
  O         7.5848603122        5.2847861339       10.7749973892
  O         4.3607642675        1.1515965163        7.8532142855
  O         2.2955450356        2.9424046598        6.3287492906
  O         2.1777098474        1.1373794735        8.4665228583
  O         4.5298659556        3.3597619195        6.3786634131
  O         5.6232948753        4.7559530512        8.4729416329
  O         7.9509134469        3.1116778335       10.1593130733
  O         3.3543845431        3.6623205358        8.7181156296
  O         6.6916008959        2.3738508427        7.7856994724
  O         5.0773013222        2.4062079675       10.0910533097
  C         5.5871978509        1.1682020957       10.6726417714
  H         4.9969249705        0.3083496162       10.3296123411
  H         5.5524637822        1.2508732319       11.7640313757
  H         6.6244261895        1.0712554821       10.3455777640
  H         4.1941752013        2.6044499265       10.4600052946
      50
 i =      331, E =      -412.9185917709
 Al         8.3700378160        3.0392331945        8.2692164393
 Al         4.9790985739        2.9740940246        8.1454700856
  C         6.7014894809        5.3677482692        8.2026898088
  C         7.6836887838        4.0730876981       11.0058573094
  C         3.2659697744        0.5685973532        8.1489530023
  C         3.3963691960        3.2636082434        5.7787958112
  C         3.4702676938        3.5706971608        4.3141994038
  C         4.7408005898        3.8761314342        3.7690498013
  C         4.9089397426        4.2563614026        2.4529164076
  C         3.7980326764        4.3000725583        1.5906593147
  C         2.5288769184        3.9734207946        2.0846133406
  C         2.3836453157        3.6347750769        3.4256899124
  C         8.1984226538        2.8514744979       14.6264195768
  C         6.8793558746        2.8242556283       15.0993267350
  C         5.8334855125        3.2438637693       14.2544602721
  C         6.1115879161        3.6329865095       12.9529636104
  C         7.4237881602        3.6182255916       12.4309011670
  C         8.4327185976        3.2614458555       13.3249181009
  C         6.6494969408        6.8635796420        8.1910933787
  C         3.2822874020       -0.9295810947        8.1376044817
  F         7.8232598225        3.3717523310        3.8521483536
  F         3.0423825591        3.3424935672       12.9264445098
  F         5.6114132287       -1.1227392731        8.2360387616
  F         4.3142130096        7.0524357337        8.0870660151
  H         3.3747890689        4.6335101049        8.8205672326
  H         6.7116962645        1.4329144831        7.5350712394
  H         5.6049981794        3.8190449932        4.4308264094
  H         5.8851483234        4.5297319621        2.0737367387
  H         1.6637270388        3.9860226805        1.4267438352
  H         9.0200751555        2.5581077425       15.2755838655
  H         4.8212944851        3.2748801549       14.6336687712
  H         5.2988892526        3.9740320068       12.3116757490
  N         3.8699946020        4.6870480504        0.2270075367
  N         6.7365178683        2.3920469004       16.4329765518
  O         7.8212570975        4.8499797427        7.9181135117
  O         7.5855027448        5.2853808827       10.7751587764
  O         4.3575450814        1.1514042076        7.8538220842
  O         2.2940095958        2.9433450432        6.3286233148
  O         2.1735518113        1.1365234099        8.4661046832
  O         4.5294035853        3.3600026253        6.3786252093
  O         5.6231266330        4.7565595831        8.4727230356
  O         7.9509938445        3.1118823772       10.1593862295
  O         3.3548400025        3.6630499264        8.7165199374
  O         6.6904042185        2.3742087758        7.7857614945
  O         5.0762266058        2.4068225653       10.0911245026
  C         5.5873242571        1.1683040378       10.6685287232
  H         4.9853689029        0.3128314275       10.3392532018
  H         5.5703051854        1.2538422658       11.7612728398
  H         6.6198635557        1.0652299696       10.3237365856
  H         4.1947351878        2.6101614965       10.4622029085
      50
 i =      332, E =      -412.9186408357
 Al         8.3709697410        3.0396118820        8.2688475116
 Al         4.9790217596        2.9754502626        8.1447051501
  C         6.7018155174        5.3681496455        8.2039170932
  C         7.6829837017        4.0726173045       11.0054919234
  C         3.2626204623        0.5681721309        8.1508975419
  C         3.3944201259        3.2647546454        5.7787937423
  C         3.4692066836        3.5724707725        4.3146942646
  C         4.7390528894        3.8801264455        3.7700642940
  C         4.9062451984        4.2619856394        2.4542965654
  C         3.7955539087        4.3036909328        1.5918503638
  C         2.5269469589        3.9754361101        2.0856225723
  C         2.3824157689        3.6362121101        3.4262180425
  C         8.1955691220        2.8590914839       14.6294553154
  C         6.8758902145        2.8341628467       15.1018283113
  C         5.8295642472        3.2507368826       14.2545315154
  C         6.1093716463        3.6373464467       12.9527176897
  C         7.4219065050        3.6199968198       12.4314747750
  C         8.4309863990        3.2641899656       13.3263975473
  C         6.6486299173        6.8633027703        8.1937142305
  C         3.2808338938       -0.9300495527        8.1406588864
  F         7.8228874605        3.3719989979        3.8522176572
  F         3.0413309992        3.3424010193       12.9271678191
  F         5.6115621589       -1.1223887950        8.2360550933
  F         4.3138222889        7.0514960642        8.0869318043
  H         3.3777459215        4.6347396439        8.8150659352
  H         6.7104299670        1.4337849629        7.5311160545
  H         5.6037425755        3.8234776020        4.4312126252
  H         5.8818196445        4.5386255352        2.0752596959
  H         1.6612627257        3.9885760576        1.4287886985
  H         9.0161281517        2.5675105961       15.2808172167
  H         4.8171724052        3.2821752980       14.6325349109
  H         5.2980454744        3.9798816969       12.3101274571
  N         3.8661908710        4.6896728223        0.2276141767
  N         6.7324184037        2.4053999575       16.4360485940
  O         7.8212398883        4.8504550361        7.9194302551
  O         7.5837472620        5.2852536806       10.7745888284
  O         4.3536011711        1.1505892836        7.8542851710
  O         2.2917693972        2.9442601305        6.3281192564
  O         2.1680658358        1.1349348048        8.4659864917
  O         4.5282738930        3.3598573722        6.3788031704
  O         5.6232153924        4.7565549318        8.4731447365
  O         7.9516024596        3.1113155203       10.1596539121
  O         3.3549476044        3.6641143407        8.7146747917
  O         6.6896282595        2.3746079563        7.7843517871
  O         5.0758575170        2.4067738995       10.0901476414
  C         5.5814418039        1.1668646795       10.6664713607
  H         4.9618516905        0.3142427946       10.3593529827
  H         5.5852255537        1.2630129712       11.7596833464
  H         6.6062401848        1.0512906848       10.3024315477
  H         4.1977118069        2.6212258272       10.4653300607
      50
 i =      333, E =      -412.9186652811
 Al         8.3715810088        3.0394903235        8.2686270281
 Al         4.9782958379        2.9760405135        8.1444509219
  C         6.7017913598        5.3680378158        8.2040381071
  C         7.6832659254        4.0715093749       11.0056350198
  C         3.2593435353        0.5684071799        8.1516748141
  C         3.3931950519        3.2663309335        5.7788779130
  C         3.4685721812        3.5733310749        4.3158357107
  C         4.7381147538        3.8821359743        3.7718153560
  C         4.9065205186        4.2624529754        2.4556522077
  C         3.7965515958        4.3002332201        1.5921381982
  C         2.5280128030        3.9706212686        2.0853649404
  C         2.3821549997        3.6345649440        3.4264984321
  C         8.1952539551        2.8557451543       14.6293430468
  C         6.8755575997        2.8316511712       15.1022511830
  C         5.8292835784        3.2486045986       14.2548375747
  C         6.1094737036        3.6347330446       12.9527766343
  C         7.4219577391        3.6183121795       12.4321128275
  C         8.4313216767        3.2619366765       13.3269367618
  C         6.6478698212        6.8631113587        8.1941138084
  C         3.2796592857       -0.9303672688        8.1419470691
  F         7.8225087270        3.3721225546        3.8521448919
  F         3.0413249655        3.3420384519       12.9273701764
  F         5.6114271233       -1.1222327114        8.2359721846
  F         4.3131195970        7.0507098517        8.0873006229
  H         3.3774000510        4.6345001173        8.8154423071
  H         6.7106202821        1.4361860838        7.5233590243
  H         5.6020897224        3.8280125555        4.4340634436
  H         5.8820389314        4.5412397920        2.0783038066
  H         1.6630459212        3.9825449914        1.4277325829
  H         9.0145695077        2.5620817136       15.2813359333
  H         4.8166424414        3.2789509785       14.6326141546
  H         5.2984354217        3.9766101329       12.3089026806
  N         3.8665817820        4.6835836553        0.2271691771
  N         6.7325047883        2.4043898419       16.4365142978
  O         7.8202124896        4.8505796211        7.9183390032
  O         7.5823765523        5.2839921171       10.7744437675
  O         4.3493032964        1.1508588542        7.8540057049
  O         2.2903400230        2.9451084042        6.3277215851
  O         2.1632273626        1.1342659422        8.4658729575
  O         4.5275699685        3.3608939897        6.3789967360
  O         5.6229928905        4.7562324350        8.4742155481
  O         7.9525194712        3.1104014461       10.1596586953
  O         3.3539555562        3.6644930692        8.7138748571
  O         6.6884432424        2.3751585673        7.7828572933
  O         5.0752514276        2.4052842740       10.0900672056
  C         5.5809512951        1.1650306105       10.6647780182
  H         4.9626670945        0.3148519206       10.3586369377
  H         5.5829480040        1.2596281067       11.7569422772
  H         6.6047915278        1.0519179645       10.3017979650
  H         4.1993150809        2.6246158533       10.4687023262
      50
 i =      334, E =      -412.9186854291
 Al         8.3710773775        3.0391032411        8.2683067044
 Al         4.9769791802        2.9757757998        8.1446225163
  C         6.7014145526        5.3679256467        8.2037892382
  C         7.6834668935        4.0710702765       11.0053701337
  C         3.2566616912        0.5688650073        8.1515648725
  C         3.3928800245        3.2674977552        5.7786496029
  C         3.4677827253        3.5764743045        4.3168804471
  C         4.7368324123        3.8874816293        3.7731109652
  C         4.9053875289        4.2692521368        2.4572152827
  C         3.7955784487        4.3073423348        1.5935125064
  C         2.5275120634        3.9751725179        2.0862577491
  C         2.3816002655        3.6370553451        3.4271330705
  C         8.1948906640        2.8601756157       14.6310519437
  C         6.8751366287        2.8386804608       15.1042759179
  C         5.8297870039        3.2551796500       14.2562580028
  C         6.1102138003        3.6373139648       12.9528431233
  C         7.4225545008        3.6190917278       12.4325298196
  C         8.4317380340        3.2635049331       13.3279547332
  C         6.6477203562        6.8634352417        8.1934302322
  C         3.2791173222       -0.9303993869        8.1416941085
  F         7.8223924120        3.3720533172        3.8522178154
  F         3.0413799735        3.3419521000       12.9274576286
  F         5.6113058118       -1.1222036536        8.2359673021
  F         4.3127095442        7.0502527038        8.0873188404
  H         3.3736097932        4.6339087470        8.8194775204
  H         6.7113429518        1.4375467050        7.5187944002
  H         5.6004488023        3.8335345145        4.4357434200
  H         5.8807847106        4.5487120484        2.0809881269
  H         1.6627373724        3.9865345139        1.4284238312
  H         9.0131892360        2.5661953763       15.2840949930
  H         4.8168873336        3.2858440808       14.6339170220
  H         5.2994001945        3.9773957094       12.3074247571
  N         3.8654713506        4.6909051749        0.2285354351
  N         6.7317752874        2.4140228807       16.4390434836
  O         7.8189398392        4.8504643073        7.9168639763
  O         7.5818149668        5.2836558110       10.7742133730
  O         4.3458356156        1.1517798307        7.8537298155
  O         2.2902151147        2.9454409026        6.3275464086
  O         2.1594418175        1.1338478242        8.4655285480
  O         4.5272478787        3.3612749946        6.3788828678
  O         5.6225757726        4.7559896983        8.4750949720
  O         7.9526031110        3.1099550518       10.1597630219
  O         3.3525085634        3.6644377942        8.7137577410
  O         6.6876381412        2.3752255038        7.7822885203
  O         5.0759056976        2.4036708557       10.0891560394
  C         5.5799510335        1.1618417493       10.6615513333
  H         4.9453345449        0.3146829140       10.3729441174
  H         5.6024869842        1.2650732442       11.7537196297
  H         6.5972335050        1.0366581821       10.2793005860
  H         4.2044656329        2.6294683336       10.4748588225
      50
 i =      335, E =      -412.9187013097
 Al         8.3708622467        3.0387560351        8.2685843345
 Al         4.9767927421        2.9752421825        8.1446748562
  C         6.7012607911        5.3677421517        8.2039460150
  C         7.6832187045        4.0702697075       11.0053800325
  C         3.2563561352        0.5692481042        8.1510077796
  C         3.3930114234        3.2677160393        5.7788229090
  C         3.4676698576        3.5776080487        4.3173705509
  C         4.7369698379        3.8886173482        3.7741338287
  C         4.9060396271        4.2691073173        2.4579216202
  C         3.7965878179        4.3070211730        1.5937209494
  C         2.5283785554        3.9750249688        2.0860037274
  C         2.3819193739        3.6374635368        3.4271438162
  C         8.1960684877        2.8590157732       14.6306464866
  C         6.8764054812        2.8371046363       15.1038813832
  C         5.8312455261        3.2535667342       14.2565757108
  C         6.1107592922        3.6349839567       12.9526402119
  C         7.4228802019        3.6178954984       12.4323270228
  C         8.4321578062        3.2626738484       13.3275940371
  C         6.6479715032        6.8637805664        8.1929609730
  C         3.2794297390       -0.9301463401        8.1408565743
  F         7.8226867600        3.3719841622        3.8520979048
  F         3.0415359059        3.3420085835       12.9271820307
  F         5.6112524849       -1.1222899054        8.2359131107
  F         4.3127740871        7.0503610470        8.0870330801
  H         3.3710823230        4.6335677177        8.8225865773
  H         6.7124354996        1.4381748230        7.5165938757
  H         5.5998598421        3.8357597851        4.4376864139
  H         5.8817574196        4.5476353558        2.0822207518
  H         1.6641936747        3.9854040660        1.4273489225
  H         9.0148182388        2.5662282296       15.2836109617
  H         4.8184318582        3.2838823127       14.6347057268
  H         5.2992106200        3.9728010933       12.3071006440
  N         3.8670683714        4.6898836125        0.2285385181
  N         6.7333781220        2.4130854823       16.4392521669
  O         7.8187596264        4.8503414158        7.9170409199
  O         7.5813540135        5.2829698858       10.7744199793
  O         4.3452713650        1.1525894900        7.8534676595
  O         2.2905736873        2.9449664502        6.3278337881
  O         2.1592469393        1.1339213056        8.4652934072
  O         4.5271103545        3.3612281716        6.3790388053
  O         5.6224536706        4.7556310397        8.4753758745
  O         7.9521575004        3.1095447279       10.1596546159
  O         3.3520788386        3.6640377858        8.7143214442
  O         6.6878146007        2.3751111903        7.7828284695
  O         5.0766372205        2.4034985086       10.0889929981
  C         5.5800028810        1.1604492693       10.6609517113
  H         4.9438699167        0.3143882836       10.3732793227
  H         5.6042182687        1.2646777967       11.7527194441
  H         6.5956179808        1.0340031488       10.2783594878
  H         4.2062833952        2.6299668167       10.4766059889
      50
 i =      336, E =      -412.9187203722
 Al         8.3702891575        3.0380950651        8.2695017870
 Al         4.9765642716        2.9742345234        8.1447947548
  C         6.7008967742        5.3677119657        8.2045360153
  C         7.6824147980        4.0687369340       11.0051999367
  C         3.2554931852        0.5698118396        8.1506207931
  C         3.3931439384        3.2681079913        5.7791920532
  C         3.4671613184        3.5798749894        4.3177259594
  C         4.7366399051        3.8919578682        3.7752554106
  C         4.9063165053        4.2709221148        2.4586877530
  C         3.7972140372        4.3074929102        1.5939774829
  C         2.5289903395        3.9746992857        2.0855072173
  C         2.3819286424        3.6382655712        3.4271350622
  C         8.1965048592        2.8606438037       14.6307757478
  C         6.8769325259        2.8378238791       15.1036503777
  C         5.8319756297        3.2533412701       14.2567050329
  C         6.1109252398        3.6323510007       12.9517466882
  C         7.4228978941        3.6159022430       12.4315288681
  C         8.4322193301        3.2625661837       13.3272158134
  C         6.6480136808        6.8645418516        8.1928944147
  C         3.2794141428       -0.9295208137        8.1404187015
  F         7.8227729583        3.3719746400        3.8520431061
  F         3.0415652966        3.3421398437       12.9270702779
  F         5.6108913717       -1.1223710492        8.2359824617
  F         4.3125903351        7.0505841409        8.0871197067
  H         3.3688791046        4.6329392446        8.8262207094
  H         6.7137602525        1.4402218514        7.5101348323
  H         5.5987369012        3.8413284498        4.4399474340
  H         5.8822730431        4.5492426272        2.0834974543
  H         1.6656647362        3.9828494312        1.4255866815
  H         9.0156047742        2.5696028070       15.2841131526
  H         4.8191506555        3.2847676960       14.6349474176
  H         5.2987508924        3.9668359978       12.3051137635
  N         3.8680260284        4.6883296406        0.2281767710
  N         6.7343548421        2.4157778274       16.4404072303
  O         7.8187752630        4.8504009136        7.9180994357
  O         7.5811413913        5.2814343808       10.7748353425
  O         4.3445541936        1.1533702131        7.8536141818
  O         2.2909961982        2.9445643382        6.3282777609
  O         2.1584194907        1.1341232032        8.4651859337
  O         4.5271847181        3.3606589985        6.3787707129
  O         5.6220791904        4.7554034968        8.4755329968
  O         7.9511018883        3.1083940659       10.1594739306
  O         3.3514965330        3.6634916124        8.7149665206
  O         6.6877427523        2.3751770707        7.7834566634
  O         5.0774849083        2.4034393211       10.0890687563
  C         5.5793871681        1.1577142871       10.6584438578
  H         4.9350318763        0.3164025299       10.3770696782
  H         5.6139736222        1.2633189002       11.7489712984
  H         6.5903477094        1.0238164829       10.2671412065
  H         4.2100268803        2.6325149990       10.4813995811
      50
 i =      337, E =      -412.9187334563
 Al         8.3700368892        3.0378571611        8.2705664622
 Al         4.9766960302        2.9737314496        8.1445332134
  C         6.7007323884        5.3678706261        8.2048154929
  C         7.6817034270        4.0679513075       11.0052337091
  C         3.2557255300        0.5698574483        8.1504764954
  C         3.3929848692        3.2685941929        5.7795232652
  C         3.4669199162        3.5816747036        4.3178404068
  C         4.7363894567        3.8948963125        3.7760180170
  C         4.9064557091        4.2729956717        2.4593387503
  C         3.7976688809        4.3070103923        1.5941382220
  C         2.5294403333        3.9735521788        2.0851091970
  C         2.3819494265        3.6386741121        3.4270839678
  C         8.1965077733        2.8614057029       14.6307179223
  C         6.8769331529        2.8382439134       15.1035118576
  C         5.8318090782        3.2532320983       14.2567966609
  C         6.1104795345        3.6310794602       12.9513577956
  C         7.4223851612        3.6147197180       12.4310539356
  C         8.4319362821        3.2624129964       13.3268727333
  C         6.6481573752        6.8648637688        8.1928204782
  C         3.2795891236       -0.9291803262        8.1401791250
  F         7.8228893397        3.3718723136        3.8519860446
  F         3.0414451913        3.3421701514       12.9269950363
  F         5.6109579267       -1.1223745167        8.2360049695
  F         4.3127649952        7.0507621473        8.0870905043
  H         3.3689422720        4.6327660463        8.8262985448
  H         6.7145443585        1.4420094068        7.5042201460
  H         5.5980150374        3.8457035645        4.4413951154
  H         5.8824215766        4.5517824338        2.0842424240
  H         1.6668395951        3.9799613924        1.4241921013
  H         9.0161007363        2.5719605277       15.2841668290
  H         4.8192526045        3.2864488679       14.6354492851
  H         5.2981470411        3.9644827315       12.3042063640
  N         3.8686099795        4.6862642463        0.2278017908
  N         6.7347024017        2.4172131172       16.4410987095
  O         7.8190547989        4.8505309158        7.9191055345
  O         7.5807786897        5.2806561850       10.7752177785
  O         4.3449856874        1.1534540194        7.8536184278
  O         2.2910586922        2.9445895474        6.3284754760
  O         2.1589628005        1.1341943395        8.4651741736
  O         4.5271642943        3.3604744923        6.3786359856
  O         5.6220004815        4.7555647574        8.4753519539
  O         7.9505037764        3.1077764702       10.1594871765
  O         3.3515833631        3.6631723226        8.7156243899
  O         6.6879130767        2.3752880777        7.7835369413
  O         5.0778507406        2.4035325857       10.0892956738
  C         5.5778626901        1.1557669114       10.6568492984
  H         4.9254367540        0.3183344655       10.3825849658
  H         5.6232748865        1.2633101787       11.7471879596
  H         6.5839803311        1.0149389332       10.2570749433
  H         4.2119088025        2.6349226674       10.4842780452
      50
 i =      338, E =      -412.9187516162
 Al         8.3698585559        3.0375717376        8.2724118855
 Al         4.9769975847        2.9727013636        8.1440024104
  C         6.7006079510        5.3679741284        8.2049674517
  C         7.6804203023        4.0666039461       11.0050064855
  C         3.2566020823        0.5696147712        8.1503595389
  C         3.3926089049        3.2692286735        5.7797646665
  C         3.4665461271        3.5836527840        4.3176597828
  C         4.7358388272        3.8988930400        3.7766155470
  C         4.9061078136        4.2762149077        2.4599064492
  C         3.7978459318        4.3059649411        1.5939597828
  C         2.5298570177        3.9709096002        2.0843354716
  C         2.3818352914        3.6386403596        3.4268400926
  C         8.1956820514        2.8636236184       14.6310399741
  C         6.8760315448        2.8405085460       15.1037518098
  C         5.8304497564        3.2544198437       14.2567591859
  C         6.1091533973        3.6301093540       12.9505971533
  C         7.4211694954        3.6130049154       12.4302948653
  C         8.4311396767        3.2625561274       13.3266019120
  C         6.6481588872        6.8649623392        8.1929947854
  C         3.2796718842       -0.9288903224        8.1400626187
  F         7.8229224607        3.3717992802        3.8519817123
  F         3.0410716758        3.3422628232       12.9271046854
  F         5.6109855880       -1.1223590093        8.2360713859
  F         4.3128726368        7.0509484658        8.0871154299
  H         3.3705418748        4.6326299032        8.8253249026
  H         6.7154298001        1.4461220722        7.4909825540
  H         5.5971355915        3.8510761098        4.4424869034
  H         5.8819089450        4.5565461971        2.0847374626
  H         1.6682750765        3.9743124725        1.4220908761
  H         9.0155869242        2.5759831355       15.2849489536
  H         4.8183802066        3.2911850997       14.6360512501
  H         5.2972296331        3.9628818746       12.3022355327
  N         3.8685221186        4.6821319358        0.2265776649
  N         6.7342785158        2.4215910577       16.4424201247
  O         7.8195675658        4.8506713208        7.9202786303
  O         7.5802408297        5.2794312315       10.7755019509
  O         4.3464011128        1.1529342699        7.8534883815
  O         2.2909526738        2.9448430928        6.3283722853
  O         2.1604743178        1.1342827111        8.4654042368
  O         4.5270798660        3.3601242744        6.3783422753
  O         5.6219708204        4.7558967583        8.4749305654
  O         7.9494280027        3.1067002036       10.1593111612
  O         3.3519394999        3.6629837741        8.7163830830
  O         6.6883244827        2.3756146213        7.7833795649
  O         5.0782972211        2.4031583386       10.0899389014
  C         5.5730702531        1.1516672696       10.6546065750
  H         4.9039465975        0.3222069104       10.3955260394
  H         5.6398667347        1.2631359267       11.7432772133
  H         6.5697315359        0.9947816994       10.2366150797
  H         4.2150024880        2.6393185369       10.4886516632
      50
 i =      339, E =      -412.9187671824
 Al         8.3699150639        3.0378187225        8.2731484196
 Al         4.9772243756        2.9725444730        8.1435358672
  C         6.7007533050        5.3679863812        8.2043481430
  C         7.6802528013        4.0667435799       11.0050590497
  C         3.2584730041        0.5693474213        8.1500613239
  C         3.3927802589        3.2690998724        5.7796435839
  C         3.4669199767        3.5833552765        4.3173898841
  C         4.7361639010        3.8987083306        3.7763242205
  C         4.9063308700        4.2770493834        2.4599928421
  C         3.7980924895        4.3060892451        1.5941773363
  C         2.5301437746        3.9704483457        2.0843717034
  C         2.3820316410        3.6383352785        3.4267479875
  C         8.1956135000        2.8630455252       14.6309076006
  C         6.8761280518        2.8407723034       15.1042198372
  C         5.8301960307        3.2553790337       14.2573339415
  C         6.1087968648        3.6309593094       12.9511802878
  C         7.4207672886        3.6129173462       12.4303716429
  C         8.4309818177        3.2622649339       13.3265405630
  C         6.6482759524        6.8646427427        8.1925933349
  C         3.2800843083       -0.9288886579        8.1396064021
  F         7.8229211250        3.3717953002        3.8519425498
  F         3.0410219326        3.3422018431       12.9270893211
  F         5.6111802492       -1.1223401900        8.2360511398
  F         4.3130961044        7.0511410515        8.0871592730
  H         3.3720425935        4.6328603330        8.8245489738
  H         6.7149735173        1.4485080627        7.4844236707
  H         5.5976976163        3.8500466379        4.4418215643
  H         5.8819646681        4.5582006850        2.0843983097
  H         1.6688193784        3.9733362287        1.4218945629
  H         9.0156451352        2.5745787609       15.2842632449
  H         4.8186061903        3.2941572899       14.6374582175
  H         5.2972093234        3.9651025997       12.3030135056
  N         3.8687634709        4.6826437256        0.2269341019
  N         6.7342358973        2.4215359436       16.4424756754
  O         7.8199468059        4.8506333254        7.9199944270
  O         7.5803613252        5.2795418495       10.7756287761
  O         4.3488921172        1.1522325748        7.8533300058
  O         2.2911526830        2.9448141259        6.3280466256
  O         2.1629729465        1.1345744135        8.4654465106
  O         4.5273442638        3.3602660234        6.3782535510
  O         5.6223309752        4.7560825406        8.4744901109
  O         7.9493601267        3.1068151346       10.1591956388
  O         3.3524978623        3.6631569384        8.7166044047
  O         6.6886203507        2.3759556130        7.7830565831
  O         5.0779486742        2.4030999464       10.0906610745
  C         5.5704118028        1.1502357396       10.6544560794
  H         4.8954307823        0.3237631865       10.4017859333
  H         5.6473061351        1.2624916085       11.7425391456
  H         6.5624297837        0.9867164053       10.2290881698
  H         4.2141390442        2.6393064132       10.4884693912
      50
 i =      340, E =      -412.9187907816
 Al         8.3704315364        3.0385399400        8.2739191668
 Al         4.9775709922        2.9726740568        8.1424597081
  C         6.7012371117        5.3678387375        8.2033381820
  C         7.6805300207        4.0672919759       11.0049046591
  C         3.2622410821        0.5688732098        8.1493981441
  C         3.3930021817        3.2694905754        5.7790501687
  C         3.4674667817        3.5833932041        4.3170464694
  C         4.7364829400        3.8992980665        3.7756691729
  C         4.9060886370        4.2787791998        2.4595681311
  C         3.7980703320        4.3052882178        1.5934003608
  C         2.5304275270        3.9681151770        2.0835902568
  C         2.3823149153        3.6376384469        3.4262385258
  C         8.1958821955        2.8614508918       14.6306103548
  C         6.8766665898        2.8411560790       15.1048981776
  C         5.8302078409        3.2571327816       14.2579293775
  C         6.1086588021        3.6327112260       12.9519094258
  C         7.4206112074        3.6132347925       12.4306345837
  C         8.4311183431        3.2616550535       13.3264454066
  C         6.6487102790        6.8637206838        8.1919071565
  C         3.2810175668       -0.9293578331        8.1386288776
  F         7.8230043408        3.3718472529        3.8519104975
  F         3.0411325974        3.3421245747       12.9270705725
  F         5.6116223517       -1.1223530197        8.2359868184
  F         4.3136004618        7.0513969385        8.0870527975
  H         3.3749518438        4.6332583175        8.8247649383
  H         6.7141284066        1.4531771290        7.4716754412
  H         5.5986722848        3.8498114846        4.4403906419
  H         5.8812382763        4.5615463273        2.0835863522
  H         1.6693538899        3.9688888558        1.4208315182
  H         9.0158392993        2.5705603727       15.2830530864
  H         4.8193883911        3.2980381808       14.6396157572
  H         5.2976997198        3.9695546925       12.3044274177
  N         3.8689018954        4.6812262686        0.2258145004
  N         6.7343893152        2.4215043933       16.4422152300
  O         7.8203237683        4.8504446455        7.9191688081
  O         7.5809024278        5.2802142644       10.7755956600
  O         4.3534566155        1.1510440228        7.8528169201
  O         2.2914960769        2.9448537209        6.3272601772
  O         2.1677442202        1.1350277480        8.4655420947
  O         4.5276426791        3.3611025319        6.3781841936
  O         5.6228011086        4.7565674631        8.4741589615
  O         7.9496781456        3.1073444839       10.1588438130
  O         3.3535634643        3.6638261517        8.7162460455
  O         6.6892959800        2.3764247739        7.7824967254
  O         5.0779486616        2.4023335818       10.0913536768
  C         5.5649687786        1.1472419387       10.6542597595
  H         4.8753169129        0.3270128511       10.4184212517
  H         5.6648917429        1.2637155636       11.7400582608
  H         6.5465254854        0.9673318933       10.2107876904
  H         4.2126009023        2.6387666112       10.4853436290
      50
 i =      341, E =      -412.9188037999
 Al         8.3708537845        3.0388274792        8.2737422540
 Al         4.9776254023        2.9732877152        8.1421113358
  C         6.7017317457        5.3675477459        8.2029209079
  C         7.6810115294        4.0679579407       11.0050337032
  C         3.2643252392        0.5688034733        8.1491733093
  C         3.3933349560        3.2691569296        5.7787069770
  C         3.4679668116        3.5821390949        4.3172047190
  C         4.7370414642        3.8974302191        3.7755026289
  C         4.9065153368        4.2775909136        2.4595194244
  C         3.7984653197        4.3053738401        1.5935311765
  C         2.5308033376        3.9681396608        2.0837682238
  C         2.3826547812        3.6370446227        3.4262703202
  C         8.1969479779        2.8584546403       14.6301584292
  C         6.8781190298        2.8392048518       15.1052754026
  C         5.8315486685        3.2566716348       14.2588111548
  C         6.1094675867        3.6335332440       12.9531528462
  C         7.4212318314        3.6139876674       12.4313496451
  C         8.4317270493        3.2609594283       13.3265384729
  C         6.6490348005        6.8630832022        8.1915982140
  C         3.2816771706       -0.9298338470        8.1383636016
  F         7.8230470311        3.3719313120        3.8519208880
  F         3.0414046641        3.3420423939       12.9269157225
  F         5.6117181900       -1.1224179607        8.2359219540
  F         4.3137837727        7.0515537740        8.0870564396
  H         3.3757086329        4.6336386213        8.8263669835
  H         6.7130524921        1.4554312800        7.4664123132
  H         5.5996237631        3.8470826400        4.4397044695
  H         5.8815082281        4.5609377636        2.0836907647
  H         1.6694228801        3.9690169781        1.4214283498
  H         9.0168178581        2.5646441146       15.2813067277
  H         4.8208014175        3.2965032280       14.6409844422
  H         5.2982699425        3.9713836819       12.3067514808
  N         3.8695446049        4.6829254373        0.2265594127
  N         6.7353551554        2.4180604107       16.4415671435
  O         7.8203809079        4.8500873200        7.9181860501
  O         7.5812822924        5.2809507388       10.7754536767
  O         4.3553287148        1.1510217529        7.8524004289
  O         2.2918008612        2.9445285669        6.3270867038
  O         2.1704637296        1.1354822973        8.4658272257
  O         4.5279533980        3.3613291280        6.3782880961
  O         5.6231538510        4.7563713086        8.4742312674
  O         7.9503237639        3.1080035264       10.1587887947
  O         3.3539982218        3.6643383715        8.7155567547
  O         6.6894765769        2.3767644680        7.7823530052
  O         5.0777058947        2.4021712222       10.0915942668
  C         5.5629819675        1.1469403649       10.6550313559
  H         4.8703427211        0.3282869520       10.4250554096
  H         5.6703703519        1.2645931409       11.7390657491
  H         6.5408421462        0.9615249793       10.2065043332
  H         4.2099941216        2.6364129599       10.4809340954
      50
 i =      342, E =      -412.9188130297
 Al         8.3710629529        3.0389134403        8.2734564159
 Al         4.9774579865        2.9742559923        8.1417487392
  C         6.7020656132        5.3674791524        8.2031295526
  C         7.6816868537        4.0684213373       11.0052445510
  C         3.2647849719        0.5690659733        8.1492037865
  C         3.3934755867        3.2695979291        5.7786090652
  C         3.4679152208        3.5834544431        4.3178767198
  C         4.7368659577        3.8998228701        3.7763970940
  C         4.9062726742        4.2800565227        2.4603153538
  C         3.7984651458        4.3069787750        1.5939028396
  C         2.5309438379        3.9683922782        2.0837942204
  C         2.3827399807        3.6374942911        3.4264475162
  C         8.1982040244        2.8574685606       14.6302354879
  C         6.8796294019        2.8390006150       15.1058284557
  C         5.8333505188        3.2573895504       14.2598234282
  C         6.1107858984        3.6343938285       12.9541584561
  C         7.4222809784        3.6147661713       12.4319538092
  C         8.4325369297        3.2608241756       13.3267324656
  C         6.6493546050        6.8629792724        8.1917517438
  C         3.2820273004       -0.9300819368        8.1385308811
  F         7.8230900974        3.3719527797        3.8518406380
  F         3.0417904935        3.3419362588       12.9266638925
  F         5.6117047234       -1.1224320978        8.2359217979
  F         4.3138800147        7.0516361442        8.0870718299
  H         3.3750729146        4.6336804955        8.8303461946
  H         6.7123290731        1.4574281793        7.4618142997
  H         5.5993394224        3.8509326273        4.4408957384
  H         5.8810389533        4.5646810165        2.0852838796
  H         1.6694232531        3.9679415479        1.4214785964
  H         9.0180727078        2.5616751752       15.2804247516
  H         4.8224538918        3.2958482615       14.6420912105
  H         5.2991030767        3.9722814344       12.3086753831
  N         3.8701404581        4.6848036381        0.2271244427
  N         6.7364251599        2.4174923886       16.4418722317
  O         7.8202009736        4.8498957264        7.9176469842
  O         7.5817138974        5.2813804395       10.7755217793
  O         4.3551183802        1.1516032631        7.8522746160
  O         2.2921051890        2.9443016574        6.3272403106
  O         2.1709910274        1.1357985352        8.4659548161
  O         4.5281904038        3.3615148477        6.3783152789
  O         5.6232419688        4.7561046513        8.4746893203
  O         7.9510303486        3.1084740544       10.1588669692
  O         3.3540328061        3.6647257922        8.7145766639
  O         6.6894147598        2.3769275597        7.7824865469
  O         5.0778868710        2.4021671580       10.0911482566
  C         5.5620607389        1.1461121741       10.6531910582
  H         4.8587720012        0.3310177652       10.4382324286
  H         5.6885509151        1.2685693403       11.7360678152
  H         6.5322272231        0.9504936446       10.1899629140
  H         4.2094098773        2.6364965490       10.4783542552
      50
 i =      343, E =      -412.9188225142
 Al         8.3713707758        3.0385689085        8.2728722626
 Al         4.9778250772        2.9753407991        8.1417580088
  C         6.7025197776        5.3675067156        8.2043510548
  C         7.6822052104        4.0684861119       11.0056114488
  C         3.2649922452        0.5693275942        8.1497053238
  C         3.3934675037        3.2692759354        5.7787720310
  C         3.4678422672        3.5827318201        4.3182718376
  C         4.7369318486        3.8988055019        3.7770267306
  C         4.9067480757        4.2772108179        2.4603656549
  C         3.7992413927        4.3036507784        1.5933543789
  C         2.5314911827        3.9658353085        2.0832609230
  C         2.3829888714        3.6362629722        3.4263697965
  C         8.2000172151        2.8536284930       14.6293926444
  C         6.8815070456        2.8335438078       15.1048563093
  C         5.8355032758        3.2528076986       14.2598336098
  C         6.1123650243        3.6322953272       12.9548294328
  C         7.4236139789        3.6145536969       12.4323536807
  C         8.4336583204        3.2594957823       13.3264801692
  C         6.6497977918        6.8630265786        8.1927766447
  C         3.2823300634       -0.9303282114        8.1394404070
  F         7.8231965367        3.3719050027        3.8518345884
  F         3.0424185971        3.3418876095       12.9263571845
  F         5.6117521344       -1.1224524468        8.2360069542
  F         4.3140489183        7.0517759743        8.0871711678
  H         3.3748713562        4.6333144360        8.8328820622
  H         6.7117948665        1.4572368103        7.4627374619
  H         5.5989039511        3.8522999442        4.4423875056
  H         5.8815939611        4.5616023870        2.0862921908
  H         1.6696828657        3.9652121071        1.4211217768
  H         9.0203099790        2.5566627267       15.2785329810
  H         4.8241448634        3.2873997070       14.6415121603
  H         5.2996734479        3.9699496242       12.3107999748
  N         3.8715571595        4.6818978156        0.2267577167
  N         6.7384542680        2.4103753970       16.4407625470
  O         7.8201672592        4.8497999574        7.9181138796
  O         7.5819099625        5.2813642776       10.7755783817
  O         4.3546144017        1.1518804513        7.8525560253
  O         2.2921451924        2.9441636133        6.3278486351
  O         2.1711671371        1.1361062214        8.4663330203
  O         4.5282223317        3.3611081471        6.3784323592
  O         5.6231018383        4.7560608404        8.4753645651
  O         7.9517609529        3.1086833264       10.1590608862
  O         3.3541710115        3.6646192808        8.7138100223
  O         6.6895363555        2.3766152217        7.7828231909
  O         5.0780451850        2.4018588227       10.0904044238
  C         5.5628116386        1.1468713427       10.6535246800
  H         4.8602620799        0.3319136976       10.4421790714
  H         5.6910094259        1.2700517645       11.7342156363
  H         6.5313185064        0.9499380520       10.1903328404
  H         4.2073914244        2.6332508907       10.4733110903
      50
 i =      344, E =      -412.9188304621
 Al         8.3713417375        3.0379519137        8.2732926092
 Al         4.9781457801        2.9752639261        8.1421010846
  C         6.7024757767        5.3674589945        8.2049984930
  C         7.6815773756        4.0678509648       11.0056863148
  C         3.2648121008        0.5693794203        8.1498550676
  C         3.3933089388        3.2690786931        5.7791745677
  C         3.4676067215        3.5827214762        4.3183789143
  C         4.7366538136        3.8995518482        3.7775921640
  C         4.9067173521        4.2775643740        2.4609744231
  C         3.7994059333        4.3037096282        1.5937709738
  C         2.5316379970        3.9658711404        2.0834784897
  C         2.3829609401        3.6361902006        3.4265544350
  C         8.2000942655        2.8542431665       14.6295867995
  C         6.8814915985        2.8333185677       15.1048824508
  C         5.8355266930        3.2520769951       14.2600405568
  C         6.1121375981        3.6317050689       12.9550104877
  C         7.4233057463        3.6142433825       12.4323219619
  C         8.4334858240        3.2596941565       13.3265014199
  C         6.6497388089        6.8632064145        8.1933298815
  C         3.2822250531       -0.9301263203        8.1399087647
  F         7.8232061967        3.3718553984        3.8518723286
  F         3.0422844873        3.3419645982       12.9263738910
  F         5.6116783477       -1.1225034846        8.2360424883
  F         4.3139810076        7.0518156864        8.0872191011
  H         3.3744948574        4.6329096234        8.8332418482
  H         6.7122315188        1.4576555208        7.4607834481
  H         5.5982081433        3.8539447799        4.4434525398
  H         5.8816116522        4.5623924831        2.0871513808
  H         1.6698976195        3.9653831036        1.4212963369
  H         9.0206577169        2.5586670376       15.2789042800
  H         4.8239663043        3.2863420575       14.6412654503
  H         5.2990846780        3.9686398345       12.3110000129
  N         3.8717497039        4.6821199559        0.2273038513
  N         6.7386327243        2.4103906927       16.4412610407
  O         7.8203125461        4.8498884504        7.9188276993
  O         7.5814489449        5.2808327364       10.7755296787
  O         4.3547340537        1.1515120052        7.8527138222
  O         2.2920245768        2.9440469423        6.3281429198
  O         2.1707206689        1.1360152029        8.4662570151
  O         4.5280918729        3.3605459132        6.3785380070
  O         5.6229868887        4.7557888190        8.4754623382
  O         7.9513548523        3.1082085672       10.1592095604
  O         3.3541053431        3.6642466679        8.7143333039
  O         6.6896989069        2.3767113380        7.7828217932
  O         5.0781803929        2.4021869891       10.0903796872
  C         5.5618564393        1.1463479379       10.6524518373
  H         4.8545396591        0.3337070842       10.4471622084
  H         5.6972399450        1.2713162421       11.7321757859
  H         6.5274208809        0.9442839541       10.1833906646
  H         4.2086054913        2.6348546576       10.4749112006
      50
 i =      345, E =      -412.9188407115
 Al         8.3713325666        3.0368020367        8.2737416956
 Al         4.9788585187        2.9758330558        8.1427661460
  C         6.7023112972        5.3676846210        8.2060477661
  C         7.6811117486        4.0673562580       11.0060858900
  C         3.2637211456        0.5694560169        8.1501773745
  C         3.3931272971        3.2689541100        5.7798516550
  C         3.4672877769        3.5829040524        4.3183969621
  C         4.7361424296        3.9012384134        3.7783162013
  C         4.9066600898        4.2782257546        2.4616104803
  C         3.7996634730        4.3026841441        1.5939885484
  C         2.5318565634        3.9646655420        2.0835131602
  C         2.3829557250        3.6354684776        3.4266335764
  C         8.2002152970        2.8539394196       14.6294282022
  C         6.8813550897        2.8311160264       15.1044138658
  C         5.8355846838        3.2500847108       14.2602626087
  C         6.1120158118        3.6310181870       12.9555120992
  C         7.4230341986        3.6138318655       12.4323241314
  C         8.4334324343        3.2594492934       13.3264769682
  C         6.6495206529        6.8636942429        8.1942818607
  C         3.2818074897       -0.9296654802        8.1406856813
  F         7.8231722924        3.3716882037        3.8518497970
  F         3.0421877082        3.3419986191       12.9264227960
  F         5.6115850465       -1.1224358737        8.2361556886
  F         4.3138620666        7.0517589800        8.0873640934
  H         3.3733709499        4.6320090760        8.8341491404
  H         6.7130378639        1.4567811371        7.4633521811
  H         5.5969006113        3.8581703443        4.4452667319
  H         5.8814931518        4.5641201938        2.0880232620
  H         1.6701507735        3.9643655176        1.4213355512
  H         9.0214658022        2.5604643974       15.2789276748
  H         4.8239176496        3.2839460687       14.6409784572
  H         5.2984902663        3.9682487745       12.3121090433
  N         3.8721834790        4.6813381112        0.2278294297
  N         6.7389546631        2.4074951648       16.4412544457
  O         7.8203434534        4.8501001919        7.9201148302
  O         7.5811343417        5.2802425404       10.7758487597
  O         4.3541397830        1.1511009817        7.8531148413
  O         2.2918527582        2.9442553368        6.3285964065
  O         2.1688088818        1.1357656576        8.4658642657
  O         4.5280056972        3.3599729293        6.3785482278
  O         5.6227967841        4.7557065054        8.4757373767
  O         7.9510198809        3.1076907912       10.1596215410
  O         3.3539303437        3.6636370010        8.7153317180
  O         6.6897503211        2.3768313651        7.7827936014
  O         5.0782982474        2.4022176125       10.0900839310
  C         5.5631607669        1.1459221006       10.6497791844
  H         4.8492287887        0.3360913958       10.4554999247
  H         5.7112104350        1.2732992781       11.7284061454
  H         6.5233420825        0.9384440185       10.1716811052
  H         4.2103887085        2.6352301883       10.4782292958
      50
 i =      346, E =      -412.9188461940
 Al         8.3714279655        3.0363216259        8.2739210787
 Al         4.9791291288        2.9758853092        8.1432338260
  C         6.7020981818        5.3676020150        8.2060788762
  C         7.6808974459        4.0672333521       11.0061356134
  C         3.2630875138        0.5692234415        8.1503433688
  C         3.3929825131        3.2688253132        5.7799821940
  C         3.4672964616        3.5824281687        4.3182427155
  C         4.7360220152        3.9012588312        3.7782846406
  C         4.9065754998        4.2780417161        2.4614906620
  C         3.7996702523        4.3015586330        1.5937290212
  C         2.5318970465        3.9636314785        2.0833879550
  C         2.3830052327        3.6348364165        3.4265272823
  C         8.1997974114        2.8531585281       14.6291445874
  C         6.8808282978        2.8298962040       15.1040776786
  C         5.8349840593        3.2490663345       14.2600309265
  C         6.1115549643        3.6309681438       12.9555362316
  C         7.4226441151        3.6136182418       12.4323081237
  C         8.4331912763        3.2591069870       13.3264803897
  C         6.6492565899        6.8636138632        8.1946480528
  C         3.2815444812       -0.9296413836        8.1409641610
  F         7.8231645793        3.3716269471        3.8518816613
  F         3.0420439585        3.3420103219       12.9265494700
  F         5.6115716140       -1.1224562247        8.2361517220
  F         4.3137421140        7.0516232268        8.0874230428
  H         3.3729108728        4.6317120913        8.8336883938
  H         6.7134832921        1.4562939122        7.4641442372
  H         5.5966367409        3.8587821463        4.4454310341
  H         5.8813006566        4.5641689646        2.0877306559
  H         1.6702109161        3.9635448653        1.4212400192
  H         9.0211401935        2.5604795073       15.2789817673
  H         4.8234297767        3.2831492220       14.6408725832
  H         5.2982707376        3.9692629554       12.3123421105
  N         3.8720614712        4.6798523065        0.2275548249
  N         6.7387133954        2.4059954732       16.4408149398
  O         7.8201674999        4.8501907994        7.9202109910
  O         7.5808213500        5.2801090152       10.7758219009
  O         4.3534236730        1.1510813183        7.8531136090
  O         2.2915681476        2.9443997022        6.3285563231
  O         2.1679071176        1.1355436957        8.4658067459
  O         4.5277904010        3.3598494825        6.3786514096
  O         5.6226414992        4.7555922463        8.4756799723
  O         7.9507389118        3.1075248462       10.1597792634
  O         3.3537230716        3.6634198555        8.7159289949
  O         6.6897277845        2.3767514888        7.7827539333
  O         5.0784221776        2.4019723655       10.0900563677
  C         5.5634967223        1.1454746534       10.6488542276
  H         4.8464411914        0.3372069491       10.4603959135
  H         5.7174180323        1.2741394691       11.7262310318
  H         6.5206557071        0.9348056411       10.1660439746
  H         4.2117089614        2.6354452677       10.4805524049
      50
 i =      347, E =      -412.9188555223
 Al         8.3717641913        3.0355945128        8.2738071799
 Al         4.9794212039        2.9762269788        8.1443458081
  C         6.7017495476        5.3673816378        8.2056474814
  C         7.6809906938        4.0676180813       11.0062246671
  C         3.2621444443        0.5689373953        8.1506903619
  C         3.3929869034        3.2686974738        5.7801336244
  C         3.4675843672        3.5815998484        4.3181306528
  C         4.7359904675        3.9013015447        3.7781860970
  C         4.9063199418        4.2777851157        2.4611480076
  C         3.7995899990        4.2996564115        1.5931220257
  C         2.5319489103        3.9616692337        2.0831761796
  C         2.3832358850        3.6335353784        3.4263336505
  C         8.1994270636        2.8496281871       14.6282126686
  C         6.8804467917        2.8256909856       15.1032663841
  C         5.8343719751        3.2465724786       14.2598521461
  C         6.1111731817        3.6314820450       12.9562123746
  C         7.4222824700        3.6138453914       12.4326444196
  C         8.4330376038        3.2580569274       13.3265237014
  C         6.6487330846        6.8634200695        8.1951015685
  C         3.2811101368       -0.9296156826        8.1413198579
  F         7.8231137886        3.3715824076        3.8519220315
  F         3.0419500490        3.3420570904       12.9267930658
  F         5.6115426928       -1.1224955141        8.2361282953
  F         4.3134726119        7.0513547427        8.0874525044
  H         3.3714164151        4.6313247543        8.8342554981
  H         6.7137717214        1.4552241949        7.4667719428
  H         5.5965726281        3.8599967650        4.4454700150
  H         5.8806915204        4.5649568744        2.0870299385
  H         1.6701015754        3.9619037640        1.4213027127
  H         9.0208200535        2.5573108029       15.2784127902
  H         4.8231008780        3.2804441536       14.6413089891
  H         5.2983409522        3.9729862052       12.3141898431
  N         3.8719097330        4.6783696253        0.2273591254
  N         6.7385003015        2.3997562133       16.4389050437
  O         7.8197837947        4.8502902017        7.9198017634
  O         7.5805838891        5.2805312689       10.7756967028
  O         4.3523009909        1.1511122342        7.8532768681
  O         2.2912258532        2.9444284322        6.3283788656
  O         2.1665221798        1.1353116919        8.4657563275
  O         4.5274759489        3.3599506541        6.3790471686
  O         5.6224666000        4.7552983431        8.4754063425
  O         7.9503586817        3.1077370087       10.1600881390
  O         3.3532573909        3.6632430830        8.7169596177
  O         6.6895714559        2.3766190716        7.7827454238
  O         5.0786833637        2.4017237925       10.0899581362
  C         5.5654135536        1.1448539563       10.6459858766
  H         4.8384893927        0.3411067552       10.4767280072
  H         5.7410722423        1.2779181915       11.7195692475
  H         6.5118949776        0.9238140844       10.1461375906
  H         4.2139008792        2.6343675989       10.4847821637
      50
 i =      348, E =      -412.9188619284
 Al         8.3717889880        3.0359357511        8.2733854642
 Al         4.9790602541        2.9759291828        8.1446127345
  C         6.7016199478        5.3673802531        8.2049884998
  C         7.6813413543        4.0681655072       11.0060909495
  C         3.2618232910        0.5689380738        8.1507181321
  C         3.3930963727        3.2686554158        5.7799413474
  C         3.4678769480        3.5812042873        4.3179873934
  C         4.7363272943        3.9001310152        3.7775999773
  C         4.9064628287        4.2767513124        2.4604681311
  C         3.7995593193        4.2991269294        1.5927343456
  C         2.5318638697        3.9617763454        2.0831026003
  C         2.3833290537        3.6335112828        3.4262072025
  C         8.1989979695        2.8479801025       14.6276126052
  C         6.8800931607        2.8241093930       15.1025868562
  C         5.8338454376        3.2454896892       14.2591050976
  C         6.1109641566        3.6313176597       12.9558419435
  C         7.4222326082        3.6139073643       12.4325637939
  C         8.4329016614        3.2574311120       13.3263175276
  C         6.6485361256        6.8633876961        8.1946480505
  C         3.2809346599       -0.9296437631        8.1411963800
  F         7.8230881823        3.3716486043        3.8519288366
  F         3.0419448209        3.3420435779       12.9268264640
  F         5.6115151271       -1.1224525474        8.2360958260
  F         4.3133642859        7.0512659621        8.0874195230
  H         3.3712294299        4.6317711085        8.8322664588
  H         6.7134649157        1.4540437641        7.4702770716
  H         5.5973229046        3.8578610330        4.4443434629
  H         5.8808072588        4.5635411957        2.0859289712
  H         1.6699821193        3.9624229632        1.4212894895
  H         9.0200769341        2.5552708143       15.2781041250
  H         4.8227271259        3.2795227884       14.6409093910
  H         5.2985496353        3.9739895303       12.3139563835
  N         3.8716340326        4.6771460211        0.2267793182
  N         6.7380981418        2.3981138019       16.4377333963
  O         7.8197315261        4.8502964084        7.9193923100
  O         7.5807725308        5.2810471516       10.7756656241
  O         4.3519394594        1.1512354609        7.8533392027
  O         2.2911202936        2.9444685001        6.3281678263
  O         2.1661161773        1.1352450420        8.4656832422
  O         4.5274019533        3.3602805533        6.3791395190
  O         5.6225681985        4.7553121674        8.4750575106
  O         7.9502002095        3.1079578469       10.1600432255
  O         3.3530845253        3.6634335566        8.7170030911
  O         6.6892281501        2.3765519252        7.7828225236
  O         5.0784718254        2.4017963132       10.0900106789
  C         5.5673965251        1.1452577963       10.6455784935
  H         4.8419518954        0.3411045797       10.4770865625
  H         5.7438263079        1.2778940346       11.7183086831
  H         6.5124750335        0.9255793139       10.1451784517
  H         4.2139988767        2.6331087543       10.4861964805
      50
 i =      349, E =      -412.9188706590
 Al         8.3717487128        3.0367366216        8.2727810314
 Al         4.9781807380        2.9754837238        8.1448190357
  C         6.7016976431        5.3673698235        8.2042033265
  C         7.6819070936        4.0691291173       11.0058236884
  C         3.2619957908        0.5690366448        8.1507579291
  C         3.3932499725        3.2687288049        5.7795794336
  C         3.4681829643        3.5811723917        4.3179903875
  C         4.7367509392        3.8989088357        3.7769474675
  C         4.9065876551        4.2759969464        2.4597019145
  C         3.7994229109        4.2995388918        1.5923887733
  C         2.5316239088        3.9631761736        2.0831441942
  C         2.3833653347        3.6342457889        3.4261313523
  C         8.1987345933        2.8449075524       14.6265020402
  C         6.8799719137        2.8215472800       15.1014188034
  C         5.8336834865        3.2441766524       14.2580740194
  C         6.1111611704        3.6313881719       12.9553841986
  C         7.4225971870        3.6143970137       12.4325187256
  C         8.4329511567        3.2565059857       13.3258917506
  C         6.6486507972        6.8632719496        8.1939526736
  C         3.2810905076       -0.9298615556        8.1408581070
  F         7.8231028469        3.3717630678        3.8519589286
  F         3.0421017015        3.3419888458       12.9267459718
  F         5.6115820530       -1.1223899471        8.2360792236
  F         4.3134354212        7.0512845899        8.0874001431
  H         3.3711090010        4.6327768942        8.8290971871
  H         6.7126787871        1.4535913830        7.4715367977
  H         5.5984489755        3.8549517750        4.4427860724
  H         5.8809054316        4.5621439692        2.0848592925
  H         1.6696254957        3.9642025468        1.4214534633
  H         9.0194091590        2.5504438494       15.2768759286
  H         4.8226959929        3.2778579868       14.6404268375
  H         5.2991839238        3.9755455513       12.3138733292
  N         3.8713304682        4.6775006383        0.2262562524
  N         6.7377902996        2.3946171889       16.4356840516
  O         7.8198109001        4.8501941926        7.9186300518
  O         7.5811751348        5.2820113450       10.7755953020
  O         4.3518619602        1.1515305043        7.8533692241
  O         2.2910472151        2.9445686693        6.3280230736
  O         2.1664912354        1.1353153003        8.4657815100
  O         4.5273644833        3.3607237063        6.3792236365
  O         5.6227711056        4.7555540881        8.4747253821
  O         7.9500311694        3.1084627841       10.1599416690
  O         3.3529337028        3.6638273896        8.7168645087
  O         6.6887404177        2.3764105753        7.7829627531
  O         5.0785298915        2.4017507884       10.0897895778
  C         5.5697925160        1.1451888563       10.6441931620
  H         4.8389453697        0.3429337045       10.4871306604
  H         5.7601602623        1.2808931252       11.7137654628
  H         6.5069469414        0.9194305678       10.1321930300
  H         4.2147335721        2.6314895933       10.4882363799
      50
 i =      350, E =      -412.9188770478
 Al         8.3715570303        3.0375746430        8.2724668506
 Al         4.9773949219        2.9750457465        8.1445777057
  C         6.7018259758        5.3674426067        8.2041254773
  C         7.6822911775        4.0694118567       11.0056089628
  C         3.2619196318        0.5692850937        8.1507359673
  C         3.3932732220        3.2688641564        5.7794786400
  C         3.4682001127        3.5815424205        4.3181246941
  C         4.7370057378        3.8984197975        3.7768141535
  C         4.9068460458        4.2755944660        2.4596029254
  C         3.7995197284        4.3000587207        1.5925044133
  C         2.5315931600        3.9642228896        2.0833278312
  C         2.3832915143        3.6350063066        3.4262692256
  C         8.1987338896        2.8431801120       14.6258093636
  C         6.8799851463        2.8197754341       15.1004659791
  C         5.8337838425        3.2425051980       14.2571282731
  C         6.1113725427        3.6301574694       12.9546901609
  C         7.4229572726        3.6143595965       12.4322400374
  C         8.4329235265        3.2558773339       13.3254353673
  C         6.6487779198        6.8634134428        8.1937283805
  C         3.2811368189       -0.9298841875        8.1407531466
  F         7.8231090387        3.3718420622        3.8519247117
  F         3.0421943245        3.3419711731       12.9265896034
  F         5.6115024706       -1.1224067856        8.2360917219
  F         4.3134362187        7.0513309610        8.0873298167
  H         3.3713995897        4.6336955822        8.8260445504
  H         6.7121257229        1.4534069065        7.4720925395
  H         5.5989715032        3.8533946173        4.4422928204
  H         5.8813888738        4.5613478988        2.0850130194
  H         1.6696500641        3.9652290392        1.4215112555
  H         9.0190583855        2.5475788385       15.2759758522
  H         4.8224987636        3.2755101277       14.6391044986
  H         5.2992117733        3.9734797104       12.3129990076
  N         3.8712465523        4.6776485063        0.2259869574
  N         6.7376951300        2.3931213787       16.4348397071
  O         7.8200348297        4.8501495907        7.9184051936
  O         7.5815074920        5.2823449921       10.7754858055
  O         4.3518879417        1.1515894400        7.8535112274
  O         2.2910696959        2.9444947964        6.3281082884
  O         2.1663059241        1.1352497154        8.4656696390
  O         4.5274163039        3.3609121435        6.3792757482
  O         5.6229038992        4.7556460041        8.4747079239
  O         7.9499436615        3.1086274713       10.1598518465
  O         3.3529054187        3.6641821933        8.7162080029
  O         6.6884532027        2.3763667534        7.7830305944
  O         5.0784573737        2.4023245167       10.0895851313
  C         5.5716826541        1.1452635269       10.6422081862
  H         4.8362790422        0.3454282888       10.4941522960
  H         5.7745393381        1.2834613051       11.7095045404
  H         6.5018403990        0.9144905659       10.1195663233
  H         4.2152471578        2.6311318458       10.4899850194
      50
 i =      351, E =      -412.9188808887
 Al         8.3711830032        3.0380522519        8.2724660277
 Al         4.9766316534        2.9746398669        8.1444558610
  C         6.7019449509        5.3675457629        8.2045235401
  C         7.6823414880        4.0693054519       11.0054318035
  C         3.2615575673        0.5693709748        8.1507726157
  C         3.3931085233        3.2687113267        5.7795576572
  C         3.4679327383        3.5813797720        4.3182271175
  C         4.7370524830        3.8973129730        3.7768677337
  C         4.9071921628        4.2745093752        2.4598091741
  C         3.7996746390        4.3004668073        1.5929328029
  C         2.5315257162        3.9655719463        2.0837746796
  C         2.3830599098        3.6356047167        3.4265363661
  C         8.1985530324        2.8415821761       14.6250584257
  C         6.8797012135        2.8178685509       15.0993982162
  C         5.8337758570        3.2403269516       14.2560753251
  C         6.1114752532        3.6283625908       12.9538133329
  C         7.4231966812        3.6140776968       12.4318093695
  C         8.4328599899        3.2552113433       13.3249066921
  C         6.6489746214        6.8636127166        8.1937909390
  C         3.2811934382       -0.9298893860        8.1407742842
  F         7.8230898613        3.3718791454        3.8519264030
  F         3.0422116501        3.3419097445       12.9264584966
  F         5.6114513427       -1.1224071750        8.2360927336
  F         4.3134571341        7.0513350958        8.0872905210
  H         3.3717775803        4.6345555689        8.8212490952
  H         6.7117778089        1.4534714580        7.4717248739
  H         5.5989426308        3.8512682611        4.4423339346
  H         5.8821116972        4.5593050196        2.0856127402
  H         1.6695716677        3.9673787557        1.4219972313
  H         9.0186651503        2.5449985123       15.2748194962
  H         4.8220781838        3.2720607165       14.6371043345
  H         5.2989156452        3.9700428865       12.3117136908
  N         3.8711933445        4.6787926560        0.2264096628
  N         6.7375564717        2.3912365017       16.4342744556
  O         7.8201648135        4.8501506993        7.9184402362
  O         7.5816532339        5.2822705589       10.7753521567
  O         4.3515922356        1.1516283271        7.8535823963
  O         2.2909772092        2.9444573537        6.3283275064
  O         2.1658485187        1.1349882604        8.4657068278
  O         4.5274421998        3.3607022374        6.3792016375
  O         5.6229384653        4.7557920435        8.4749976243
  O         7.9497675100        3.1085184469       10.1597411000
  O         3.3528524157        3.6643679423        8.7156786676
  O         6.6881864630        2.3764106947        7.7830208653
  O         5.0787091708        2.4025479585       10.0892330333
  C         5.5736000709        1.1454786222       10.6406812503
  H         4.8349218843        0.3471833924       10.4996928479
  H         5.7853657259        1.2858581288       11.7055609153
  H         6.4982292491        0.9108927336       10.1099412030
  H         4.2166700490        2.6313609307       10.4923079558
      50
 i =      352, E =      -412.9188828184
 Al         8.3709323977        3.0380508412        8.2727354115
 Al         4.9765664991        2.9747275711        8.1442051179
  C         6.7019140070        5.3676706065        8.2049037074
  C         7.6824031187        4.0689767499       11.0054412242
  C         3.2612381070        0.5692837775        8.1507332019
  C         3.3929845208        3.2687501905        5.7796313066
  C         3.4677227387        3.5813967290        4.3181495801
  C         4.7368897720        3.8972806139        3.7769010636
  C         4.9071882428        4.2742793579        2.4599233755
  C         3.7996660267        4.3001835899        1.5929564387
  C         2.5315232747        3.9651856077        2.0837417444
  C         2.3829422749        3.6354306176        3.4265500937
  C         8.1984259445        2.8422726577       14.6251674797
  C         6.8794457375        2.8182489213       15.0993062657
  C         5.8336292017        3.2398825897       14.2557149616
  C         6.1114152912        3.6274015468       12.9533066725
  C         7.4232128244        3.6136436856       12.4315245521
  C         8.4328499184        3.2552734568       13.3248328351
  C         6.6489892394        6.8637494632        8.1939750891
  C         3.2811285890       -0.9297961223        8.1407705565
  F         7.8230813698        3.3718179730        3.8519068767
  F         3.0421894523        3.3418920540       12.9264608598
  F         5.6114495353       -1.1223953707        8.2361088966
  F         4.3134559765        7.0512861810        8.0872666031
  H         3.3722671455        4.6346274547        8.8199134725
  H         6.7118367310        1.4535326802        7.4717475856
  H         5.5985116049        3.8514899876        4.4426936049
  H         5.8822517317        4.5587484363        2.0858356872
  H         1.6695871379        3.9669537460        1.4219483889
  H         9.0185074270        2.5457665828       15.2748801252
  H         4.8217579565        3.2713358377       14.6360894845
  H         5.2986533604        3.9679225631       12.3107528512
  N         3.8712059735        4.6783361904        0.2263763966
  N         6.7374671752        2.3922755978       16.4347879114
  O         7.8201240848        4.8502083120        7.9188268387
  O         7.5818287570        5.2818795549       10.7753898703
  O         4.3514510502        1.1515537786        7.8536057213
  O         2.2910302621        2.9444876172        6.3283488404
  O         2.1654333432        1.1348137118        8.4656038677
  O         4.5274821745        3.3607089708        6.3790690023
  O         5.6228787346        4.7559103666        8.4752210499
  O         7.9497960460        3.1082416883       10.1596953808
  O         3.3528934631        3.6644439639        8.7152915087
  O         6.6882164055        2.3764285575        7.7829488680
  O         5.0787927837        2.4023583094       10.0891886097
  C         5.5737692314        1.1452161684       10.6401275150
  H         4.8352710562        0.3471100815       10.4986779889
  H         5.7855240959        1.2853955958       11.7051565865
  H         6.4981964165        0.9111398573       10.1091537747
  H         4.2170909852        2.6316720882       10.4926958960
      50
 i =      353, E =      -412.9188842807
 Al         8.3705795604        3.0378394956        8.2733237310
 Al         4.9764312167        2.9748718182        8.1440968496
  C         6.7017975869        5.3677253271        8.2053388996
  C         7.6824419756        4.0685909826       11.0053966854
  C         3.2607973129        0.5689879097        8.1506742310
  C         3.3927963724        3.2685547838        5.7796693986
  C         3.4675140769        3.5808173537        4.3179000411
  C         4.7367584032        3.8962840131        3.7766992885
  C         4.9072218645        4.2731241381        2.4598510133
  C         3.7995787584        4.2999175198        1.5929664648
  C         2.5313866218        3.9655098616        2.0839045682
  C         2.3827964850        3.6352584918        3.4265827513
  C         8.1980129814        2.8420421144       14.6248912201
  C         6.8789018899        2.8177553501       15.0988596890
  C         5.8332153273        3.2384767183       14.2549855167
  C         6.1111829998        3.6259836312       12.9525777098
  C         7.4231006280        3.6131960515       12.4311278455
  C         8.4327235526        3.2550924673       13.3246481387
  C         6.6488997292        6.8637877775        8.1943086436
  C         3.2810058701       -0.9297239676        8.1407706884
  F         7.8230499625        3.3717874916        3.8518911243
  F         3.0420677014        3.3418704582       12.9265452927
  F         5.6114375009       -1.1224101055        8.2361057092
  F         4.3133818071        7.0511613507        8.0872339592
  H         3.3729386434        4.6350942516        8.8154380125
  H         6.7118572026        1.4541466724        7.4701379747
  H         5.5980383771        3.8504730561        4.4428571684
  H         5.8825045951        4.5566350566        2.0856570531
  H         1.6692842925        3.9681617727        1.4224165423
  H         9.0179916990        2.5451998356       15.2743562988
  H         4.8211149760        3.2692164243       14.6344066110
  H         5.2982074351        3.9653182173       12.3095802303
  N         3.8711146140        4.6784661510        0.2266262572
  N         6.7372157696        2.3922783689       16.4350122746
  O         7.8199653993        4.8502853202        7.9191942470
  O         7.5820272674        5.2814296071       10.7752614534
  O         4.3511907566        1.1514164296        7.8535414143
  O         2.2910132973        2.9444781614        6.3282549183
  O         2.1649484054        1.1345118573        8.4655154675
  O         4.5274571693        3.3606215160        6.3788905259
  O         5.6227759954        4.7558604773        8.4754998511
  O         7.9497778869        3.1078694595       10.1596580383
  O         3.3528965644        3.6646634594        8.7148772240
  O         6.6882706658        2.3765044023        7.7828562784
  O         5.0789913686        2.4020065917       10.0891707077
  C         5.5741698347        1.1445300846       10.6384905629
  H         4.8326578123        0.3481774871       10.5028854457
  H         5.7934942897        1.2858416415       11.7022929188
  H         6.4944004421        0.9072658742       10.1012516981
  H         4.2185988307        2.6324570244       10.4947339509
      50
 i =      354, E =      -412.9188854434
 Al         8.3705854728        3.0376630782        8.2734139800
 Al         4.9765300371        2.9749532998        8.1441928366
  C         6.7017189136        5.3676487815        8.2051592625
  C         7.6824013970        4.0685038377       11.0053221858
  C         3.2609360621        0.5689458191        8.1506520425
  C         3.3928616939        3.2684437687        5.7795606531
  C         3.4675905168        3.5804311874        4.3177344730
  C         4.7368018673        3.8955973976        3.7764104816
  C         4.9071972710        4.2723205878        2.4594844795
  C         3.7994579579        4.2997122724        1.5927578483
  C         2.5312354227        3.9655910438        2.0838113501
  C         2.3828123493        3.6351335477        3.4264750568
  C         8.1979592314        2.8425508301       14.6250451261
  C         6.8788667766        2.8183794775       15.0990556718
  C         5.8330767997        3.2388136972       14.2550254379
  C         6.1110625251        3.6261095330       12.9525174927
  C         7.4229872050        3.6131874337       12.4311189707
  C         8.4326872053        3.2553579868       13.3247602382
  C         6.6488377806        6.8636924370        8.1942166993
  C         3.2810141641       -0.9297259083        8.1407170077
  F         7.8230339712        3.3718043770        3.8519128394
  F         3.0420235131        3.3419023735       12.9265934948
  F         5.6114518675       -1.1224412150        8.2360847048
  F         4.3133694713        7.0511761857        8.0872290297
  H         3.3729060141        4.6350775873        8.8155032362
  H         6.7119801986        1.4543644223        7.4696692689
  H         5.5981511721        3.8496282743        4.4424610701
  H         5.8824826896        4.5552408384        2.0849313178
  H         1.6689889260        3.9687159070        1.4225217116
  H         9.0179265017        2.5459205526       15.2746196321
  H         4.8209971526        3.2694819441       14.6345135785
  H         5.2981743691        3.9654260119       12.3094199357
  N         3.8709863369        4.6785051259        0.2265617694
  N         6.7371123982        2.3930395902       16.4351058331
  O         7.8198623770        4.8502626415        7.9190672810
  O         7.5820656932        5.2813635543       10.7751426338
  O         4.3512325039        1.1514485614        7.8534859952
  O         2.2910565053        2.9444000745        6.3280968655
  O         2.1652538599        1.1346365962        8.4656022041
  O         4.5274476648        3.3606522633        6.3788701304
  O         5.6227192127        4.7557681320        8.4754416412
  O         7.9498145701        3.1078632556       10.1595754598
  O         3.3528709500        3.6647157564        8.7149667898
  O         6.6883804630        2.3765475595        7.7828429725
  O         5.0790785133        2.4019074354       10.0893431473
  C         5.5736064662        1.1445237946       10.6390887034
  H         4.8337570794        0.3474065719       10.5008965850
  H         5.7895415416        1.2850298276       11.7033082943
  H         6.4956097604        0.9086977180       10.1046342056
  H         4.2184103563        2.6324196415       10.4940471669
      50
 i =      355, E =      -412.9188867729
 Al         8.3706073271        3.0373519330        8.2736350870
 Al         4.9766111102        2.9751572524        8.1444005800
  C         6.7016345088        5.3675947982        8.2048237276
  C         7.6825281850        4.0683793104       11.0052078249
  C         3.2611791104        0.5689691338        8.1506703548
  C         3.3929966456        3.2682937201        5.7793350482
  C         3.4677942495        3.5799105392        4.3174356583
  C         4.7369585195        3.8944317250        3.7758403098
  C         4.9072566710        4.2706675566        2.4586609432
  C         3.7993391139        4.2989475569        1.5922189291
  C         2.5310172996        3.9653696518        2.0834817231
  C         2.3828927166        3.6348005953        3.4261944378
  C         8.1979685082        2.8431002710       14.6252110260
  C         6.8788848945        2.8187941210       15.0991532939
  C         5.8328583383        3.2385098488       14.2547526147
  C         6.1109212472        3.6256554416       12.9521688615
  C         7.4229288236        3.6128712329       12.4310465622
  C         8.4327652274        3.2555324398       13.3248914731
  C         6.6487634680        6.8635960734        8.1940396130
  C         3.2810307779       -0.9296971354        8.1406736237
  F         7.8230238843        3.3718183514        3.8519373846
  F         3.0420603168        3.3419414676       12.9266331065
  F         5.6114909456       -1.1224442152        8.2360746982
  F         4.3133688315        7.0512050747        8.0872263307
  H         3.3728266992        4.6353016304        8.8145008444
  H         6.7120645637        1.4550369312        7.4681938387
  H         5.5984614938        3.8484177038        4.4417120604
  H         5.8825609361        4.5525118562        2.0834061551
  H         1.6685640852        3.9692081603        1.4224354927
  H         9.0179002971        2.5469059765       15.2751033360
  H         4.8208246831        3.2687097154       14.6343727334
  H         5.2981954366        3.9650548575       12.3089067421
  N         3.8708928082        4.6777661253        0.2261509421
  N         6.7370242685        2.3938601830       16.4349716850
  O         7.8197192051        4.8502129614        7.9189715971
  O         7.5823717120        5.2812110440       10.7750572576
  O         4.3513686783        1.1514689622        7.8534944165
  O         2.2911417713        2.9443002247        6.3278027996
  O         2.1656453829        1.1348596581        8.4656907641
  O         4.5274515845        3.3607855338        6.3788257517
  O         5.6226795538        4.7557159478        8.4753327845
  O         7.9498681275        3.1077432341       10.1594149483
  O         3.3528253895        3.6649240059        8.7150314449
  O         6.6884634443        2.3766200885        7.7828750207
  O         5.0792515153        2.4014655633       10.0896082043
  C         5.5730890805        1.1438689174       10.6390362155
  H         4.8325229247        0.3469615256       10.5026736071
  H         5.7910940527        1.2841993001       11.7028825626
  H         6.4941894590        0.9071774331       10.1033692774
  H         4.2185691369        2.6322791877       10.4937683735
      50
 i =      356, E =      -412.9188874819
 Al         8.3706133961        3.0372877640        8.2735853385
 Al         4.9766174175        2.9752496881        8.1445250507
  C         6.7015945195        5.3675495051        8.2046709557
  C         7.6826509604        4.0683611670       11.0051636281
  C         3.2612623522        0.5691137150        8.1506444678
  C         3.3931411168        3.2681907769        5.7792083802
  C         3.4679351903        3.5795941488        4.3172840469
  C         4.7371063725        3.8935010789        3.7754225115
  C         4.9073124450        4.2695875084        2.4581313588
  C         3.7992166119        4.2989482066        1.5920103613
  C         2.5308278783        3.9658995188        2.0834826006
  C         2.3829087007        3.6349058440        3.4261270950
  C         8.1980719028        2.8434693785       14.6253302528
  C         6.8789744160        2.8191228789       15.0991947252
  C         5.8329050080        3.2384712467       14.2545814614
  C         6.1109540469        3.6253943051       12.9519319552
  C         7.4229975178        3.6128104502       12.4310334718
  C         8.4328231834        3.2556545811       13.3249388269
  C         6.6487469083        6.8636133523        8.1938968230
  C         3.2810284365       -0.9296928117        8.1405966772
  F         7.8230165359        3.3718369940        3.8519420057
  F         3.0420945951        3.3419635121       12.9266272329
  F         5.6114709933       -1.1224568582        8.2360630448
  F         4.3133624220        7.0512340346        8.0872363044
  H         3.3723552446        4.6352934666        8.8150023508
  H         6.7122242212        1.4549629034        7.4684518535
  H         5.5987955300        3.8470540529        4.4410154728
  H         5.8827164487        4.5506287403        2.0825264297
  H         1.6682193408        3.9703529424        1.4225957071
  H         9.0180117515        2.5476178562       15.2754304088
  H         4.8208446328        3.2684479947       14.6342973992
  H         5.2982877965        3.9644558006       12.3084372434
  N         3.8707229926        4.6780464803        0.2259990236
  N         6.7369309557        2.3941881873       16.4348138138
  O         7.8197298879        4.8502098980        7.9188772625
  O         7.5826131489        5.2812254641       10.7750278389
  O         4.3513977714        1.1515303462        7.8535181394
  O         2.2912325257        2.9442378087        6.3277328034
  O         2.1657040163        1.1349671028        8.4656939838
  O         4.5274630054        3.3608857699        6.3788529656
  O         5.6226620119        4.7556543496        8.4752381576
  O         7.9498928767        3.1077399038       10.1593567455
  O         3.3527372692        3.6649209389        8.7150860913
  O         6.6884698757        2.3765780451        7.7829272047
  O         5.0792741460        2.4015641404       10.0897818179
  C         5.5734531011        1.1437812672       10.6386311090
  H         4.8337231802        0.3465883499       10.5015236074
  H         5.7912524157        1.2835349500       11.7026387687
  H         6.4949681431        0.9080987273       10.1034283125
  H         4.2181395165        2.6315662155       10.4933140764
      50
 i =      357, E =      -412.9188882821
 Al         8.3706006782        3.0371513298        8.2737237017
 Al         4.9765351388        2.9753942993        8.1446313218
  C         6.7015443178        5.3675248353        8.2044800505
  C         7.6828135379        4.0680873972       11.0050225466
  C         3.2614609897        0.5693861000        8.1506498467
  C         3.3933178271        3.2679125448        5.7789716069
  C         3.4681351408        3.5788083130        4.3169442857
  C         4.7374123593        3.8910690875        3.7744881369
  C         4.9075532919        4.2664773482        2.4569028050
  C         3.7990643383        4.2981119872        1.5914716608
  C         2.5304921699        3.9665548835        2.0834326882
  C         2.3828810595        3.6349969449        3.4259827428
  C         8.1981835264        2.8444408191       14.6255984453
  C         6.8789428542        2.8195476029       15.0990520735
  C         5.8327295257        3.2373446401       14.2537348503
  C         6.1108467655        3.6237826563       12.9509583060
  C         7.4230739135        3.6122502116       12.4307809431
  C         8.4328474938        3.2558165576       13.3249409375
  C         6.6487563684        6.8636976122        8.1936599380
  C         3.2810179502       -0.9297025326        8.1405687092
  F         7.8229904733        3.3718863504        3.8519500577
  F         3.0421200539        3.3420066099       12.9266079897
  F         5.6114313200       -1.1224770780        8.2360435194
  F         4.3133771598        7.0512955144        8.0872586666
  H         3.3716645162        4.6354829376        8.8145964113
  H         6.7125336830        1.4553313715        7.4675118372
  H         5.5994595220        3.8436238793        4.4395318047
  H         5.8832887428        4.5453731169        2.0805929655
  H         1.6676237128        3.9723244013        1.4228212568
  H         9.0181670541        2.5496860076       15.2762541606
  H         4.8205137685        3.2663566194       14.6333121299
  H         5.2982527654        3.9614325820       12.3066243128
  N         3.8703208807        4.6774171569        0.2254308239
  N         6.7366147066        2.3950518324       16.4345839589
  O         7.8197727629        4.8501799027        7.9188351523
  O         7.5830970432        5.2810155996       10.7750000106
  O         4.3514745064        1.1516337361        7.8535441188
  O         2.2913347642        2.9441250242        6.3276131664
  O         2.1658566098        1.1351602129        8.4657569913
  O         4.5275017359        3.3610049330        6.3787963164
  O         5.6226058542        4.7556474492        8.4751296157
  O         7.9499222266        3.1075824574       10.1591580329
  O         3.3526360293        3.6649519846        8.7151134119
  O         6.6884544595        2.3765878192        7.7829734552
  O         5.0794595141        2.4016344531       10.0900581466
  C         5.5740710568        1.1431563312       10.6372004553
  H         4.8339190697        0.3462139887       10.5018060079
  H         5.7952719297        1.2825688914       11.7006444650
  H         6.4942770235        0.9075119771       10.0997472026
  H         4.2176728701        2.6304633200       10.4927446906
      50
 i =      358, E =      -412.9188891445
 Al         8.3706770644        3.0372361699        8.2736923924
 Al         4.9765411194        2.9753034617        8.1445706777
  C         6.7016260560        5.3676218104        8.2046448799
  C         7.6827498519        4.0681447641       11.0051144549
  C         3.2613740563        0.5693630988        8.1507092588
  C         3.3932311278        3.2678300089        5.7790877779
  C         3.4680670188        3.5787097881        4.3170355773
  C         4.7374326113        3.8910361964        3.7746936581
  C         4.9076453218        4.2666979818        2.4572311203
  C         3.7992012654        4.2981151155        1.5917215873
  C         2.5306243116        3.9663972333        2.0835572007
  C         2.3828600809        3.6348862493        3.4260728637
  C         8.1981530052        2.8442711590       14.6255958992
  C         6.8788594206        2.8191884012       15.0989784094
  C         5.8327267718        3.2371658375       14.2537823493
  C         6.1108687347        3.6237551326       12.9510636863
  C         7.4231182987        3.6122788026       12.4308202881
  C         8.4328451268        3.2557419996       13.3249368840
  C         6.6488128857        6.8637604292        8.1938084880
  C         3.2810189289       -0.9297004757        8.1406967203
  F         7.8229990746        3.3718810214        3.8519460846
  F         3.0421329762        3.3419969156       12.9265970377
  F         5.6114263279       -1.1224528317        8.2360660749
  F         4.3134004165        7.0512831172        8.0872581048
  H         3.3717558842        4.6353977282        8.8147994742
  H         6.7124984978        1.4550750401        7.4680717367
  H         5.5994218062        3.8434910470        4.4398177559
  H         5.8834091301        4.5459889583        2.0812453730
  H         1.6678601200        3.9720346109        1.4228404111
  H         9.0181715397        2.5495399046       15.2762102039
  H         4.8204836101        3.2661841229       14.6332164168
  H         5.2982413194        3.9613080602       12.3066650107
  N         3.8704241166        4.6775976623        0.2256705903
  N         6.7366465059        2.3943184870       16.4345681575
  O         7.8198148868        4.8501860319        7.9189260263
  O         7.5829616039        5.2810412167       10.7750724310
  O         4.3514295823        1.1515986072        7.8535768425
  O         2.2912569849        2.9441567170        6.3277638700
  O         2.1656906605        1.1350902465        8.4657742129
  O         4.5275235434        3.3608776848        6.3787893039
  O         5.6226459082        4.7558101577        8.4752060192
  O         7.9499184709        3.1076116356       10.1592273921
  O         3.3527158686        3.6648191555        8.7152340419
  O         6.6884463115        2.3765965668        7.7829512998
  O         5.0794963444        2.4015303584       10.0899138142
  C         5.5747593242        1.1433533370       10.6371769136
  H         4.8349467725        0.3459360605       10.5012891353
  H         5.7951698859        1.2829174821       11.7007181934
  H         6.4954151101        0.9084556332       10.1001097307
  H         4.2177207362        2.6302097190       10.4930150478
      50
 i =      359, E =      -412.9188890757
 Al         8.3706770644        3.0372361699        8.2736923924
 Al         4.9765411194        2.9753034617        8.1445706777
  C         6.7016260560        5.3676218104        8.2046448799
  C         7.6827498519        4.0681447641       11.0051144549
  C         3.2613740563        0.5693630988        8.1507092588
  C         3.3932311278        3.2678300089        5.7790877779
  C         3.4680670188        3.5787097881        4.3170355773
  C         4.7374326113        3.8910361964        3.7746936581
  C         4.9076453218        4.2666979818        2.4572311203
  C         3.7992012654        4.2981151155        1.5917215873
  C         2.5306243116        3.9663972333        2.0835572007
  C         2.3828600809        3.6348862493        3.4260728637
  C         8.1981530052        2.8442711590       14.6255958992
  C         6.8788594206        2.8191884012       15.0989784094
  C         5.8327267718        3.2371658375       14.2537823493
  C         6.1108687347        3.6237551326       12.9510636863
  C         7.4231182987        3.6122788026       12.4308202881
  C         8.4328451268        3.2557419996       13.3249368840
  C         6.6488128857        6.8637604292        8.1938084880
  C         3.2810189289       -0.9297004757        8.1406967203
  F         7.8229990746        3.3718810214        3.8519460846
  F         3.0421329762        3.3419969156       12.9265970377
  F         5.6114263279       -1.1224528317        8.2360660749
  F         4.3134004165        7.0512831172        8.0872581048
  H         3.3717558842        4.6353977282        8.8147994742
  H         6.7124984978        1.4550750401        7.4680717367
  H         5.5994218062        3.8434910470        4.4398177559
  H         5.8834091301        4.5459889583        2.0812453730
  H         1.6678601200        3.9720346109        1.4228404111
  H         9.0181715397        2.5495399046       15.2762102039
  H         4.8204836101        3.2661841229       14.6332164168
  H         5.2982413194        3.9613080602       12.3066650107
  N         3.8704241166        4.6775976623        0.2256705903
  N         6.7366465059        2.3943184870       16.4345681575
  O         7.8198148868        4.8501860319        7.9189260263
  O         7.5829616039        5.2810412167       10.7750724310
  O         4.3514295823        1.1515986072        7.8535768425
  O         2.2912569849        2.9441567170        6.3277638700
  O         2.1656906605        1.1350902465        8.4657742129
  O         4.5275235434        3.3608776848        6.3787893039
  O         5.6226459082        4.7558101577        8.4752060192
  O         7.9499184709        3.1076116356       10.1592273921
  O         3.3527158686        3.6648191555        8.7152340419
  O         6.6884463115        2.3765965668        7.7829512998
  O         5.0794963444        2.4015303584       10.0899138142
  C         5.5747593242        1.1433533370       10.6371769136
  H         4.8349467725        0.3459360605       10.5012891353
  H         5.7951698859        1.2829174821       11.7007181934
  H         6.4954151101        0.9084556332       10.1001097307
  H         4.2177207362        2.6302097190       10.4930150478
