209
0e64acd s3_to_s4 B (s4 augmented)
  Al        6.1640367217        1.5459880614       13.8476487074
  Al       11.3475618567        9.6090577227       13.9135895361
  Al       14.3963008068       10.0033199771       13.7784022376
  Al       12.8485612172        1.2677484626       27.3449275132
  Al       11.4538403528        4.1824559935       27.2597421802
  Al       14.4391437526        4.0528400314       27.3188121549
  H        10.3512733143        7.7878205347        5.8474036520
  H        11.3043535992        5.2800876310       23.6967735004
  H        11.3724540767        5.7415144863        7.5633076980
  H        11.1862691328        7.0249234743       17.1221894774
  H        10.0698933071        5.9862931179       19.0679762814
  H        16.4384085547        8.2532200489       19.6018305510
  H        15.1875964757        8.5677537708       17.4685847573
  H        12.1585053564        0.9294927012       23.5741718437
  H        12.8105505613        0.1365143268       21.3105413824
  H        11.7932826148        9.7166226125        7.3689342853
  H        18.4947147260       10.8828316392       18.9714014506
  H         7.3782915934        1.2133870849        5.4795498859
  H         8.4716900705        3.0794256445       24.1523311386
  H         6.7999256198        3.2086649724       22.2850663714
  H         6.3084199288        3.0054791860       19.9214471202
  H         3.9840652827        2.6792517950       17.0081245350
  H         3.5453727228        4.6221437472       21.3321333512
  H         3.7169599997        4.2699963550       18.9229724091
  H        14.0044874770        9.3943289819        5.6127786849
  H         9.0125051186        8.6524524822       19.8487978286
  H         9.5647566863        9.5302947485       17.5939262588
  H        11.3419412904        0.8745310482        5.8344672204
  H         7.3777120300        3.2890838968        7.4321443538
  H        11.3582326103        2.9524842923        7.7668216978
  H        15.3248309451       10.7552368088        7.1621204468
  H        11.9242273573       10.6334555691        3.5248516163
  H         9.8496610963        4.8393750396       22.4496657403
  H         9.0999477400        4.9537283890       20.9725263252
  H        15.9762434371        9.5305081393       24.5634021984
  H         5.8379961846        8.1143376049       21.9853955325
  H        16.7182252382       10.7180155552       15.9328909775
  H        17.8723717591       10.5610304099       17.2454257632
  H         6.7639443643        2.7602301768       16.4610875124
  H         9.6131285207        4.4663489007        6.1226320789
  H         6.3686614342        3.2943609363       18.0889623305
  H         3.8759860350        4.6966807843       23.1942328168
  H         3.4630685615        4.0658573856       24.7572852915
  H         7.4133355399        9.7484753105       23.7557425637
  H         1.2457776252       -0.2941708847       25.1887045173
  H         8.7506703100        7.8413300985       21.8970806736
  H         8.9644033335        8.7087909696       23.2865114800
  H        16.0021064708        7.3833014165        6.7041341476
  H        15.4898056593        6.7924952653        8.1829262970
  H        14.7936100339        4.2625497354        4.3838045108
  H         3.9411816761        3.6108943112        6.4852640335
  H         1.9366971804        2.7700065555        8.3212872642
  H         5.5217384620        1.3654528092        7.1917529144
  H         8.4943377520       10.0674755860        6.9620175810
  H        13.5430736956        1.2785224913        6.2741993819
  H         6.2757995221        3.8116501048       13.3073070653
  H         5.5298773590       10.6458913680        0.1523606075
  C         4.2182640228        0.3236218842       11.9503516812
  C        12.7974555718        7.7200809403        9.3716204128
  C        13.6503243725        5.0389594630        5.7187759289
  C        10.4708154286        2.5654165857        7.2611339099
  C        12.8178839954        8.2710771848       11.9537585493
  C        10.4643615690        1.4055518854        6.2121165668
  C         9.8889653524        2.5620150507        2.7071555152
  C         8.8346414777        1.4501396824       10.5467451594
  C         9.4985237347        3.4072709134        6.3692247474
  C         9.5000264028        2.2528983181        5.2859168026
  C         8.2582585015        2.7549111612        7.0630323482
  C         9.2226949965        1.9077033035        7.9896160398
  C        12.8230935389        7.8267640663       10.5870336010
  C         8.2532817629        1.5930651946        6.0131301630
  C         9.2268376258        0.7513866446        6.9053709575
  C         9.6675809824        2.4215965873        3.8964142552
  C         8.3590636471        1.0574160383       11.8412255693
  C         9.0506145580        1.6898213068        9.3727115641
  C         2.4585936295        2.1304940351        7.6072622868
  C         3.5713901659        2.5898699092        6.6122533917
  C         2.4258617724        2.4927757608        2.9675027312
  C         3.7623368198        0.4059115726       10.5830060490
  C         1.7717443117        1.2784788845        6.4963843782
  C        13.1478076623        6.3506971915        6.1670440874
  C         2.8678804523        1.7675438604        5.4636886885
  C         2.6437562094        0.0360045123        6.8714416815
  C         3.3391737488        0.8763921855        8.0254995378
  C         3.7561475321        0.4860741936        5.8757452110
  C         4.2148484320        0.3121007206       15.8070640675
  C         4.4485664104        1.3503680320        6.9858740492
  C         2.6390103528        2.1716005977        4.1262548575
  C         3.5707457674        0.5429039424        9.3854797551
  C        12.0726294613        7.1947480487       17.7334758007
  C        12.0707111664        6.8170969672       19.0894641148
  C        12.6152152774        7.5146312019        5.2113004301
  C        12.0617684174        6.1835031780       21.8623667081
  C        10.9020151456        5.9026451632       21.0376210182
  C        10.9380185308        6.2070871169       19.6928150929
  C        12.1006613801        5.8560555108       23.2281689282
  C        13.1439389410        6.2758132917       24.0486202696
  C        13.1096174647        8.3130834924       15.7510390298
  C        14.3319324895        8.0667722789       17.9219820470
  C        14.3599039268        7.7182976405       19.2821584883
  C        13.2258292273        7.0987453572       19.8848067015
  C        15.5249169084        7.9058923095       20.0839854631
  C        13.9899043259        7.4788021442        6.9868706486
  C        15.5511510219        7.5952788915       21.4237837730
  C        14.3434470497        7.1492415660       22.1040121879
  C        13.2197459709        6.7921841814       21.2769769798
  C        14.2034492750        7.0595084976       23.5184386317
  C        13.1837852882        7.8167755477       17.1544600549
  C         9.9674051507        0.5681201578       17.6795548851
  C         8.4278158702        0.9913004552       15.7281127369
  C        10.3236139511        0.7932917964       19.0424715857
  C        10.9373679419        1.1298735449       21.7993943933
  C        11.8551859510        0.4832618645       20.9182623387
  C        12.7470850932        7.6293532258        7.9610137832
  C        11.5477000215        0.3154081023       19.5981639183
  C        11.2260806219        1.3098730386       23.1592876887
  C        10.3536598508        2.0327614121       23.9777978736
  C         7.9865745581        2.0463927540       17.9571958507
  C         8.2123008426        2.0674303532       19.3701964556
  C         9.4083499774        1.4930820449       19.8862233870
  C         7.2832960576        2.6648889605       20.2728010631
  C        11.9429825141        6.5587584691        7.1165553938
  C         7.5422664519        2.7752164354       21.6127016750
  C         8.7841324203        2.3122493323       22.1484327161
  C        13.4136831061        8.5868619351        6.0521916629
  C         9.7045787860        1.6376262786       21.2768596546
  C         9.1432430792        2.5324894249       23.4892384059
  C         8.8135555293        1.2104106635       17.1205013665
  C         3.7283957768        1.8600387936       17.6794517980
  C         3.4801995788        2.1056418989       19.0379111326
  C         3.2138835744        2.5265225449       21.8387504870
  C         3.4652625705        3.6075534007       20.9433905739
  C         3.5660113107        3.4206596603       19.5922412186
  C        11.3816195340        7.6883385144        6.1930352127
  C         3.1769197201        2.7337896630       23.2533687998
  C        12.1830740619        8.7659515975        6.9980235666
  C         2.6037824185        1.7200449150       24.0972637061
  C         9.5621929308       10.5401713685       18.0032728518
  C         3.0862571206       -0.3157817891       19.3691400278
  C         3.1806597200        1.0072073969       19.9104311112
  C         9.0032593810        9.6682281827       20.2501094731
  C         8.7785829293        9.8549249398       21.5960221309
  C         2.6192956789        0.1256290190       22.1687673163
  C         3.0008957278        1.2150162668       21.3151517505
  C         2.2547613949        0.4334535163       23.5256629044
  C        12.6991312903        7.0697923206        2.6214160328
  C        12.6217929641        7.3508904731        3.8056300022
  C         3.7055813560        0.5534467253       17.1781698560
  C        10.4759299244        2.7843480236        1.4205614582
  C        12.7034203244        6.3716215173        1.3672478951
  C         1.9320666580        2.7802953537        1.6369334990
  C        10.8111261811        2.3171487229       25.3537700972
  C        13.1311348991        5.7149417649       25.4434157810
  C         2.2284067254        2.0366913644       25.4720458746
  C        10.5177913502       10.7054731034        4.7891793349
  C        14.8794871201        7.9859656314       24.4767749842
  C        16.8909336888        7.4686139145       22.0706441756
  N         9.7322981680        5.4248836759       21.6220099355
  N        16.9341984760       10.7777768243       16.9300260840
  N         7.0047284863        2.8293435258       17.4531896912
  N         3.6542995027        3.8875495005       23.7717928722
  N         1.5785039419       -0.5018457328       24.2427309238
  N         8.4841650266        8.7042889861       22.3824854860
  N        15.3153832753        7.4895249168        7.4547272263
  O         7.4974692461        1.7957710537       12.3923831027
  O        13.8281559412        6.0564584870        0.8494086318
  O         2.3347032361        3.8739343207        1.0797543392
  O         4.8884645658        1.3083322104       12.3712058618
  O         1.4420876959        1.2448428165       26.0844983403
  O        11.5330538707        1.4485030449       25.9157740106
  O        10.4845822852        3.4738356519       25.8518686243
  O        11.9923476828        5.5380979089       25.9988295182
  O        14.2401495814        5.2818544242       25.9134515062
  O         2.6554497442        3.1242744943       26.0731004610
  O        12.9087155314        3.1900168211       27.3182787736
  O        11.9742323387        8.2995336622       15.1611655937
  O        10.1537158016       10.3182623986       12.6173360475
  O        11.6805222550        8.3436307241       12.5365643776
  O        13.9342830871        8.6207930507       12.4587233081
  O         8.8270390792       -0.0504969377       12.3020740003
  O         7.4792350989        1.6776373565       15.2354871623
  O         4.8220866428        1.2569210913       15.2284011893
  O        10.2734442307       10.1871387882       15.3045821212
  O         9.9557369363        9.7362042439        4.3120175077
  O         5.5012216621        0.1204800890        4.3101873402
  O        14.6596027277        8.0112489222       25.6786514140
  O        14.1822406576        8.7717436428       15.2303242192
  O        15.6419338908        8.9344013666       23.8582165854
  O         4.3411320906        6.6292153692       22.9194446703
  O         4.9782362214        8.3040995547       21.5436020679
  O        13.3273269437        3.9694735524        6.2271345491
  O        14.5340981976        5.1643623491        4.6995098548
  O         9.0333019711        0.0932100308       15.0077567380
  O        12.7242143733       10.7095907753       13.8341988928
  O         1.1174305581        1.9460707035        1.1698526729
  O        11.2755589620        1.8937438369        1.0027497628
  O        10.1854774991        3.8918858044        0.8324419598
  O        11.5468714247        6.0488165088        0.9144006862
  O         5.8488432968        3.2798270558       13.9934010496
  O        12.8988309749       -0.4901576929       27.2330152266
  O        16.2550730763        9.2047678209       13.5451594442
  O        18.8827007523       13.7990261964       12.9298484696
  C        16.5842957641        7.7969143230       13.7263333309
  H        15.9508437331        7.1690855025       13.0878413686
  H        16.3907892177        7.5683468066       14.7774988424
  H        16.5072821613        9.4958339582       12.6460876498
  H        17.6456607476        7.6433103499       13.4991811699
  H        19.4136066815       13.5403507320       12.1729958429
  H        19.4538635305       13.6488690045       13.6867010962
