200
0e64acd s0 final converged frame
Al         6.3399136261       1.5208066432      13.8195811836
Al        11.3364535579       9.6254447433      13.8841434957
Al        14.3344578094       9.9337659723      13.7857382249
Al        12.8514545841       1.2666716257      27.2940342097
Al        11.4638053025       4.1845485103      27.2562723210
Al        14.4466874387       4.0500670069      27.2988231372
H         10.3687509296       7.8717171810       5.8791182142
H         11.2870681954       5.2909353695      23.6871882700
H         11.2747236601       5.7927235966       7.6202225488
H         11.1562221781       6.9963344803      17.1055070305
H         10.0450467428       5.9698442377      19.0575625327
H         16.4151652677       8.2405672301      19.5714742191
H         15.1733165552       8.5099496770      17.4238833877
H         12.2169972351       0.9863774865      23.6163739816
H         12.9649917125       0.2067154427      21.3753326398
H         11.9395084288       9.7301723395       7.3651508207
H         18.7062349666      10.8846312908      19.0290665235
H          7.5095245341       1.1241615486       5.4959279929
H          8.4791930781       3.0822701940      24.0604946306
H          6.8761644695       3.1930179934      22.1268203256
H          6.4788114724       2.9795134218      19.7436487117
H          4.1866403569       2.7544344487      17.0367463662
H          3.7706296521       4.6354516098      21.3872204988
H          3.9537586527       4.3124998119      18.9750364658
H         14.1133529816       9.2443614806       5.6009632437
H          9.2496235171       8.6836219300      19.8147361749
H          9.7081836754       9.6042631172      17.5522068239
H         11.4693396502       0.6926644373       5.7657026184
H          7.5830936925       3.1137456097       7.5382892869
H         11.5536703525       2.6900099910       7.7901325039
H         15.4531977056      10.5620751257       7.0791978438
H         12.0406809246      10.6137427113       3.5311081595
H          9.8319737997       4.8523745117      22.4488389034
H          9.0760072163       4.9568038863      20.9744387624
H         15.9878485448       9.5190994559      24.5662777234
H          5.8053063145       8.0857695100      21.9963928734
H         16.9118622026      10.4619075141      16.0147458388
H         18.0260054751      10.3354852092      17.3606269553
H          7.1005317123       2.7777679142      16.3008370982
H          9.8192929891       4.3025489753       6.2436937679
H          6.7098885859       3.3687079246      17.9059870782
H          3.9612623056       4.7173741237      23.2622087022
H          3.5582842885       4.0474519780      24.8071234763
H          7.6999724428       9.6790492272      23.7455023257
H          1.3893389906      -0.3227970321      25.1418428889
H          8.9857495113       7.8412945299      21.8677701711
H          9.3019498337       8.7018300930      23.2460621388
H         15.9944508468       7.1414705368       6.7133922272
H         15.4570362124       6.6139499301       8.2135663345
H         14.5570843965       4.0480795294       4.4348869881
H          3.9559365129       3.6746086717       6.4060532578
H          2.0070003158       2.7979527653       8.2856468164
H          5.6213462958       1.4951819106       7.1306602492
H          8.6695893388      10.0900460513       6.9830396508
H         13.6327202304       1.2345326700       6.2856947494
H          6.6329415253       3.7864570235      13.2979864555
H          5.7346888901      10.6291844114       0.1969013308
C          4.3329194292       0.3585376897      11.9182501743
C         12.8363771474       7.6854039275       9.3896517769
C         13.5233670516       4.9239093744       5.8083784577
C         10.6554184468       2.3374619069       7.2807077136
C         12.8943584263       8.2319005263      11.9657079104
C         10.6100296430       1.2261118603       6.1807170320
C          9.9948132697       2.5508469137       2.7371962987
C          9.0649312830       1.1624976172      10.5551533910
C          9.6864146218       3.2360602580       6.4440152945
C          9.6475322057       2.1330906799       5.3087198332
C          8.4452008488       2.5780761987       7.1298174158
C          9.4083469370       1.6716332992       8.0010572716
C         12.8909987701       7.7791643889      10.6050865886
C          8.4002570295       1.4647279356       6.0294980672
C          9.3714765048       0.5659740831       6.8667632177
C          9.7942050735       2.3629348925       3.9242195387
C          8.5500407974       0.8303451020      11.8492950513
C          9.2605682230       1.4113123777       9.3792693862
C          2.5396770961       2.1652238406       7.5744754523
C          3.6229061900       2.6441666896       6.5562562214
C          2.4547198375       2.4519216897       2.9252882277
C          3.8981479126       0.4838123459      10.5522716638
C          1.8645383654       1.2733732180       6.4880834161
C         13.0690601132       6.2689561820       6.1979002112
C          2.9315930767       1.7782151860       5.4307282897
C          2.7822392062       0.0681482304       6.8705029939
C          3.4656933462       0.9477986089       7.9982907746
C          3.8684488437       0.5379205882       5.8559723283
C          4.3374581215       0.4061787111      15.7806088111
C          4.5468823870       1.4412713717       6.9395703772
C          2.6791457887       2.1481565483       4.0868301279
C          3.7119834451       0.6305458640       9.3563159362
C         12.0449848305       7.1706233151      17.7121292965
C         12.0440103348       6.8070783911      19.0715814378
C         12.6091827049       7.4512032361       5.2313473296
C         12.0364086706       6.1973661344      21.8502271408
C         10.8784674805       5.9061809212      21.0272646592
C         10.9124794204       6.1996570441      19.6801635824
C         12.0788696598       5.8715309398      23.2163630114
C         13.1257648826       6.2905905624      24.0322546566
C         13.0831738882       8.2657999568      15.7186132628
C         14.3112865877       8.0295919666      17.8868896930
C         14.3349335849       7.7071566540      19.2545512338
C         13.1981698761       7.0994701268      19.8648048557
C         15.4991127538       7.9046498524      20.0572109810
C         13.9891266713       7.3555029857       7.0030067328
C         15.5205507776       7.6116833788      21.4013839760
C         14.3134126331       7.1710466081      22.0852972169
C         13.1908208056       6.8075172697      21.2605928183
C         14.1798678905       7.0795990770      23.5002904363
C         13.1602438977       7.7770949789      17.1236518390
C         10.1640392528       0.4480318932      17.6906452500
C          8.6456102145       0.8016259721      15.7042698663
C         10.5112847319       0.7459505154      19.0409642761
C         11.0541804510       1.1589275183      21.8003776799
C         12.0091160098       0.5174013152      20.9539044793
C         12.7654220775       7.5930132049       7.9811483247
C         11.7338222267       0.3083643774      19.6322311271
C         11.2945965988       1.3527942367      23.1672101303
C         10.3814096300       2.0626941018      23.9536122304
C          8.2304563015       2.0026542351      17.8547172524
C          8.4029595488       2.0429013702      19.2754481671
C          9.5768850737       1.4716123898      19.8406398091
C          7.4417129648       2.6497083900      20.1360283196
C         11.8901539023       6.5658486732       7.1551111833
C          7.6487738771       2.7657106758      21.4852118865
C          8.8740061608       2.3158928760      22.0695679193
C         13.4759966486       8.4821439030       6.0555940663
C          9.8304829066       1.6432238323      21.2360409096
C          9.1825371461       2.5452786397      23.4223168203
C          9.0381636268       1.0906994926      17.0784469443
C          3.9274525260       1.9258280590      17.6952192986
C          3.6937615586       2.1504678617      19.0600344426
C          3.4155128914       2.5375507854      21.8650298506
C          3.6835797860       3.6270423601      20.9853658225
C          3.7914098684       3.4562810720      19.6327153289
C         11.3939901543       7.7151079960       6.2186898051
C          3.3317876238       2.7345612024      23.2792673906
C         12.2659093233       8.7512528268       7.0061084991
C          2.7302955788       1.7141496123      24.0898982084
C          9.7288960404      10.6058086394      17.9811797131
C          3.2871433494      -0.2739444870      19.3571545042
C          3.3926936249       1.0406071428      19.9178430396
C          9.2288114242       9.6943235624      20.2278242882
C          9.0263096570       9.8621517597      21.5799848577
C          2.8434339696       0.1269012245      22.1658979710
C          3.2150554277       1.2304998190      21.3257475812
C          2.4444873541       0.4161996367      23.5164700781
C         12.7031344614       7.0377393508       2.6348719824
C         12.6127688849       7.2939149033       3.8241287893
C          3.8702596949       0.6304709678      17.1689125392
C         10.5499893694       2.7782992500       1.4360909621
C         12.7077739129       6.3624181760       1.3681137408
C          1.9736515897       2.7481617171       1.5905555638
C         10.7909534705       2.3342581551      25.3480826587
C         13.1313216639       5.7134795164      25.4205869638
C          2.2437667501       2.0445570895      25.4268572572
C         10.6195583883      10.7457312431       4.7776915410
C         14.8689266500       7.9925195446      24.4641378137
C         16.8521822236       7.4759496906      22.0588529533
N          9.7113808509       5.4323483368      21.6178841842
N         17.1130587004      10.5926180244      17.0049539556
N          7.3115578861       2.8243514852      17.3004308729
N          3.7826789955       3.8878323707      23.8258642487
N          1.8055592458      -0.5465966601      24.2344414398
N          8.7723846462       8.7082263537      22.3702865028
N         15.3126049075       7.2895970570       7.4599575598
O          7.6641103152       1.5981780755      12.3208557295
O         13.8310402260       6.0550381053       0.8409603055
O          2.3342694060       3.8765205547       1.0767798267
O          5.0196750285       1.3149318512      12.3787258754
O          1.3389075551       1.3078246430      25.9308906004
O         11.4732885624       1.4465277506      25.9252451029
O         10.4781825153       3.4932220641      25.8485374371
O         12.0024772055       5.5400573068      25.9961850674
O         14.2482742068       5.2633356284      25.8577881515
O          2.6858245289       3.0909593553      26.0831788958
O         12.9155732340       3.1892419534      27.3131173692
O         11.9272130548       8.3562003620      15.1748370703
O         10.2288921539      10.3319727011      12.5398098673
O         11.7544664428       8.3436615560      12.5388692305
O         14.0218055346       8.5611261334      12.4717388238
O          8.9964855446      -0.2548263447      12.3918848780
O          7.7653787534       1.5301504700      15.1515821150
O          5.0106502930       1.3250211535      15.2301231567
O         10.2844421883      10.3196508015      15.2314761552
O         10.0140584702       9.8007361776       4.3042421275
O          5.6278922413       0.1132118807       4.3105804782
O         14.6545207213       8.0081847721      25.6670119269
O         14.1731984711       8.6322300716      15.1540641416
O         15.6409081144       8.9374353833      23.8547285610
O          4.2784252921       6.6351692262      22.9142863929
O          4.9600174339       8.2982178830      21.5421241218
O         13.2877033334       3.9048172085       6.4523085682
O         14.2823214438       4.9630637382       4.6911806476
O          9.1669701407      -0.2212816132      15.0656059365
O         12.7425636061      10.6903139662      13.8325927380
O          1.2126487786       1.8888301080       1.0782731997
O         11.3477756719       1.8908271055       1.0070936506
O         10.2380840625       3.8769359830       0.8425198905
O         11.5495342995       6.0505570674       0.9109336577
O          6.2061972567       3.2648620982      13.9916728920
O         12.9036138026      -0.4883178496      27.1553501075
