203
0e64acd s1 final converged frame
Al         6.3176339483       1.5680267151      13.8221952563
Al        11.3428117895       9.6631405485      13.9079521103
Al        14.3512610465       9.9485647449      13.7869518079
Al        12.8522966401       1.2673590019      27.2957073942
Al        11.4656207868       4.1865991407      27.2543936293
Al        14.4460147743       4.0530773977      27.3042654967
H         10.3577223455       7.8631386262       5.8716185559
H         11.2982280869       5.2847686653      23.6806404126
H         11.2634043415       5.7885373908       7.6186144025
H         11.1498279293       7.0011416096      17.1009775923
H         10.0412403885       5.9740813987      19.0574099740
H         16.4138287483       8.2366135785      19.5491459193
H         15.1729416836       8.4972126627      17.4079778848
H         12.1910452951       0.9801030254      23.6147856478
H         12.9276436909       0.2061165424      21.3731346315
H         11.9203567678       9.7275622267       7.3585453917
H         18.6624220966      10.9009068338      19.0250298948
H          7.4860541537       1.1403375731       5.4862087192
H          8.4653482218       3.0920091968      24.0818851395
H          6.8574293324       3.2238236841      22.1517787271
H          6.4514107982       3.0246852173      19.7692174038
H          4.1504549261       2.8107513726      17.0437542615
H          3.7064530831       4.6853380666      21.3974279710
H          3.8892481371       4.3683531097      18.9835501095
H         14.1006837000       9.2439770140       5.6022334772
H          9.2850645380       8.7240909977      19.8186950487
H          9.7444811080       9.6515898620      17.5675144591
H         11.4446839408       0.7097632017       5.7772250434
H          7.5511768452       3.1467464774       7.5126501869
H         11.5212211779       2.7228189274       7.7848769316
H         15.4206955010      10.5904791104       7.0905106199
H         12.0333093916      10.6181480773       3.5284117106
H          9.8381620381       4.8541803073      22.4494443971
H          9.0759269337       4.9629771276      20.9777286050
H         15.9795981107       9.5227793575      24.5645043759
H          5.8138261701       8.1126847219      21.9260223957
H         16.8572344700      10.5307214386      16.0159648392
H         18.0118168671      10.4252841648      17.3303997962
H          7.0560092931       2.8129726522      16.3157233114
H          9.7934363643       4.3239866886       6.2169636823
H          6.6566996483       3.3952070338      17.9226270454
H          3.9369625398       4.7578466814      23.2702106468
H          3.5280423853       4.0879308253      24.8157119256
H          7.7105850694       9.6976730558      23.7391493638
H          1.3834087402      -0.3070817553      25.1389199567
H          9.0166053001       7.8770046413      21.8707514072
H          9.3291701091       8.7386016652      23.2502916332
H         15.9790403994       7.1359757864       6.7159700352
H         15.4399006975       6.6071330975       8.2137491918
H         14.5594388889       4.0501891288       4.4381906566
H          3.9593090986       3.6679044244       6.4196336030
H          2.0049500540       2.7935594853       8.2925531168
H          5.6212238996       1.4882296503       7.1455380101
H          8.6689647906      10.0844456932       6.9911406993
H         13.6340100341       1.2288807941       6.2930339143
H          6.6298587912       3.8322694077      13.3088315860
H          5.7284268214      10.6284998041       0.1923082980
C          4.3022678878       0.4029358759      11.9503007941
C         12.8110306940       7.7027266960       9.3892139178
C         13.5209679670       4.9236063320       5.8098100685
C         10.6246223093       2.3670519368       7.2745487527
C         12.8572667230       8.2891642815      11.9601041408
C         10.5833292163       1.2462951055       6.1840215942
C          9.9847202315       2.5488502734       2.7296213266
C          9.0235880508       1.2244101068      10.5521156850
C          9.6594858471       3.2592952399       6.4263932847
C          9.6249978088       2.1464031578       5.3009880826
C          8.4148994497       2.6075761217       7.1121875096
C          9.3739188575       1.7082359567       7.9946426471
C         12.8531544703       7.8236778928      10.6025943456
C          8.3742432592       1.4849803037       6.0211417856
C          9.3411718407       0.5925915175       6.8701313175
C          9.7775839643       2.3664159886       3.9161073494
C          8.5146720092       0.8951292680      11.8495605321
C          9.2216999419       1.4610122534       9.3743098816
C          2.5391477190       2.1594309853       7.5837080270
C          3.6245132436       2.6376555058       6.5677064371
C          2.4540961588       2.4501998850       2.9323150699
C          3.8710294337       0.4950967997      10.5773804599
C          1.8658270942       1.2680933430       6.4960510297
C         13.0609655351       6.2672351064       6.1996201008
C          2.9339267922       1.7736618500       5.4390660979
C          2.7824678949       0.0625938580       6.8808028055
C          3.4634717350       0.9414691448       8.0127656377
C          3.8701241288       0.5322116228       5.8669455257
C          4.3480553224       0.4491525635      15.8048753777
C          4.5468824772       1.4341288399       6.9536310319
C          2.6809524556       2.1451180143       4.0938202342
C          3.6996397491       0.6301064995       9.3766427672
C         12.0416109695       7.1689987980      17.7050412001
C         12.0441064136       6.8018639216      19.0638720478
C         12.6006408350       7.4473863366       5.2309276469
C         12.0461964997       6.1883175316      21.8417984975
C         10.8836600453       5.9028663353      21.0231438545
C         10.9127072790       6.1986261772      19.6762293273
C         12.0906290627       5.8631340347      23.2081574931
C         13.1373074519       6.2838201163      24.0228924862
C         13.0804442752       8.2692143956      15.7118171571
C         14.3109025611       8.0191862948      17.8733465708
C         14.3368897313       7.6955384812      19.2399627740
C         13.2018442309       7.0893300310      19.8536105535
C         15.5013757835       7.8967629767      20.0384103195
C         13.9755105254       7.3559548933       7.0061779090
C         15.5287641888       7.6083804156      21.3836699324
C         14.3249647074       7.1617662506      22.0710919802
C         13.1999510372       6.7965142504      21.2490608002
C         14.1915882364       7.0719944169      23.4860305900
C         13.1568949626       7.7723526992      17.1141205945
C         10.1271618791       0.4946185141      17.6954736320
C          8.6125143882       0.8593612178      15.7089255859
C         10.4764187563       0.7824344958      19.0451427025
C         11.0239016405       1.1698853291      21.8037460145
C         11.9746469118       0.5280329992      20.9532886968
C         12.7486627193       7.5943732607       7.9809098695
C         11.6964887598       0.3306580881      19.6311933454
C         11.2686748503       1.3527241588      23.1705461533
C         10.3616522655       2.0628889602      23.9628602397
C          8.1898078711       2.0425446525      17.8689503291
C          8.3697848056       2.0812661321      19.2893525945
C          9.5447337736       1.5058018611      19.8493734828
C          7.4136668468       2.6871395868      20.1566904469
C         11.8786429759       6.5624814412       7.1544257856
C          7.6254819163       2.7947477393      21.5059818368
C          8.8495818448       2.3351258884      22.0853227928
C         13.4634982781       8.4809985571       6.0560469778
C          9.8017390952       1.6651981515      21.2452088363
C          9.1631599309       2.5540673433      23.4385894050
C          8.9996574255       1.1376898819      17.0874531112
C          3.9040425528       1.9802565993      17.7048123157
C          3.6645635357       2.2021261588      19.0685907245
C          3.3863827945       2.5814964009      21.8721930695
C          3.6353515460       3.6764053706      20.9939532319
C          3.7425155493       3.5092385976      19.6410682819
C         11.3823522386       7.7093333902       6.2144757070
C          3.3069614317       2.7733257137      23.2861487371
C         12.2498048542       8.7488031069       7.0019539052
C          2.7175741791       1.7420777918      24.0924236593
C          9.7446636330      10.6533958516      17.9954939812
C          3.2936691282      -0.2292433440      19.3675758429
C          3.3802302425       1.0871627231      19.9257911219
C          9.2487772448       9.7334682801      20.2339453580
C          9.0414858983       9.8978796969      21.5846844346
C          2.8422852876       0.1624509648      22.1687871866
C          3.2010917962       1.2726233567      21.3324066490
C          2.4367566527       0.4452080756      23.5169608649
C         12.7004378096       7.0378949079       2.6343621309
C         12.6074663436       7.2907650582       3.8240361344
C          3.8715933742       0.6824460062      17.1849726622
C         10.5474764474       2.7777737706       1.4326080099
C         12.7065887042       6.3634439633       1.3677712705
C          1.9739618050       2.7474436928       1.5951755838
C         10.7844192271       2.3337421063      25.3528497936
C         13.1384037030       5.7133473452      25.4158812710
C          2.2382118104       2.0567232106      25.4317032109
C         10.6192650880      10.7438766562       4.7833269667
C         14.8736784399       7.9915731681      24.4465387231
C         16.8669226227       7.4973214747      22.0317580591
N          9.7175211575       5.4336751348      21.6183817570
N         17.0773377392      10.6418176090      17.0038279310
N          7.2624917261       2.8559687008      17.3165262652
N          3.7466420313       3.9306223842      23.8333312805
N          1.7966941277      -0.5209888821      24.2281528399
N          8.7995443687       8.7420119436      22.3746299784
N         15.2992731641       7.2884537031       7.4641357642
O          7.6304155426       1.6632313861      12.3226818217
O         13.8305535322       6.0558708061       0.8417951967
O          2.3341981858       3.8757471716       1.0804978352
O          4.9930132928       1.3715832998      12.3803970570
O          1.3395341978       1.3112579748      25.9348473728
O         11.4722439609       1.4473187378      25.9253187949
O         10.4777172464       3.4952799115      25.8503294997
O         12.0092012030       5.5412787013      25.9925337110
O         14.2532626599       5.2648559115      25.8586927149
O          2.6831631594       3.0985157946      26.0905805673
O         12.9158472666       3.1901492727      27.3138478462
O         11.9262653074       8.3547232812      15.1643508020
O         10.1953441253      10.4001358365      12.6102385125
O         11.7190969484       8.4075316569      12.5347131841
O         13.9844321792       8.6169457350      12.4619331406
O          8.9699750824      -0.1857037289      12.3899314193
O          7.7381693314       1.5931856973      15.1542354244
O          4.9812494120       1.3813522605      15.2276313467
O         10.3448887570      10.3344155829      15.3003362704
O         10.0115781207       9.8024106412       4.3055744727
O          5.6256322754       0.1135615624       4.3121498717
O         14.6511725587       8.0080382025      25.6468773903
O         14.1699210309       8.6425052050      15.1553102496
O         15.6437034581       8.9416048707      23.8474790349
O          4.3126724733       6.6946833475      22.9163543732
O          4.9651568421       8.3012031985      21.4677461209
O         13.2879304439       3.9036501757       6.4532497105
O         14.2811221204       4.9645964059       4.6929336169
O          9.1415008899      -0.1591001900      15.0706741209
O         12.7491937884      10.7198515965      13.8378783326
O          1.2134794888       1.8888311125       1.0807068836
O         11.3476832118       1.8909776429       1.0065418609
O         10.2386969189       3.8780165468       0.8411652065
O         11.5490354138       6.0512830275       0.9095766905
O          6.1738667877       3.3202488245      13.9912299726
O         12.9034261641      -0.4876137697      27.1550572539
C         17.6907772053       9.2534731217      13.6391797619
O         16.6318129250       8.7361165250      13.6892756190
O         18.7495160711       9.7523104893      13.6140160025
