205
0e64acd s2 final converged frame
Al         6.3013663318       1.5300628052      13.8258313803
Al        11.4122295287       9.6279479366      13.9029152479
Al        14.4722838767       9.9342964484      13.8071850602
Al        12.8511171292       1.2662250445      27.2954004764
Al        11.4671926532       4.1858562031      27.2582419707
Al        14.4503976133       4.0461990072      27.2975120148
H         10.4078443012       7.8302741831       5.8804523305
H         11.2858726333       5.2937505255      23.7144177431
H         11.3545354195       5.7497545205       7.5968555244
H         11.1278233359       7.0159937649      17.1410310977
H         10.0264878839       5.9691293536      19.0901150499
H         16.4053823230       8.2134059560      19.5716006165
H         15.1499473150       8.4978992776      17.4395895639
H         12.1759499900       0.9901729045      23.6111132804
H         12.9103185469       0.2692747170      21.3519404419
H         11.9441753098       9.7042163376       7.3818501795
H         18.6559945724      11.0626333301      18.9779687094
H          7.4485692509       1.1725874739       5.4981174398
H          8.4385048361       3.0667866202      24.1345416189
H          6.8081524118       3.1976296882      22.2281218960
H          6.3875945134       3.0408282788      19.8458037059
H          4.0628946860       2.7376597876      16.9980591903
H          3.6308388918       4.6431525297      21.3366018099
H          3.7957253382       4.3078152791      18.9237806557
H         14.1256480579       9.2785872207       5.6090291179
H          9.2088119795       8.6703052229      19.8159786271
H          9.6853393995       9.5775673295      17.5523221824
H         11.4088560870       0.7630260794       5.7959250639
H          7.5042474206       3.2055892877       7.4953873726
H         11.4792308016       2.8032461309       7.7733242808
H         15.3896161459      10.6520056172       7.1242741069
H         12.0070089789      10.6242496315       3.5332123559
H          9.8270384167       4.8459190542      22.4827487122
H          9.0643365800       4.9542987498      21.0112122640
H         15.9869818546       9.5222366377      24.5651446525
H          5.8251104919       8.0263295681      21.9244260782
H         16.7287716374      10.5598156902      16.0582877815
H         17.7790523662      10.2880172403      17.4252285410
H          6.9310310330       2.8254121537      16.3960062388
H          9.7432702379       4.3757145655       6.1852798854
H          6.5058992179       3.3619848389      18.0102617503
H          3.8949437304       4.7288251574      23.2117265354
H          3.5079394194       4.0661871936      24.7644792775
H          7.6481512973       9.6855330527      23.7433996227
H          1.3594870741      -0.3204831529      25.1423847826
H          8.9583053466       7.8391553234      21.8729695548
H          9.2479704334       8.7113688864      23.2497166178
H         16.0410150920       7.1469259264       6.7048262277
H         15.5000426165       6.6285510002       8.2036104888
H         14.7064622024       4.1252955773       4.3986566354
H          3.9195670001       3.6159155587       6.4455054452
H          1.9403277388       2.7395560932       8.2887385278
H          5.5560282629       1.4140338443       7.1613065661
H          8.5852559309      10.0381747257       6.9512669215
H         13.5779730070       1.2069000477       6.2561603527
H          6.4008838517       3.7859357289      13.2105027681
H          5.7021240062      10.6259105754       0.1784565217
C          4.3296794398       0.2999642757      11.9097280316
C         12.8861431333       7.6824829905       9.3853038923
C         13.6045113742       4.9489114077       5.7480786723
C         10.5822891327       2.4373196397       7.2699053745
C         12.9491972890       8.2662233380      11.9610679579
C         10.5454468866       1.3009694668       6.1960624053
C          9.9706821023       2.5485022573       2.7256673954
C          9.0029123653       1.3200679090      10.5656569449
C          9.6134994827       3.3134215734       6.4090390590
C          9.5850262043       2.1841712952       5.2991055755
C          8.3714566810       2.6655030634       7.1037670093
C          9.3339759804       1.7831174899       7.9999682948
C         12.9431533915       7.8092832179      10.5976177402
C          8.3359885616       1.5280624148       6.0277954097
C          9.3058114228       0.6517690751       6.8903745861
C          9.7470412890       2.3837897752       3.9117506624
C          8.5287683275       0.9704267440      11.8745616411
C          9.1876104625       1.5505969946       9.3839282827
C          2.4761798139       2.1070170597       7.5790475911
C          3.5752464789       2.5868160339       6.5784602524
C          2.4465402628       2.4491302501       2.9308864911
C          3.8464039147       0.3920031882      10.5524951795
C          1.8071770274       1.2333007328       6.4739293419
C         13.1403106528       6.2785774095       6.1810196949
C          2.8900938492       1.7403714690       5.4342015507
C          2.7090262569       0.0146365377       6.8549213359
C          3.3872169845       0.8758910875       8.0028128358
C          3.8096126950       0.4852457515       5.8566691911
C          4.2958685139       0.3787832492      15.7725229074
C          4.4829700677       1.3717257866       6.9587356438
C          2.6556089800       2.1305904182       4.0917534485
C          3.6339066080       0.5438734905       9.3601563750
C         12.0198280521       7.1790565362      17.7457073984
C         12.0259211322       6.8040951424      19.1009342629
C         12.6529186307       7.4612081519       5.2269283377
C         12.0304894492       6.1921370888      21.8728089559
C         10.8683111356       5.9009028209      21.0567622660
C         10.8961486786       6.1962799849      19.7104772320
C         12.0763572740       5.8712450289      23.2381581951
C         13.1270684126       6.2923217869      24.0463078946
C         13.0582567771       8.2961659844      15.7662832118
C         14.2900717229       8.0258102727      17.9130412789
C         14.3210585247       7.6953862539      19.2745392999
C         13.1854309345       7.0904840900      19.8874955046
C         15.4905256663       7.8863635316      20.0647250033
C         14.0380626691       7.3699339412       6.9930108733
C         15.5208437928       7.5962550551      21.4077109547
C         14.3145353858       7.1613205976      22.0982838176
C         13.1857315612       6.7980784946      21.2808199301
C         14.1834921779       7.0756974982      23.5121207038
C         13.1330604428       7.7878078420      17.1605589513
C         10.1069512604       0.6311020300      17.6879634749
C          8.5435235646       0.9615431502      15.7407577575
C         10.4442435697       0.8739497926      19.0483180555
C         10.9915859850       1.1879497919      21.8119614429
C         11.9496524066       0.5826771353      20.9431775347
C         12.8123252306       7.5794379152       7.9760163599
C         11.6769064158       0.4301280856      19.6137718111
C         11.2450930983       1.3550882562      23.1785749705
C         10.3399983122       2.0529825372      23.9828261322
C          8.1233303798       2.1126095082      17.9176003832
C          8.3135098614       2.1257153613      19.3351504303
C          9.4989204733       1.5518868134      19.8752071201
C          7.3545376663       2.7017141892      20.2196005948
C         11.9554163061       6.5405517216       7.1424712159
C          7.5737529992       2.7857491150      21.5684438691
C          8.8066623702       2.3281099911      22.1286933779
C         13.5042138137       8.4998570305       6.0578855551
C          9.7598752525       1.6807712151      21.2720771020
C          9.1314374786       2.5376004570      23.4789949435
C          8.9545143014       1.2530863569      17.1096808528
C          3.8209215175       1.9095377745      17.6637715457
C          3.5831591204       2.1409525232      19.0266271439
C          3.3232227965       2.5417735669      21.8309261888
C          3.5605646135       3.6306051210      20.9416004460
C          3.6581364344       3.4530948551      19.5890133559
C         11.4359713728       7.6901830946       6.2185283321
C          3.2631471237       2.7430677980      23.2453290118
C         12.2898703611       8.7357782559       7.0124953580
C          2.6886901931       1.7195354122      24.0716629848
C          9.6776108846      10.5836160994      17.9711148886
C          3.2232607699      -0.2882630188      19.3438352350
C          3.3061784448       1.0322984460      19.8939384349
C          9.1781450650       9.6835617857      20.2221916299
C          8.9730970256       9.8580817541      21.5731404478
C          2.7814333619       0.1265951632      22.1510198648
C          3.1344090981       1.2289487088      21.3014311453
C          2.3956879106       0.4196888787      23.5046763882
C         12.7156850332       7.0422555231       2.6314092734
C         12.6463768545       7.3053238124       3.8202155780
C          3.7997600320       0.6075488417      17.1507319022
C         10.5436352545       2.7761290518       1.4322774432
C         12.7118359448       6.3635009839       1.3665786972
C          1.9723339351       2.7475207314       1.5928398801
C         10.7784863904       2.3302035961      25.3626197962
C         13.1343585891       5.7149214635      25.4293763333
C          2.2320480176       2.0466115812      25.4198672332
C         10.5860163187      10.7039008572       4.7807787162
C         14.8724791887       7.9915075562      24.4720963731
C         16.8603149958       7.4530917556      22.0423520232
N          9.7041292019       5.4265562513      21.6527107468
N         17.1304006190      10.8939653208      16.9355581883
N          7.1639718776       2.9079881775      17.3885674543
N          3.7080067957       3.9036327318      23.7786463290
N          1.7659252369      -0.5437092771      24.2305844859
N          8.7280023332       8.7058374501      22.3683368141
N         15.3637994272       7.3104810667       7.4533546586
O          7.6653314368       1.7304166608      12.3913611675
O         13.8336509588       6.0531427764       0.8397502573
O          2.3354057170       3.8749072727       1.0782876904
O          5.0570227527       1.2516294413      12.3036329363
O          1.3372350608       1.3063611284      25.9354852829
O         11.4733692920       1.4459312131      25.9292502345
O         10.4779815001       3.4952640433      25.8547011704
O         12.0044032095       5.5391935535      26.0017662438
O         14.2515552051       5.2624819860      25.8632276844
O          2.6862892224       3.0882136664      26.0775342472
O         12.9173714446       3.1885614602      27.3144586631
O         11.9004084526       8.3512073171      15.2184484983
O         10.2237016583      10.3151369350      12.5989460541
O         11.8116339930       8.3487341576      12.5436632923
O         14.0672581003       8.6144637630      12.4591506776
O          9.0003576505      -0.1155933684      12.3813747085
O          7.6247136565       1.6655070109      15.2192741097
O          4.9427037600       1.3144981742      15.2187682929
O         10.3041478569      10.2756668394      15.2378544947
O         10.0281113143       9.7303044724       4.3081299513
O          5.5717360327       0.1189157561       4.3096147092
O         14.6583440438       8.0095020824      25.6754160790
O         14.1389499214       8.7012314133      15.2298949644
O         15.6411164083       8.9358658092      23.8570642814
O          4.2863270329       6.6351451348      22.9188116093
O          4.9768390352       8.2334988685      21.4727861412
O         13.2894795342       3.8991472375       6.3013197492
O         14.4558748793       5.0345547443       4.6990782541
O          9.0946980977      -0.0240351033      15.0865595551
O         12.8138821165      10.6986769285      13.8355597848
O          1.2126566993       1.8883760894       1.0792686531
O         11.3461414311       1.8905292747       1.0085569327
O         10.2384912249       3.8778026927       0.8417916785
O         11.5519149445       6.0512608068       0.9139011801
O          5.9998867881       3.2652027011      13.9198344068
O         12.9031782340      -0.4887150438      27.1559420650
C         17.4010175058       9.4283701065      13.3932361198
O         16.3467285874       9.0024056891      13.8497144397
O         18.5528117031       8.8679141923      13.7664086620
H         19.3050270831       9.3173655239      13.3285527827
H         17.4470383751      10.2709803579      12.6842354363
