207
0e64acd s3 final converged frame
Al         6.2111071111       1.5870012670      13.8182070971
Al        11.4162365765       9.6327667488      13.8889424275
Al        14.4451277469      10.0404367878      13.7575980218
Al        12.8562479803       1.2679132295      27.3097310520
Al        11.4663252257       4.1873045754      27.2537660042
Al        14.4459351844       4.0536851477      27.3192573008
H         10.3826234126       7.6438597192       5.8823298229
H         11.3202254014       5.3508275393      23.7005221189
H         11.5753511999       5.6878504625       7.5962875932
H         11.2190424693       7.0943150815      17.1292599636
H         10.0985966895       6.0587984495      19.0735540507
H         16.4716712173       8.3115250146      19.6168485354
H         15.2278669382       8.6042032778      17.4688952854
H         12.1733757051       0.9959957644      23.5649888093
H         12.8959088275       0.3005132783      21.2910320326
H         11.7096235630       9.6786064688       7.3641206752
H         18.6400139156      11.1283870018      18.9211964355
H          7.3761104935       1.2610723656       5.4936199475
H          8.4646351907       3.1169263782      24.1144123494
H          6.8380040896       3.2967020892      22.2106055503
H          6.3909143946       3.1349259452      19.8396472855
H          4.0361171075       2.6759776610      16.9834707690
H          3.6141281514       4.6328520640      21.3018504993
H          3.7873576830       4.2695478568      18.8944788951
H         13.9079433355       9.4980450643       5.5700917728
H          9.0752124546       8.6573777900      19.8434326155
H          9.6128701095       9.5274942656      17.5817992541
H         11.3319251723       0.8316727316       5.8327512654
H          7.4347039153       3.3609795999       7.4192118585
H         11.4092652016       2.9375201261       7.7385917067
H         15.2990341202      10.7845098172       7.1884738452
H         11.9413995220      10.6305505733       3.5279192175
H          9.8699368206       4.9124704523      22.4518041046
H          9.1244024987       5.0284599074      20.9735465993
H         16.0853755152       9.5161674020      24.5603422326
H          5.8527355214       8.2302145644      22.0259687698
H         16.7571461255      10.7348978702      15.9595197235
H         17.8388628431      10.4689489075      17.3124198751
H          6.8545871540       2.8472735821      16.3798075537
H          9.6894121499       4.4688488536       6.0818883662
H          6.4150838425       3.3481825490      18.0017570612
H          3.8839639041       4.7345317455      23.1774781707
H          3.4616905313       4.0981110950      24.7388319766
H          7.5031019747       9.7480864957      23.7457872282
H          1.2859430458      -0.2796167844      25.1638733309
H          8.7981085967       7.8511334392      21.8908017220
H          9.0470053350       8.7193032059      23.2736785820
H         16.0633267490       7.6137636374       6.6350273579
H         15.6168186829       7.0527087138       8.1478735186
H         15.0186735789       4.4032578308       4.3751898495
H          3.9428966141       3.5755172664       6.4777211654
H          1.9383775614       2.7407115473       8.3076679662
H          5.5103216700       1.3171560922       7.1697439450
H          8.4680178861      10.0396118958       6.9362411107
H         13.5321483262       1.2624368306       6.2561749817
H          6.1741007080       3.8681943179      13.2884822315
H          5.6000485407      10.6265205074       0.1123136332
C          4.2743367740       0.3236342064      11.9137683514
C         12.8848102335       7.7696180839       9.3644022698
C         13.8560033872       5.1251408868       5.7180896289
C         10.5106395880       2.5641255241       7.2410219488
C         12.9016941380       8.3091272290      11.9491119167
C         10.4703602768       1.3899936453       6.2082593169
C          9.9352594577       2.5414098637       2.7009575681
C          8.8724792151       1.5125670531      10.5472529620
C          9.5519603987       3.4161675641       6.3440338949
C          9.5212494256       2.2475550061       5.2764842328
C          8.3008399828       2.8019566491       7.0528904215
C          9.2515204501       1.9453772143       7.9849024467
C         12.9146750348       7.8737025156      10.5798836408
C          8.2628769565       1.6270558387       6.0178199285
C          9.2218084968       0.7745239764       6.9163754500
C          9.6956284564       2.4032763072       3.8865997747
C          8.3963006745       1.1212995604      11.8424436193
C          9.0842550793       1.7442026565       9.3709714933
C          2.4542018931       2.0995950885       7.5911223360
C          3.5674598720       2.5558815564       6.5968002953
C          2.4338267629       2.4667887163       2.9436468583
C          3.7915749208       0.3839240853      10.5563702971
C          1.7614908727       1.2568263318       6.4772455911
C         13.2794507826       6.4066337802       6.1641106699
C          2.8595357635       1.7424446141       5.4441172267
C          2.6248209946       0.0059433556       6.8486861149
C          3.3275093351       0.8386593001       8.0043596052
C          3.7390597567       0.4521617559       5.8541734548
C          4.2519064598       0.3173368740      15.7799381551
C          4.4368178968       1.3103445172       6.9648915317
C          2.6350264575       2.1514922963       4.1065467149
C          3.5719028388       0.5078724072       9.3622392074
C         12.1050597329       7.2635757813      17.7409166754
C         12.1010908879       6.8859440122      19.0971644333
C         12.6482735171       7.5209472504       5.2093255887
C         12.0876769448       6.2504710564      21.8700044801
C         10.9281526365       5.9740835793      21.0435916624
C         10.9663817756       6.2789763852      19.6991721806
C         12.1233977041       5.9195109833      23.2348836763
C         13.1727185101       6.3175149875      24.0594003380
C         13.1503088452       8.3755334314      15.7552809285
C         14.3669005857       8.1209890683      17.9298819402
C         14.3932806113       7.7755613248      19.2905898525
C         13.2564061097       7.1620308508      19.8938001415
C         15.5568151118       7.9614522171      20.0949735410
C         14.0541369928       7.5983968537       6.9581700261
C         15.5826101983       7.6469172188      21.4331856276
C         14.3767929114       7.1950849410      22.1144153034
C         13.2495464599       6.8524506424      21.2857642013
C         14.2443371435       7.0898741022      23.5300280483
C         13.2184501962       7.8795643163      17.1610339859
C         10.0992931903       0.7369220356      17.6278904860
C          8.5258289085       1.0620643906      15.6807697904
C         10.4327916180       0.9544882485      18.9959633627
C         10.9898084177       1.2351410233      21.7691917747
C         11.9385163250       0.6313186625      20.8893938710
C         12.8213963866       7.6711403524       7.9543802563
C         11.6630238407       0.4983003710      19.5580301814
C         11.2467175242       1.3803889719      23.1401844258
C         10.3527511507       2.0776814693      23.9580570660
C          8.0845039313       2.1674027634      17.8879334713
C          8.2994099788       2.1939396966      19.3042617816
C          9.4916142334       1.6233887461      19.8350794580
C          7.3578936666       2.7821651954      20.2003605102
C         12.0789823720       6.5389224470       7.1326029823
C          7.5920928788       2.8701051670      21.5469413830
C          8.8214054524       2.3946062405      22.1011430044
C         13.3836959005       8.6549395476       6.0263983064
C          9.7623967302       1.7437295394      21.2337185713
C          9.1516906754       2.5855753153      23.4543280548
C          8.9295790143       1.3406996927      17.0596326204
C          3.7839962716       1.8578593336      17.6575500784
C          3.5436058000       2.1071821047      19.0169618157
C          3.2714642048       2.5412285502      21.8176128813
C          3.5295256559       3.6167903544      20.9177472142
C          3.6338411853       3.4235010863      19.5673581214
C         11.4232160974       7.6184729011       6.2109200225
C          3.2101912517       2.7594912116      23.2312695594
C         12.1607728237       8.7556698780       6.9934688879
C          2.6374135331       1.7452249704      24.0724809573
C          9.6116266719      10.5397268732      17.9858525862
C          3.1465249505      -0.3124458059      19.3544162924
C          3.2451780169       1.0119587188      19.8936264894
C          9.0667735538       9.6748502287      20.2400389099
C          8.8457149128       9.8663848884      21.5862108530
C          2.6844468639       0.1385956405      22.1553755468
C          3.0656636839       1.2258538273      21.2985241712
C          2.3103512717       0.4496410647      23.5096213151
C         12.7053190654       7.0637214892       2.6219677343
C         12.6383087728       7.3468070613       3.8059477558
C          3.7519319831       0.5506205041      17.1557292776
C         10.5317959066       2.7728983950       1.4211739794
C         12.7056344230       6.3705423261       1.3665094579
C          1.9659673732       2.7508525214       1.6036931037
C         10.7866285881       2.3352911244      25.3487241092
C         13.1477207305       5.7302348457      25.4455848679
C          2.2291793230       2.0704538240      25.4374930543
C         10.5215785624      10.6696393446       4.7805524345
C         14.9614079077       7.9913129822      24.4839102038
C         16.9281776060       7.5256261880      22.0707551460
N          9.7554634322       5.4993078677      21.6247037484
N         17.1365765188      11.0387507675      16.8567659483
N          7.0861302136       2.9235611552      17.3736374938
N          3.6530293556       3.9256572330      23.7525138803
N          1.6522998955      -0.4949642355      24.2326814560
N          8.5520623594       8.7196116705      22.3775326661
N         15.3851303210       7.7054792852       7.3950524305
O          7.5327090168       1.8644123579      12.3879378540
O         13.8298732253       6.0553959976       0.8478438501
O          2.3347990255       3.8746350963       1.0803214776
O          4.9547503503       1.3121658305      12.3071608221
O          1.3944358666       1.3003741965      26.0066898396
O         11.4768239015       1.4484331165      25.9196764284
O         10.4790214504       3.4949718315      25.8509788705
O         12.0055958390       5.5435274201      25.9934433487
O         14.2515307064       5.2862247851      25.9143360235
O          2.6668512718       3.1362725952      26.0668900394
O         12.9157163201       3.1895710576      27.3144764896
O         12.0113670078       8.3609759754      15.1658937936
O         10.2186559771      10.3271959578      12.6048885214
O         11.7612356881       8.3493951668      12.5349900050
O         14.0075282653       8.6849270079      12.4547528875
O          8.8671674718       0.0186060984      12.3050386773
O          7.5872041300       1.7425937690      15.1624803817
O          4.8926184898       1.2527847361      15.2266225565
O         10.2670719697      10.2065169498      15.2382841026
O          9.9945563714       9.6752547270       4.3138998622
O          5.4954768048       0.1172240537       4.3065723102
O         14.7914501940       8.0050894934      25.6922807344
O         14.2164744354       8.8357474370      15.2352107520
O         15.7164867109       8.9397837499      23.8554111242
O          4.4117610446       6.6295063678      22.8460417115
O          4.9808085635       8.4366345328      21.6166951070
O         13.5792980607       4.0403013907       6.2214758938
O         14.7447732206       5.2945500175       4.7048017478
O          9.1047824588       0.1054497230      15.0058992819
O         12.7733270187      10.7577078551      13.8257841596
O          1.2078011022       1.8908745614       1.0891525711
O         11.3427146690       1.8901813877       1.0065496932
O         10.2369469832       3.8798902731       0.8366499594
O         11.5487040703       6.0519629195       0.9111293807
O          5.8282479077       3.3066741711      13.9961369725
O         12.9021174172      -0.4873438319      27.1554670642
C         17.3221231935       9.5922592791      13.2729370681
O         16.2571698353       9.0791660711      13.6199045884
O         20.2801100939       8.9997510456      14.2345100719
H         21.0152620590       9.6413236844      14.2757860223
H         18.2395673465       8.9845747322      13.2200024536
H         17.3769700109      10.6689365734      13.0325438431
H         20.5411403567       8.3170211450      14.8753884454
