208
0e64acd s5 final converged frame
Al         6.1918699372       1.6088823858      13.8088800499
Al        11.4245687998       9.6604578574      13.8684604249
Al        14.4710960756      10.1146650221      13.7650280374
Al        12.8432770983       1.2604489102      27.3097518930
Al        11.4892802657       4.1938787794      27.2101489465
Al        14.4639340353       4.0423406140      27.2945109936
H         10.4027947220       7.7322495107       5.9153663786
H         11.3882836453       5.3050380954      23.6339003364
H         11.4614598700       5.7014912412       7.6252834275
H         11.2742910112       7.1376066048      17.0940511960
H         10.1584345787       6.0778622999      19.0176859178
H         16.5611663877       8.2522889193      19.5637300369
H         15.3015691799       8.6091776383      17.4347687599
H         12.0974002870       0.9243790067      23.5841085443
H         12.7617152745       0.1555370978      21.3196378139
H         11.8903728447       9.6722806474       7.3716641522
H         18.4719472245      10.9558764792      18.9689137745
H          7.3928102648       1.3068070723       5.4521590421
H          8.4557404538       3.1520577865      24.1505701983
H          6.8052620239       3.3402240102      22.2717451750
H          6.3284524951       3.1683149460      19.9041928758
H          3.9983538537       2.7211613350      16.9820910988
H          3.5602002155       4.6236370283      21.3227211321
H          3.7248818767       4.2946808293      18.9092325317
H         14.0564755053       9.3213534929       5.5663656339
H          8.9927140476       8.6721553601      19.7725479661
H          9.5755141275       9.5661563657      17.5265110472
H         11.3503412100       0.9150346891       5.8253042833
H          7.4114700440       3.3833850409       7.4035563739
H         11.3858585015       2.9896000472       7.7559828207
H         15.3091802615      10.8252702191       7.1389103994
H         12.0251676295      10.6208219691       3.5351970847
H          9.9291161524       4.8844494768      22.3843689084
H          9.1855996490       5.0169934567      20.9057044605
H         16.1370954490       9.4620816240      24.5660238402
H          5.9660640338       8.0951540879      21.9733957734
H         16.7390612991      10.8564332024      15.9176548903
H         17.8818826513      10.6903295870      17.2386266836
H          6.7624855374       2.8684211099      16.4527123524
H          9.6690946870       4.5301091470       6.1055448059
H          6.3579666926       3.4006700236      18.0769032824
H          3.9026268620       4.6765098965      23.1906237189
H          3.4859416456       4.0283722852      24.7487209415
H          7.3634410149       9.7575516633      23.6797821041
H          1.2058088414      -0.3032062978      25.1193128386
H          8.7461816572       7.8472773756      21.8212286563
H          8.9044053891       8.7106793947      23.2187414150
H         16.0706169393       7.3028132824       6.6159234893
H         15.6002702716       6.7425442659       8.1206467019
H         14.8171491940       4.1965038542       4.3711947009
H          3.9351976970       3.5845327906       6.4261584866
H          1.9324523016       2.7237485857       8.2573113957
H          5.5433347159       1.3645557493       7.1586196449
H          8.5525621796      10.0198631264       6.9243226756
H         13.5731120306       1.2038089600       6.2101096244
H          6.2857332876       3.8641690625      13.2418459876
H          5.5021981197      10.6405680287       0.1074195689
C          4.2881608754       0.3233004423      11.8863566775
C         12.9361865096       7.7057969990       9.3776134516
C         13.6887696248       4.9730667188       5.7218911156
C         10.4949690009       2.6165973608       7.2461851581
C         12.9658558556       8.3039768071      11.9536414275
C         10.4774924716       1.4572084105       6.1976664396
C          9.9398631678       2.6030676902       2.6879406946
C          8.8706438195       1.5253324587      10.5314459802
C          9.5388148681       3.4723631986       6.3502846405
C          9.5295501845       2.3178540685       5.2665649694
C          8.2865478933       2.8371725896       7.0390668310
C          9.2352510753       1.9768668752       7.9696153097
C         12.9797516607       7.8411340055      10.5907066976
C          8.2703575145       1.6759243151       5.9887051105
C          9.2276144634       0.8203615244       6.8847583694
C          9.7074558283       2.4791834008       3.8770252774
C          8.4197713988       1.1343515417      11.8347824731
C          9.0671774272       1.7621869215       9.3534257452
C          2.4678750683       2.0889862434       7.5495898895
C          3.5800789807       2.5591203237       6.5586504750
C          2.4612279884       2.4433826660       2.9158383707
C          3.8194417218       0.3992393794      10.5270848005
C          1.8000705476       1.2205917792       6.4398135101
C         13.2011795438       6.2883229512       6.1758699869
C          2.8965982818       1.7183002537       5.4116394437
C          2.6870909697      -0.0072748917       6.8276474695
C          3.3642603396       0.8505029294       7.9766452952
C          3.7987704098       0.4527226193       5.8376303983
C          4.2459891476       0.3676908277      15.7584773671
C          4.4721883578       1.3347497315       6.9441160211
C          2.6706943672       2.1165432418       4.0731854208
C          3.6060818537       0.5260737171       9.3336003735
C         12.1679200730       7.2803350011      17.7013856601
C         12.1704321550       6.8781691588      19.0485752153
C         12.6476063913       7.4424396628       5.2188483159
C         12.1600598034       6.2096041948      21.8071467296
C         10.9948678870       5.9512962661      20.9833297041
C         11.0311199669       6.2750074481      19.6439983033
C         12.1935066250       5.8717648876      23.1695740261
C         13.2402187815       6.2732039201      23.9928909990
C         13.1974912610       8.4255335188      15.7410614274
C         14.4428352387       8.1148357478      17.8893078184
C         14.4748769992       7.7439753622      19.2428503868
C         13.3340708997       7.1314732593      19.8408899178
C         15.6446719097       7.9100948270      20.0442860435
C         14.0692332177       7.4210203464       6.9598384782
C         15.6699104859       7.5885453691      21.3811118193
C         14.4567491427       7.1452910886      22.0567232267
C         13.3268223637       6.8087598707      21.2281408918
C         14.3128180896       7.0455956348      23.4692220455
C         13.2833224721       7.8975438190      17.1288743707
C          9.9732065196       0.6949822051      17.6664080211
C          8.4367255647       1.1240230574      15.7180843894
C         10.3160320304       0.8976297144      19.0350916364
C         10.9006818933       1.1751763218      21.7996975520
C         11.8186681752       0.5269799950      20.9210422821
C         12.8541418277       7.5893245901       7.9679643053
C         11.5257480161       0.3899775906      19.5949768927
C         11.1769170886       1.3276408681      23.1642651300
C         10.3111629735       2.0594414547      23.9801439772
C          7.9936656325       2.1768539010      17.9463431200
C          8.2168564284       2.1943007887      19.3582919496
C          9.4010354928       1.5975913403      19.8776499150
C          7.2929520744       2.8030956825      20.2588099963
C         12.0235994081       6.5115152427       7.1554675357
C          7.5424170202       2.8956804760      21.6011168571
C          8.7686672327       2.3989778064      22.1421713375
C         13.4726720713       8.5210077676       6.0283721841
C          9.6847415854       1.7166192734      21.2721639870
C          9.1184825334       2.5946127582      23.4877610282
C          8.8222807936       1.3442097936      17.1086578260
C          3.7410304342       1.8948176296      17.6438815385
C          3.4876849754       2.1291522775      19.0036511735
C          3.2196340357       2.5254015996      21.8089053458
C          3.4748711408       3.6136645400      20.9236431313
C          3.5738819956       3.4389019266      19.5704566686
C         11.4421308365       7.6322433347       6.2330107463
C          3.1841964523       2.7189520541      23.2263994320
C         12.2682748977       8.7155730981       7.0036477155
C          2.5986206939       1.7023730325      24.0574014725
C          9.5730982505      10.5727414122      17.9444115935
C          3.0876211604      -0.2939658223      19.3109652909
C          3.1830281366       1.0238613269      19.8654930712
C          8.9913211585       9.6847073509      20.1820121230
C          8.7558557181       9.8616869628      21.5276659839
C          2.6038477246       0.1264688780      22.1137068192
C          2.9984977066       1.2205108516      21.2716335738
C          2.2376718531       0.4256030935      23.4717681644
C         12.6806242443       7.0103850898       2.6221689165
C         12.6224359999       7.2743401129       3.8120082296
C          3.7229906422       0.5925188575      17.1295278463
C         10.5319940054       2.7974717760       1.3987722566
C         12.6999403617       6.3576098547       1.3427168013
C          1.9738923021       2.7439826854       1.5871071511
C         10.7733029028       2.3323356008      25.3533730521
C         13.2112576469       5.7061171463      25.3840287584
C          2.2123263974       2.0136050406      25.4321097238
C         10.5931073074      10.6695100891       4.7734175272
C         14.9920753000       7.9596146449      24.4353536054
C         17.0107328220       7.4409848774      22.0272978209
N          9.8198956226       5.4773906163      21.5610325249
N         16.9497011640      10.9178689866      16.9149732173
N          7.0119943612       2.9616833821      17.4406565248
N          3.6663453281       3.8643285488      23.7591138408
N          1.5546080220      -0.5139763120      24.1801066168
N          8.4494028418       8.7035984488      22.3016261145
N         15.4086163849       7.4277095413       7.3855600388
O          7.5483550494       1.8627601027      12.3882304235
O         13.8329918776       6.0506514317       0.8390049977
O          2.3368207021       3.8739646594       1.0751661658
O          4.9483785704       1.3153438101      12.3044348772
O          1.3749817851       1.2445017270      26.0035160942
O         11.4731297111       1.4518604873      25.9209810373
O         10.4799645388       3.5009400625      25.8427096950
O         12.0670525474       5.5299619847      25.9266452212
O         14.3166906146       5.2658373503      25.8611301826
O          2.6752536663       3.0661514558      26.0682579231
O         12.9300593318       3.1867299022      27.3070188269
O         12.0566854717       8.4225969290      15.1630140417
O         10.2388436146      10.3078664611      12.5453036746
O         11.8256485181       8.3520005049      12.5357131747
O         14.0738248832       8.6891472841      12.4572636835
O          8.9199957609       0.0404997510      12.2988591584
O          7.4805469422       1.8028774414      15.2259376393
O          4.8607895994       1.3235540545      15.2040409726
O         10.3112320537      10.2546740933      15.2306716746
O         10.0677623414       9.6729339139       4.3103639374
O          5.5691137804       0.1150166812       4.3055918209
O         14.7229547477       8.0090677442      25.6252492144
O         14.2647332370       8.9004253016      15.2255693920
O         15.8202414753       8.8690505586      23.8497580619
O          4.4492613890       6.5639458988      22.8415894510
O          5.1020036118       8.2982142350      21.5424885795
O         13.3595631727       3.9032605503       6.2255106650
O         14.5675192832       5.0971021104       4.6980763249
O          9.0499959610       0.2299974336      15.0017025003
O         12.7810238978      10.7826699989      13.7721139151
O          1.2057180393       1.8881144242       1.0815163333
O         11.3397907989       1.8982636475       1.0100496930
O         10.2389256561       3.8818376047       0.7752110499
O         11.5520163069       6.0626238307       0.8466057008
O          5.8226129935       3.3411195717      13.9124165522
O         12.8363841837      -0.4941993044      27.1591600681
C         16.4499276938       5.9803584155      14.5281111220
O         16.3508650509       9.2797198648      13.6262181509
H         15.9427768308       6.2718996231      13.5968015808
H         15.6868376159       5.7470082299      15.2805596092
H         17.0796316927       6.7949052807      14.9150927531
H         16.6252637085       9.3796944473      12.6939570683
H         17.0852659264       5.1026772166      14.3374920138
H         16.3458458563       8.3175459632      13.8195792032
