165
91692c9 s3_to_s4 A (s3 augmented)
  Al        5.0474729599        2.7274775108       14.1177695693
  Al        8.2294084802        2.9088458720       14.1374218163
  Al        6.7249648240        5.5946698401       14.1887982814
  Al       -0.1070705228        5.7520248641       28.2344848147
  Al       -1.5788113628        8.6587546842        0.0266181773
  Al        1.4224992048        8.6512053130        0.0277945029
  H        -2.0859608115        4.0632267927       20.3743993101
  H         4.3118485215        8.1025313769       20.3345343953
  H        -2.3131696484       11.5391772797       20.3609782244
  H         4.6307884488        0.2882269885        6.1881261680
  H         4.8530345361        7.8333602974        6.2477029857
  H        11.1151148010        3.8388754878        6.2144754402
  H         3.1564003527        1.7124669821       14.9576181135
  H        -0.0457190885        3.6307176495        0.8662168815
  C         4.6789668370        4.9926640887       16.0603966690
  C        -0.0665741310       11.6366762084        5.6403944396
  C         3.2581366904        6.1459624991        5.7434806659
  C        -3.3190443100        6.0870061503        5.7771445892
  C         9.9651192235        4.8282185833       21.8013841814
  C         4.5850035455        6.2729328898       21.8337787830
  C         6.0514448806        0.7731167802       21.8908084992
  C        -0.8163891561       11.0635683435        7.6579636543
  C         3.1227480290        7.1545601514        7.7291896509
  C        -2.3723569281        5.6375220788        7.7414866405
  C         8.9830946202        5.6645682607       20.8955925631
  C         6.8961585200        1.3834668503       16.0572359757
  C         4.3340921591        4.9719133375       20.9833841397
  C         7.3179989503        1.2168180072       21.0769030139
  C         0.4152020746       10.6323742179        6.7827020535
  C         2.1399362203        6.2684334822        6.8748858100
  C        -2.6316146909        6.9520565306        6.9257273013
  C        -3.0551010912        6.3690189706       23.8522977930
  C         2.9157109866        6.2245768406       23.9250236848
  C        -0.0515326458       11.2190215627       24.0008409030
  C         7.0641450519        0.5818939874        9.7163503650
  C         3.9082240446        5.6444762177        9.8358401324
  C         8.9868761839        4.8872212129       15.9562428602
  C         9.7369304381        5.6104852492        9.8608221545
  C         9.8389469961        5.4702674591       18.3975092666
  C         3.9066081736        5.6508260496       18.4924951364
  C         6.9311961276        0.5095852635       18.5484925512
  C        -0.0929671375       11.2944767390        4.2756995988
  C         2.9848994665        6.3120037593        4.3692491513
  C        -3.0629341609        6.2826628888        4.4047597140
  C         4.6663912946        5.0193555461       12.2935687746
  C         7.0064070152        1.3637084975       12.2399998567
  C         8.8344965326        4.9840945185       12.2658135991
  C         2.1156594483        6.7365765317        1.9034630009
  C         2.0551738164        6.6744215089       26.3765867852
  C        -2.2561554246        6.7204310992       26.3529660177
  C        -0.0897049444       10.2298356562       26.4472217061
  C        -3.1508112060        7.0738289662       20.4258195756
  C         2.2607912782        5.6591185948       20.5620128087
  C         0.8199353504       10.9901353878       20.6343668468
  C         7.7718778769        0.8742569756        6.3020012290
  C         3.7909095624        4.8279274036        6.4618386142
  C         9.0733851505        6.2772087657        6.5149997762
  C         9.5153524921        7.0009836255       21.5352174720
  C        -2.2362083528        6.7710539619        1.9394304077
  C         2.9368781352        4.7720503426       21.6689289316
  C         8.1718343138        0.0941021942       21.7717639769
  C         1.2981758632       11.7641246987        7.4250453348
  C         2.6716733126        4.9633453222        7.5673118168
  C        -4.0199217844        7.1430927151        7.6364001356
  C        -2.7782412890        6.5098639625       25.0289150184
  C         2.6282185527        6.4132670963       25.0899740645
  C        -0.0797291145       10.8719565289       25.1673283150
  C         7.0640010308        0.8387577782       10.9043585366
  C         4.1824379445        5.4115294972       10.9971130534
  C        -0.0802532785       10.2752029789        1.8452304448
  C         9.4173195475        5.3415710495       11.0037200451
  C         9.5441289949        5.2178452736       17.2419023337
  C         4.1386067936        5.3422038098       17.3414729000
  C         6.9701620650        0.8114984522       17.3720148206
  C        -0.0816472214       10.9397726867        3.1124397937
  C         2.6755757263        6.4751508084        3.2036588002
  C        -2.7893863352        6.5080739577        3.2412252494
  C        -2.1956991569        6.2240187444       21.3414636401
  C         2.5366734338        6.9615707747       21.4147530444
  C        -0.4525972032       10.5549503244       21.4572363630
  C        10.1085741894        5.7232312942       19.7630451495
  C         6.5320317787        1.2736219344        7.1959704495
  C         4.7574847630        5.7277728692        7.3285508654
  C         9.3578191441        4.9608135031        7.3390871264
  C        -3.3057170151        6.1705908072       22.4797591861
  C         3.1902688091        6.0637933526       22.5582193781
  C        -0.0329517351       11.5550681325       22.6345681185
  C         7.0203366322        0.2869470273        8.3422560226
  C         3.6469078802        5.8423852744        8.4682710797
  C        10.0278172054        5.8300026607        8.5017451534
  C        -2.7069681465        4.8938713644       20.7119064724
  C         3.6601240657        5.8666451446       19.8572560934
  C         3.9242245846        7.1630555822       20.7304425772
  C        -1.3118656411       11.6652033914       20.7745450587
  C         5.6503817472        0.1614366216        6.5539080612
  C         4.2346506089        7.0242921094        6.6385871544
  C        10.7345559339        4.7715011958        6.6329017018
  C         6.8987781149        0.2058696839       19.9219621312
  O         5.7404476833        1.6972017296       15.6545054112
  O         1.3156546332        5.8824405813        1.4335825634
  O        -2.6039561461        7.8631894817        1.3592140815
  O         1.0611142901        9.9768932344        1.3515288116
  O         5.8654326351        1.5711770230       12.7304159169
  O         9.2060508710        3.8902536059       12.8053508503
  O         5.3309602297        5.9075820038       12.9434002328
  O        -1.4633913674        5.8499594871       26.8043765320
  O        -1.2321701402        9.9455367992       26.9506352001
  O         2.4120500922        7.7732362956       26.9516313736
  O         4.4219858742        3.8314341282       12.6476260171
  O         9.2872435573        3.7476079751       15.4492719850
  O         8.1396276303        1.6291141736       12.7960845985
  O         7.9477699212        5.7836080624       12.7168604952
  O         1.2208270352        5.8346259215       26.8052182943
  O        -2.6160312450        7.8147614380       26.9421006160
  O         1.0501816465        9.9388701605       26.9532471771
  O         6.6786171579        3.7571403456       14.1520143995
  O        -0.0788348587        7.7273320459        0.0086358952
  O         5.5763004101        5.8073821774       15.6453494569
  O        -1.4016231083        5.9339746530        1.5035819434
  O        -1.2227527969        9.9791961552        1.3511889822
  O         2.4518293423        7.8599479253        1.3596793207
  O         4.2701196214        3.9368600681       15.4973271211
  O         8.0079112158        1.5684739160       15.4348734910
  O         8.1950926886        5.7345973097       15.4384884888
  O         3.5844866569        1.7058917674       14.0861961918
  O        -0.1480422343        4.0077282034       28.2328760612
  F         8.7612566031        8.0302918577       21.9809194912
  F         8.5624016732        1.7046287456        5.5784225343
  F         4.1158708970        3.6955001374        5.7987238882
  F         7.9335239549        6.6021973128        5.8716964752
  F         7.6965279548        5.3883330825       20.6290898991
  F         5.2200011580        3.9986382825       20.7053011672
  F         7.7127093907        2.4829567142       20.8547314119
  F         0.8026391487        9.3705109447        6.5470327423
  F         0.8461052474        6.5348059535        6.6238369429
  F        -1.7238359602        7.9211627226        6.6997326241
  F         9.6572258571        3.7291251726       22.5139081902
  F         2.4597107585        3.6013435881       22.1369821514
  F         5.7088361899        6.5774358038       22.5126121117
  F         5.2198048382        1.6228111125       22.5177311593
  F        -1.6181329655       10.2333309469        8.3571277062
  F         2.7952839751        8.3105001470        8.3570139280
  F        -1.2124275044        5.3397291073        8.3598431796
  F        -0.9108591454        6.5120874987       21.6079360736
  F         1.6741224603        7.9638922313       21.6838618345
  F        -0.8566743898        9.2888732743       21.6836412129
  F         6.1068828482        2.5182934533        7.4552630308
  F         6.0570830644        5.4738767091        7.6042552276
  F         9.4094327508        0.2324160499       22.2858449548
  F         8.4847585373        3.9617941799        7.6020983010
  F         2.5518684119       11.6216801481        7.9034379468
  F         1.8997200502        3.9619944927        8.0525205028
  F        -4.4826212378        8.3133594823        8.1314059538
  F        -2.8034551165        8.1707311208       19.7243250406
  F         1.1487628293        5.3259185105       19.8761900068
  F         1.6735643347       10.2084569624       19.9498369746
  O         6.9175639899        7.6503044130       14.2435207423
  O         8.3402085276       11.9377514936       13.1761533540
  C         7.1250994382        8.4505494027       13.3313578502
  H         7.1824578296        8.1082195110       12.2828570974
  H         7.2741817392        9.5225788825       13.5576282597
  H         7.8049529628       12.5778546602       12.6797267176
  H         9.1589353426       12.4603216644       13.3959269020
  H        11.5500211962        9.3033483575       13.0490435249
  H        11.6299279760        8.5676752599       13.0490435249
