195
07c07d3 s0_to_s1 A (s0 augmented)
  Zn        3.8530423690        3.7360674037        6.8431480493
  Zn        2.2350970229        4.8399154587        8.7554410524
  Zn        8.3188237544       -1.3562591604       15.4039257129
  Zn       -2.1219398184        9.8343442842        0.0921265794
  Zn       -8.2241382136       12.4981668276        8.5920547897
  Zn        8.4456194673       13.5512151007        6.7487913679
  H        -2.9142137187        6.8899565685        4.2971074563
  H         4.9834441183        6.7380800255        4.4645704899
  H         6.1713588064        6.2547037687        5.7249547304
  H         6.4379799297        7.7503337459        4.7563557485
  H         2.0580225273        1.7234935970       10.4897453641
  H         2.4944184190        0.2110131344       11.3567817138
  H         3.4658507690        0.7584853657        9.9551150597
  H         4.7068726843        0.0436762476       15.1014050684
  H         4.7498908414       -0.3943713362       13.3700385897
  H         3.4507240290        0.6961250972       13.9776350166
  H         9.6956207265        3.4563656106       10.9066689950
  H         6.9706573920        3.8523237913        8.3694089275
  H        -2.6177818335        3.8936321847        7.4403052793
  H        -1.9235566712        2.7849231269        6.2227408233
  H        -0.8488035070        3.8551435797        7.1929652641
  H        13.5819183051       -0.0758902644        7.3760866648
  H        -3.4830729444       -0.3450355034        6.1783728463
  H        -3.7137946366        1.2862446521        6.9226204495
  H         2.5658216268       -3.7530142051        8.3783413565
  H         1.3017962591       -3.1544800747        9.5033220538
  H         2.7209299272       -2.1110666102        9.0898719692
  H         4.2782083619       -0.0633495216        6.6097583221
  H         2.8460264603        0.5774248569        5.7356846645
  H         2.9676641618       -1.1874709398        6.0987890712
  H        -6.0447483089       13.8881261922        1.0813760094
  H        10.9962937869       12.7576011213        0.6703975996
  H        12.4228567715       12.8843252699       -0.4097964297
  H        -0.8728882339        6.5799384892        6.8613219064
  H        -5.0537768956       13.8823438369        3.4351635269
  H        -5.9372161599       13.8062880609        4.9991804348
  H        -0.4474730311       -2.4296440714        3.8258980066
  H         9.9273091340        9.7202731016        6.3329561235
  H        12.4835094735        5.9405158868        3.8103145881
  H        11.6482326689        6.8499438911        2.5066302758
  H        10.9580417520        6.7938822036        4.1859745308
  H        -5.5514432179        0.4486429918       13.3558009499
  H        -3.8733488436       -0.2050067652       13.2592576544
  H        -4.6836854225       -0.0064049465       14.8519045221
  H        -2.5121613937       -0.8173439299       11.5783069013
  H        -3.3181148979       -1.3226505857       10.0698882384
  H        -2.0157417843       -2.3358172718       10.7562505627
  H        11.0699767415       -1.3970220261        7.7514756228
  H         9.5386734072       -1.2765885964        8.7008691566
  H         9.6515881385       -2.3995012080        7.3002911570
  H         7.3344159982       -3.2558880904       10.8949620101
  H         8.4973232738       -3.9525467764       12.0730230681
  H         8.7693781822       -4.1552194278       10.2971758019
  H         2.7198154002        9.4991981079        4.6729641217
  H         1.3828888917        9.7665487718        5.8478146039
  H         1.7952428761       11.0346336695        4.6397848307
  H         2.8215571283        9.0568015695        2.1784590274
  H         3.1592066391        7.5794488169        1.2093977851
  H         4.4720797914        8.3535901067        2.1597118000
  H         2.0644584804        5.4425372189        0.8208466588
  H        -0.1863944444        3.3969754046        4.4329278776
  H         6.1740813633        7.6009336508       11.8428214910
  H        -9.2064577257        9.0771785334       12.0652890791
  H        -8.8017872465        8.7755677920       10.3409886962
  H         8.6291419069        7.5542457724       11.2771263317
  H         7.7862124957       10.0716852079        5.6388525499
  C         4.4021818012        6.3646570762        8.4331439731
  C         0.8338613819        6.3189949776        2.4587057291
  C         0.3490851385        5.3726378832        3.6227683931
  C         1.3062916331        6.1275069283        4.6474318124
  C         6.0609075792        7.8629933104        9.6617396859
  C         6.9912242434        8.9260408046        9.6297641163
  C         7.2269679202        9.6156492911        8.4248629626
  C         6.4934341071        9.2857694226        7.2629830994
  C         5.5775373936        8.2182933351        7.2936124324
  C         5.3656595593        7.5145937381        8.4896380609
  C         5.0086195648        2.0310318544       11.5402784465
  C         2.1057546814        5.4105490855        5.6787984864
  C         5.8535663630        1.8058708038       12.6519948174
  C         7.2472207760        1.8998573605       12.5147350298
  C         7.8192058997        2.3351532951       11.3110516484
  C         6.9749515298        2.6510599858       10.2259873799
  C         5.5725630203        2.4774497244       10.3276843498
  C        -0.9363699259        1.1524810285        8.0458012261
  C        -1.5791344655       -0.1018045452        8.0052602305
  C        -0.8168807775       -1.2806423624        7.8901434908
  C         0.5796064386       -1.2239691780        7.7770416954
  C         1.2225006450        0.0226972765        7.7764673168
  C         1.2087638648        2.5083965818        7.9320526805
  C         0.4691894629        1.2129876871        7.9217502360
  C        13.6359593476        9.2686742211        1.6776612999
  C        -1.2078488060        7.9782403718        1.8400204067
  C        10.2014823039       -1.5215866928       13.5907828979
  C         8.0518003810        1.3595544973       13.6612277873
  C        10.2591627288       11.9761090385        5.5228232584
  C         8.1663597878       10.7737050196        8.3272153187
  C        13.4845373089       -3.2553081276        9.1534431973
  C        -1.5209234749       -2.5972544908        7.8480215937
  C        12.2963239074       11.2649037248        2.3978489479
  C         4.6789429326        2.9021446897        9.2098397957
  C        11.5043940225       11.9269015490        3.3718750487
  C        10.9897296206       11.2033950225        4.4516600733
  C        11.2886737592        9.8264348968        4.6398261806
  C        12.1760873959        9.2051904508        3.7230474488
  C        12.6550816260        9.9124407636        2.6116882299
  C        -5.9371898676       -1.9566796805       12.5794540991
  C        -5.1206491354       -2.3673452122       11.5129324826
  C        12.6611512943       -2.7147997345       10.2667961454
  C        11.2531624568       -2.6613307312       10.1269156225
  C        10.4433463987       -2.3164311083       11.2210960623
  C         0.1572475114        7.1399049336        5.0081310616
  C        11.0367671478       -1.9703007328       12.4440108796
  C        -0.7955938153        6.3713482196        3.9783132456
  C        -0.3062958199        7.3545054031        2.8511043142
  C         0.6565881340        8.0955317194        3.8395435443
  C         1.8110476412        7.0413143349        3.4789050392
  C        -2.2092504484        6.0278837878        4.2553176831
  C         5.6808755144        7.1004716492        5.2232648391
  C         2.8862759136        1.0905332457       10.8248620624
  C         4.5015776043        0.4013576614       14.0857704075
  C         9.3148664826        2.4549587806       11.2016259342
  C         7.6067231053        3.2182267614        9.0169028134
  C        -1.7645645562        3.2471153606        7.2080882957
  C        -3.7704161843        0.2023475029        7.0876906117
  C         2.0158409772       -2.8683843985        8.7176433108
  C         3.1990685774       -0.1743526274        6.4558991748
  C        12.0800196315       12.9209741740        0.6287357200
  C        -0.3018341860        7.4195875322        6.3961107221
  C        -6.0225970765       14.0567713315        3.9305604474
  C        10.6922383774        9.1218346004        5.7895569723
  C        11.8732171599        6.8212047700        3.5818560708
  C        -4.8332755996       -0.2584975798       13.7944613350
  C        -2.8632378458       -1.6852517039       10.9975358524
  C        10.1996113135       -1.9494328274        8.1359122209
  C         8.3897285541       -3.4858543173       11.0827654762
  C         1.7326330055        9.9575562945        4.8245070119
  C         3.4017582705        8.1240834082        2.1357696434
  C         1.0214147004        5.7106918369        1.1048512786
  C         0.3396708970        3.8881130519        3.5835100593
  C         5.9015265624        7.0692382942       10.9068067904
  C        -9.5531518926        8.6297837038       11.1279526170
  C         6.7235580977       10.0234054784        5.9678093245
  O         4.7501857890        5.4156039056        7.6696661797
  O        -3.6322566509        9.8639759003        1.5236860942
  O        -2.2340950143        7.3094376554        1.5179450430
  O        -0.8458674250        9.1264158935        1.3945209453
  O         9.2380264458       -2.2877875738       13.9783598551
  O        -7.8640191912       -0.4078707882       14.1058990966
  O         7.7775300147        0.1725066833       13.9836969614
  O         8.9299697382        2.1033066304       14.2348610774
  O        -7.5970697712       11.9329132167        6.6824599887
  O         9.2020152305       12.6254672635        5.1989942018
  O        -9.1188292142       10.7939043359        9.0137468520
  O         3.3047492152        6.4481581173        9.0856736700
  O         7.8217012417       11.6701239984        7.4948002852
  O        -3.9002863684       -3.9911242575        9.4679193121
  O        13.1504686880       -2.9782831618        7.9349507809
  O        -1.1583872183       -3.4936373934        8.6991366022
  O        -2.4352743701       -2.7214589780        6.9831238585
  O         3.0996089731        4.7000567951        5.2837363819
  O         1.6925212521        5.5391699587        6.8709849805
  O         2.0982434804        2.6570286045        7.0404793442
  O         0.9114891272        3.3839660671        8.8307106693
  O         5.0177593644        2.6210293421        7.9937155309
  O         3.6418916367        3.5521421193        9.5322705780
  O        13.2957979042        8.1636978843        1.1044353555
  O        -2.5917272645        4.8806404251        4.4477357119
  O         4.8766384143        7.8428959952        6.1728780204
  O         3.6852924254        1.8369909439       11.7656299254
  O         5.3757761457        1.5403861688       13.8982695974
  O        10.0711262727        1.5436815658       11.4974109783
  O         8.7954123311        3.0506356913        8.7560716877
  O        -1.7333039874        2.2477941060        8.2495534982
  O        -2.9345018512       -0.2012981405        8.1939235744
  O         1.3023984113       -2.3780725713        7.5583046218
  O         2.5979525461        0.0614536556        7.7513568676
  O        12.7903120655       11.8405295266        1.2816381457
  O        -0.1286318567        8.4672467095        6.9942837792
  O        11.2974998917       13.2891743607        3.2979736797
  O        10.9417069251        7.9822638751        6.1647028775
  O        12.6956736454        7.9569266308        3.9367210760
  O        -5.3607305728       -1.5998850042       13.7761738362
  O        -3.7892410214       -2.4362511847       11.8036547652
  O        10.6375008225       -3.0520860455        8.9605443354
  O         9.0799468341       -2.2168436330       11.0554968027
  O         0.7570753088        9.4547938458        3.8681058599
  O         3.1431782917        7.2995171819        3.2942090615
  O         0.0742280509        5.4815577093        0.3754465083
  O         0.9208721589        3.2428494513        2.7262750910
  O         5.5252997629        5.9025094020       10.9217336880
  O         7.5927383301        9.3240327872       10.7952578387
  O         5.8287792535       10.4731234422        5.2741608198
  O        -1.5545411486        7.4239822539       14.5425030475
  O         0.6551349937        8.1308990424       14.5425030475
  C        -0.4497030775        7.7774406482       14.5425030475
