93
52ef7e9 s2_to_s3 A (s2 augmented)
  Al       -0.3263132675        7.0484305047       13.3718051657
  Al       -0.0312196345       -7.0554466015       19.8888983437
  H         0.7753190980       -4.6781062437       16.5457120045
  H         1.4064377984       -2.7086289800       15.0680491411
  H         4.6836825007       -1.8268798935       17.5871354963
  H         3.9702115407       -3.6796704508       19.1399647324
  H         4.3051747574        0.1697367297       13.6338934929
  H         1.0151374686        1.6593573379       15.8273203642
  H         1.7051353492        4.0173159610       15.2361441722
  H         4.9296257865        2.5201055953       12.9155602100
  H         0.7974869370      -11.1691361388       19.3969046189
  H         1.5332047024       14.4496379567       18.5251977553
  H         4.7059151974       16.2844461820       16.3964047538
  H         3.9654906712       -9.3419257730       17.2731094498
  H         4.4030617801       10.4726290842       17.9381360019
  H         1.3720210992       12.8814073123       16.1808701232
  H         0.4976939880       10.8856517511       14.9395139678
  H         3.6278265886        8.5198326220       16.5081009573
  H         0.1247965640       -6.2172509064       23.4350342905
  H        -0.0902590897        7.6790824740        1.7704447817
  H         3.3888906789        5.2672111071        2.0122936533
  H         3.5831261753       -8.6717642386       23.6714190100
  H         2.5658625777        8.3801889655        4.6188457784
  H        -0.6530234605        6.1430752712        6.2323846012
  H         0.1439895209        6.6896012023        8.5351899003
  H         3.2576721034        9.1054091275        6.9439537930
  C         2.1751415717        8.1622673455        9.2351206205
  C         3.6280619016        4.8148803783       13.8735537037
  C         1.6472155239        8.4524695984       14.8615838659
  C         2.0039311451       -5.2817213106       18.9269411642
  C         2.0010630501       -8.7816693510       18.7931367969
  C         1.9672503425       -7.2812012713       21.9323679382
  C         2.2850376662       -4.1781271631       18.0062609110
  C         1.5288420912       -3.9500447926       16.8316108481
  C         2.0280552059       -3.0277472607       15.9018908807
  C         3.1177865262       -2.2715816708       16.1820687738
  C         3.9242324034       -2.5523236211       17.3052776821
  C         3.4003676101       -3.4363668187       18.2509759816
  C         3.6768253264        1.0266564779       13.8649521438
  C         2.5838357671        0.7999539301       14.6353086923
  C         1.7762272464        1.8682075903       15.0796215002
  C         2.2979324777        3.1562465549       14.9306265546
  C         3.3995893932        3.3903529860       14.1778277201
  C         4.1680549305        2.3253061239       13.6661947839
  C         2.2910918340      -10.1168244559       18.2497783562
  C         1.5381650926       16.6126163683       18.6070111554
  C         2.1141164172       15.3546400813       18.3462902502
  C         3.2325374307       15.2380462046       17.5859415256
  C         3.9814021665       16.3788894915       17.2030055271
  C         3.4135958817       17.6275408007       17.4927722903
  C         3.6932776699       10.5939665196       17.1218912061
  C         2.9886970897       11.8144853127       16.9902683239
  C         1.8678194278       11.9136042600       16.2394046032
  C         1.2210115717       10.7640226524       15.7425554257
  C         1.9647747204        9.5540230197       15.7785589566
  C         3.0915148335        9.4628341967       16.5331564524
  C         1.8842389219       -7.3935763995       23.3915668139
  C         0.8679115644        7.2128242887       -0.1023855390
  C         0.7141307253        7.1482503963        1.2658005007
  C         1.6366597449        6.4482914833        2.0352527814
  C         2.6318397560        5.7451546316        1.3982790392
  C         2.7665319824        5.7919915211        0.0143386544
  C         1.9804675407        8.1167719358        5.4963621444
  C         0.8925552671        7.3223186093        5.3027414066
  C         0.1041785261        6.9066691687        6.3947916374
  C         0.6666104886        7.0721838195        7.6666561071
  C         1.7753828781        7.8412565847        7.8716742965
  C         2.5114904761        8.3341760315        6.7721860807
  N         3.3962080156       -1.0710850618       15.4902966965
  N         2.3144981447       -0.4693340862       15.1916025602
  N         3.4560077340       13.9987688853       16.9671240991
  N         3.3412044244       12.9802124534       17.7051395946
  N         1.7122774988        6.6127504507        3.4162858954
  N         0.6020202133        6.8786189905        3.9906005413
  O         2.5035947218        7.5056492739       14.7652853629
  O         3.1743456283        8.8340696011        9.5312921367
  O         2.8037495356        5.3834160632       13.0713241184
  O         0.5930203724        8.5540043664       14.1470723505
  O         4.5102655253        5.5452322797       14.4249335708
  O         1.3298802688        7.6314221255       10.1202010356
  O         2.9518641722       -7.8315532063       21.3284633154
  O         2.8739757766       -5.4971072040       19.8508357154
  O         2.8742654854       -7.8694697705       18.5609805804
  O         1.0254790495       -6.6135806853       21.3805903168
  O         0.9644054117       -8.6417077289       19.5247164643
  O         0.9672531366       -5.9954666049       18.7038752506
  O         0.9629743887        6.7820337380       12.1318298216
  O         2.7313390791        8.3233961047       12.0097085185
  C         1.3409723758        7.8722490517       11.5640058731
  H         0.7573777231        8.7923793262       11.7642493919
  H         1.8223784901       12.3294234300       11.0266561597
  H         2.5490313961       12.1895107636       11.0266561597
  H         3.1580747627        8.6620011530       11.1545830053
