93
52ef7e9 s2_to_s3 B (s3 augmented)
  Al       -1.3746615582        6.9826039580       11.8045795289
  Al        0.7856486589       -7.0030834238       20.4481572746
  H         0.8127148230       -4.9309209833       17.3163820753
  H         0.3425999631       -2.7847669613       16.1420126290
  H         3.7356266612       -1.0630464203       17.9991846521
  H         4.1857942998       -3.1991449532       19.2234827563
  H         2.8673348053       -0.0522025466       14.3390390352
  H        -0.3419765141        2.3354205596       15.7343895837
  H         0.4604245074        4.2363906894       14.3075974307
  H         3.5551115565        1.7812031309       12.7547103274
  H         0.9492612294      -10.8401872105       20.7053985903
  H         0.6062432104       14.7520813565       19.8260691123
  H         4.0284165748       15.1975183098       17.3637759709
  H         4.3815639950      -10.3760711617       18.2431159970
  H         4.2383418390       10.5586042832       17.1377977723
  H         0.9650250403       12.9712082114       15.9414899725
  H         0.3452018044       11.2906333882       14.1942690244
  H         3.6332487849        8.8916430790       15.3779773688
  H         0.7372023715       -5.0038624103       23.2215982706
  H        -0.0792287636        9.4147682124        1.4088489240
  H         3.0001391076        6.9697239343        2.9803559969
  H         3.8213961166       -7.4362343428       24.7786773800
  H         2.4911766906       10.0735569668        6.3539027555
  H        -0.5825019976        7.3081921795        5.4477751894
  H        -1.3992308952        7.4445508548        7.8305890708
  H         1.7016736123       10.1651276757        8.7330326559
  C        -0.2844469533        8.9942397493        9.8360954740
  C         2.5186955205        4.2269531844       12.6058115885
  C         1.6382648166        9.0444449111       13.5871117200
  C         2.7446470859       -5.5039873153       19.0188364733
  C         2.7811824276       -9.0457995480       20.0238868306
  C         2.7182217522       -6.3844305832       22.4416194525
  C         2.5577399385       -4.2458909048       18.2705171711
  C         1.4932894011       -4.0920429179       17.4224023298
  C         1.1490865771       -2.8584838524       16.8678255874
  C         1.9860530328       -1.7511304019       17.0868039482
  C         3.0458257058       -1.9002387030       17.9401892689
  C         3.3757665425       -3.1274462288       18.5057771862
  C         2.2837770595        0.8593615652       14.2359805363
  C         1.1829869294        0.9806601189       15.0236290044
  C         0.4137749700        2.1699705033       14.9695855674
  C         0.9982946509        3.2887658916       14.3272003423
  C         2.1046062679        3.1659297623       13.5495717222
  C         2.8226722943        1.9448326698       13.5400725486
  C         2.6969869964      -10.4549438557       19.5827375036
  C         1.6768658429       16.6126068956       20.0206965365
  C         1.4289723790       15.3596498123       19.4628371467
  C         2.2794990893       14.8520953062       18.4767877990
  C         3.3183261343       15.6444924263       18.0573385547
  C         3.5638092323       16.8923337258       18.6181882901
  C         3.4601544566       10.7727086109       16.4105218251
  C         2.6776359732       11.9432123226       16.5495351017
  C         1.5802652871       12.0926309980       15.7583717640
  C         1.1167909547       11.0761727073       14.9259549809
  C         1.9082657261        9.9126920846       14.7552565673
  C         2.9977986249        9.7531339994       15.5579273887
  C         2.3890470711       -6.1076523397       23.8641527999
  C         1.2586685836        8.5526601568       -0.0498267885
  C         0.6395050529        8.6216142452        1.2116458287
  C         1.3654605609        8.0947162019        2.3146804767
  C         2.4895386672        7.3677582063        2.1079332167
  C         3.1122844096        7.3042310236        0.8332104209
  C         1.7774594809        9.3499799880        6.7435029814
  C         1.0524006433        8.5607893925        5.8085434569
  C        -0.0744708542        7.9160383584        6.1907850608
  C        -0.7061687857        8.1842289815        7.4357394462
  C         0.0261468911        8.9618339244        8.3848347275
  C         1.1603013277        9.5982020128        7.9843397634
  N         1.9851623844       -0.5472527369       16.3616027844
  N         0.8780981150       -0.1084371156       15.9042318540
  N         2.0030457297       13.6127470869       17.8648935681
  N         3.0319130251       13.0050424439       17.4254448969
  N         0.7937284429        8.2879949038        3.5904923045
  N         1.6313808509        8.4119804214        4.5287484952
  O         2.5036242304        8.1319905397       13.2672196882
  O         0.5926856134        9.6387494012       10.5331960465
  O         2.8898885716        3.8200027861       11.4681552114
  O         0.5988638289        9.3349651337       12.9306904708
  O         2.4422219614        5.4692378536       12.9444142286
  O        -1.2645530743        8.3635542522       10.3319764018
  O         3.7560352763       -7.0608317021       22.1344093535
  O         3.7666390888       -5.5504841301       19.7891031460
  O         3.7687659236       -8.3568396033       19.5838783630
  O         1.8480793171       -5.9574630179       21.5955533510
  O         1.8454998412       -8.5936396680       20.7782816544
  O         1.8481500920       -6.4204394946       18.9153227547
  O         0.5865564284        6.7727194918       11.4559817588
  O         2.2862570177        5.8171776819       10.1979375667
  C         0.7634876187        6.0615175323       10.2662482585
  H         0.3493871089        5.0557389912       10.2626559839
  H         0.5423116920        9.4370406706       11.6025854761
  H         0.5658963447        6.6406788484        9.3629892651
  H         2.4761798948        4.8684245574       10.6074034835
