      54
 i =        1, E =     -1444.4749887539
 Ni         3.1059383807        1.0555758228        9.1114886016
 Ni         0.8385344812       -0.2033862513        7.6302428798
 Ni        -1.4248002089       -0.8601363983        9.4552940677
 Ni        -1.4268054759        8.6168677771        3.9916429355
 Ni         0.8396756069        6.7120899584        3.6346662052
 Ni         3.1098308617        7.3610362732        5.4697297632
  H         2.7972084667        3.5584857595        6.1648059109
  H        -1.7365851195       11.1214546730        6.9346687420
  H        -1.7368796621        0.4425310995       13.0982613849
  H        -1.9418644733        4.2652787058        7.3887085750
  H         2.5919301130       -3.2960880812        5.7085560068
  H         2.5922856624        6.5925405354        0.0014805333
  C         1.1058383246        2.7209694288        7.1929755075
  C        -1.1620544462       -2.6955895267        7.1395412511
  C         3.3697348652       -0.0254528411       11.8600992011
  C         3.3701901367       10.2843948882        5.9135636899
  C        -1.1638470122        7.5397144896        1.2346213494
  C         1.1049492109        4.8627362402        5.9505863491
  C         1.7570216529        3.7183760049        6.4441644674
  C        -2.7752637974       11.2845101420        6.6529167877
  C        -2.7766239668        0.1206751402       13.0974419585
  C        -0.2767483987        2.9408641367        7.5465700336
  C         4.2552860584       -2.4988157141        6.7781449696
  C         1.9897784141       -0.4507927507       11.8725926230
  C         1.9897868001       10.5044397341        5.5497264625
  C         4.2553469262        7.1219453027        1.2277464008
  C        -0.2768817199        5.0655140977        6.3191598499
  C        -1.1441068027        1.9780686003        8.2353717608
  C         3.3897225006       -1.4210706403        7.2681646887
  C         1.1265519220       -0.5634721606       10.6931069117
  C         1.1246068488        9.5367437387        4.8676690196
  C         3.3923940166        7.0030668521        2.4049267417
  C        -1.1400598453        6.1442875833        5.8274086727
  C        -0.8943086277        4.1183990375        7.1315950380
  C         3.6391485989       -3.4464226559        5.9640166208
  C         3.6399873981        6.8881216670        0.0007627610
  O         1.7706835542        1.5957079703        7.4775083206
  O        -0.4996795449       -1.8880081813        7.9730545043
  O        -2.7619385774        0.2792630421       10.7432717308
  O        -2.7673238328        9.1615699548        5.6147373825
  O        -0.5065254376        7.8414679438        2.3585836694
  O         1.7635305190        5.6860922765        5.1290646394
  O        -0.7512684669        0.7456074087        8.3576631565
  O         3.7853276331       -0.6962847901        8.2722847826
  O         1.5168012575       -0.0440784694        9.5673034998
  O         1.5250871467        8.3062649359        4.7501792142
  O         3.7845866179        7.5129042246        3.5351690191
  O        -0.7474228811        6.8624149874        4.8174214952
  O        -2.2918593100        2.3495393630        8.6440273507
  O         2.2421588521       -1.2485431898        6.7423718130
  O        -0.0241699191       -1.0976792475       10.8101597919
  O        -0.0244801013        9.9062246276        4.4566962289
  O         2.2409463742        6.4697081637        2.2895176639
  O        -2.2904968738        6.3060850176        6.3512228692
      54
 i =        2, E =     -1444.4757756424
 Ni         3.1031910690        1.0503080460        9.1073498490
 Ni         0.8383647150       -0.2038620772        7.6393104908
 Ni        -1.4262246347       -0.8561661485        9.4530374613
 Ni        -1.4276027639        8.6136330904        3.9940244279
 Ni         0.8393578797        6.7213291503        3.6377475678
 Ni         3.1073544188        7.3620861002        5.4665983785
  H         2.7992436351        3.5562561908        6.1614487180
  H        -1.7366463099       11.1203723340        6.9372465601
  H        -1.7366169162        0.4457936942       13.0983546951
  H        -1.9406416299        4.2663888066        7.3904823180
  H         2.5923725444       -3.2958107878        5.7063545291
  H         2.5931786059        6.5900942527        0.0005523285
  C         1.1043466140        2.7183612138        7.1858202465
  C        -1.1634122570       -2.6992817376        7.1486837522
  C         3.3740513887       -0.0248318138       11.8593312716
  C         3.3740942431       10.2835711910        5.9115603891
  C        -1.1641679452        7.5435581573        1.2372829738
  C         1.1051730112        4.8622522291        5.9490299593
  C         1.7584922344        3.7162777184        6.4391032183
  C        -2.7758657782       11.2826443473        6.6570446312
  C        -2.7774619698        0.1273464510       13.0993535294
  C        -0.2749545152        2.9420120875        7.5502986924
  C         4.2580242181       -2.4963657234        6.7743814511
  C         1.9944638180       -0.4524609733       11.8728600756
  C         1.9927487910       10.5064853968        5.5520404330
  C         4.2567319520        7.1184331902        1.2259196268
  C        -0.2753770630        5.0648750467        6.3219899364
  C        -1.1461653111        1.9777607608        8.2339367536
  C         3.3882705169       -1.4218189674        7.2664835853
  C         1.1259674391       -0.5580193443       10.6963272263
  C         1.1275251972        9.5390558561        4.8695306846
  C         3.3878713513        7.0071042851        2.4010214368
  C        -1.1428374752        6.1384533289        5.8244092339
  C        -0.8954077223        4.1148467394        7.1280325098
  C         3.6377563418       -3.4478697725        5.9686544037
  C         3.6387559691        6.8931481692       -0.0008952233
  O         1.7669190132        1.5924768553        7.4819032120
  O        -0.4989247817       -1.8810797857        7.9738491329
  O        -2.7592831653        0.2800008454       10.7386603269
  O        -2.7593515352        9.1589077204        5.6182773019
  O        -0.5017056516        7.8422603561        2.3615846221
  O         1.7623254621        5.6862343662        5.1245725319
  O        -0.7547746194        0.7457891981        8.3593317588
  O         3.7841535980       -0.6926029895        8.2664934054
  O         1.5204271647       -0.0487606323        9.5683026362
  O         1.5236235429        8.3081559583        4.7508247472
  O         3.7835909398        7.5046186212        3.5351903466
  O        -0.7518264849        6.8609669717        4.8173301990
  O        -2.2947810746        2.3417129886        8.6443108503
  O         2.2374407293       -1.2499046611        6.7490344749
  O        -0.0217414377       -1.0982989533       10.8026412149
  O        -0.0217380696        9.9013701005        4.4558265723
  O         2.2370772261        6.4715523711        2.2923590296
  O        -2.2904497168        6.3138643347        6.3482550131
      54
 i =        3, E =     -1444.4762510481
 Ni         3.0998669589        1.0488621474        9.1015580951
 Ni         0.8364174481       -0.2060574733        7.6393354934
 Ni        -1.4278624215       -0.8502746596        9.4542864271
 Ni        -1.4277601595        8.6116818402        3.9993851592
 Ni         0.8382565738        6.7217493406        3.6396278297
 Ni         3.1038418252        7.3612210108        5.4642792556
  H         2.7998021958        3.5525905474        6.1557194876
  H        -1.7350507539       11.1188624092        6.9431689331
  H        -1.7355656594        0.4530906278       13.1000482468
  H        -1.9402928082        4.2672426729        7.3923585337
  H         2.5949906131       -3.2965001715        5.7043364846
  H         2.5948645799        6.5881135525       -0.0017973480
  C         1.1020016017        2.7196072464        7.1833180059
  C        -1.1642955894       -2.7000593525        7.1506843168
  C         3.3760453558       -0.0240660915       11.8605623133
  C         3.3762250481       10.2842072015        5.9120625254
  C        -1.1640655035        7.5421859733        1.2384086539
  C         1.1037138235        4.8624089849        5.9488459507
  C         1.7584882448        3.7136685960        6.4326667687
  C        -2.7754296297       11.2797320628        6.6648501394
  C        -2.7765498874        0.1331296267       13.1007585375
  C        -0.2769412270        2.9401329989        7.5490670360
  C         4.2573532745       -2.4952263606        6.7757961035
  C         1.9954142710       -0.4475592710       11.8718856390
  C         1.9951419243       10.5060251968        5.5533871956
  C         4.2554859789        7.1196557703        1.2257846095
  C        -0.2769759476        5.0624810517        6.3195967670
  C        -1.1474077172        1.9782050970        8.2373870718
  C         3.3854500304       -1.4185821159        7.2617516168
  C         1.1281427275       -0.5617406220       10.6948193913
  C         1.1285500143        9.5420141526        4.8683253651
  C         3.3846217364        7.0005916880        2.4011708744
  C        -1.1463240040        6.1387782314        5.8298286633
  C        -0.8966040867        4.1126028450        7.1259886427
  C         3.6387557991       -3.4499590022        5.9735177072
  C         3.6387269295        6.8976576891       -0.0021499114
  O         1.7661271174        1.5922514505        7.4740226717
  O        -0.4970576760       -1.8861123890        7.9804878957
  O        -2.7539541544        0.2879589217       10.7415344131
  O        -2.7503078297        9.1591211164        5.6290691469
  O        -0.4943952198        7.8562818810        2.3561131489
  O         1.7709108490        5.6726099107        5.1174595844
  O        -0.7576571312        0.7456582451        8.3608835898
  O         3.7835401307       -0.6873735780        8.2588107966
  O         1.5247098995       -0.0558998700        9.5661115863
  O         1.5199920106        8.3099712317        4.7479745705
  O         3.7829119260        7.4961785844        3.5345309561
  O        -0.7597431355        6.8562640039        4.8179039184
  O        -2.2969332429        2.3406662334        8.6454742025
  O         2.2319953334       -1.2542420951        6.7479569297
  O        -0.0198328360       -1.0991139392       10.8016562564
  O        -0.0182020495        9.9036980114        4.4517248986
  O         2.2320087086        6.4698747760        2.2876886678
  O        -2.2937472967        6.3177838522        6.3517187444
      54
 i =        4, E =     -1444.4767497991
 Ni         3.0925146686        1.0504011856        9.0887462049
 Ni         0.8328877540       -0.2111236289        7.6383622665
 Ni        -1.4306030905       -0.8398469599        9.4603758205
 Ni        -1.4292614033        8.6077441134        4.0144507239
 Ni         0.8367692603        6.7295957195        3.6387312733
 Ni         3.0985786483        7.3515913305        5.4590048967
  H         2.7948149866        3.5469889502        6.1470212854
  H        -1.7356302294       11.1170928399        6.9540194619
  H        -1.7368451822        0.4649139100       13.1033068502
  H        -1.9382426225        4.2680415395        7.3937535154
  H         2.6009233977       -3.2991278965        5.7032705960
  H         2.5998113853        6.5876579337       -0.0055895336
  C         1.0980034714        2.7175430980        7.1789941498
  C        -1.1656342787       -2.7014969359        7.1554522950
  C         3.3756874690       -0.0169292440       11.8621779448
  C         3.3762162137       10.2811799065        5.9191951188
  C        -1.1653509920        7.5496893902        1.2399641274
  C         1.0999449093        4.8588588082        5.9398903877
  C         1.7549188795        3.7117896862        6.4288628848
  C        -2.7753254915       11.2779752598        6.6713541799
  C        -2.7753710444        0.1352071429       13.1019934153
  C        -0.2791663980        2.9387700912        7.5470740999
  C         4.2566885143       -2.4957150002        6.7779128466
  C         1.9968811357       -0.4432080161       11.8705706612
  C         1.9982187209       10.5020803730        5.5538615563
  C         4.2563920047        7.1191373008        1.2276185162
  C        -0.2770703003        5.0633203706        6.3180737990
  C        -1.1499846476        1.9784486575        8.2379348735
  C         3.3815572503       -1.4173915908        7.2586423235
  C         1.1308246265       -0.5653953753       10.6927492549
  C         1.1298936749        9.5426989235        4.8646845655
  C         3.3814006220        6.9963944391        2.4027177047
  C        -1.1509140221        6.1379959768        5.8313158992
  C        -0.8958001680        4.1120960457        7.1238102902
  C         3.6441148306       -3.4524649720        5.9746262862
  C         3.6423254124        6.9016021264       -0.0023688385
  O         1.7629474768        1.5890981270        7.4652893375
  O        -0.4984713053       -1.8898320547        7.9901842155
  O        -2.7552472643        0.2968880244       10.7408647180
  O        -2.7538990012        9.1543865858        5.6276962744
  O        -0.4956633770        7.8679351103        2.3585517165
  O         1.7717259722        5.6688783005        5.1101729289
  O        -0.7587984064        0.7466901497        8.3661663902
  O         3.7834723387       -0.6793491311        8.2488065372
  O         1.5313152708       -0.0707601308        9.5600763364
  O         1.5207422293        8.3103286960        4.7431773389
  O         3.7826617957        7.4861497329        3.5365601851
  O        -0.7642712737        6.8519960499        4.8175361429
  O        -2.2980973020        2.3436779281        8.6465967211
  O         2.2274240952       -1.2566396131        6.7452456613
  O        -0.0166259188       -1.1003424008       10.8043217187
  O        -0.0151469187        9.9058549960        4.4500638393
  O         2.2275893037        6.4693593652        2.2864440770
  O        -2.2967225991        6.3176356533        6.3549306980
      54
 i =        5, E =     -1444.4767362573
 Ni         3.0794394698        1.0464944702        9.0727221281
 Ni         0.8300457764       -0.2202815949        7.6409385945
 Ni        -1.4333036254       -0.8169213038        9.4706015072
 Ni        -1.4331845337        8.6052611615        4.0386791551
 Ni         0.8330012472        6.7385502075        3.6284857338
 Ni         3.0860263062        7.3342234168        5.4556437486
  H         2.7856629537        3.5386392395        6.1333535987
  H        -1.7386113517       11.1140367270        6.9712615457
  H        -1.7399634334        0.4821502559       13.1086281788
  H        -1.9371972948        4.2699597886        7.3951757536
  H         2.6051363820       -3.3025380644        5.7008627993
  H         2.6048380164        6.5877932110       -0.0101426836
  C         1.0929628477        2.7113159392        7.1734166458
  C        -1.1678561789       -2.7041939600        7.1649740008
  C         3.3755708989       -0.0082408691       11.8621720605
  C         3.3767777490       10.2789205798        5.9256312940
  C        -1.1671430792        7.5567750149        1.2388900553
  C         1.0955279575        4.8543427001        5.9349715633
  C         1.7474420737        3.7045134328        6.4208382673
  C        -2.7769503225       11.2747161938        6.6822357931
  C        -2.7762570363        0.1450205867       13.1014549291
  C        -0.2820505544        2.9355542569        7.5419717173
  C         4.2563665305       -2.4993793349        6.7811748824
  C         1.9992700386       -0.4358306343       11.8704904475
  C         2.0016372423       10.4991637215        5.5568655599
  C         4.2568665524        7.1224692404        1.2272722776
  C        -0.2790839395        5.0604385065        6.3149471030
  C        -1.1536125509        1.9801583172        8.2390108973
  C         3.3805151031       -1.4172403756        7.2562604018
  C         1.1346821289       -0.5709117542       10.6927243709
  C         1.1330292241        9.5438930739        4.8619029542
  C         3.3817555668        6.9928917639        2.4039541117
  C        -1.1528533743        6.1360777513        5.8311441350
  C        -0.8953408017        4.1121785657        7.1257757383
  C         3.6479599791       -3.4531199294        5.9729137274
  C         3.6467776014        6.9011580185       -0.0032948746
  O         1.7580215227        1.5842039196        7.4636814740
  O        -0.5056373026       -1.8871941574        7.9996745682
  O        -2.7577212793        0.3028413484       10.7378308147
  O        -2.7597716782        9.1480092687        5.6320331994
  O        -0.5061631515        7.8750201039        2.3628357048
  O         1.7610486788        5.6664620615        5.1017444605
  O        -0.7559342640        0.7515037048        8.3763609731
  O         3.7823395047       -0.6771453795        8.2438292635
  O         1.5355772637       -0.0915182737        9.5539323492
  O         1.5224904680        8.3111551327        4.7304824670
  O         3.7780804676        7.4813233014        3.5387052971
  O        -0.7640833217        6.8485848453        4.8177066187
  O        -2.3025356410        2.3446155475        8.6448418709
  O         2.2258584798       -1.2575295125        6.7439156234
  O        -0.0137053044       -1.0993658699       10.8085592988
  O        -0.0109363981        9.9109987871        4.4534302806
  O         2.2272121403        6.4698184974        2.2828076567
  O        -2.2972282298        6.3115810753        6.3569740039
      54
 i =        6, E =     -1444.4772533753
 Ni         3.0849032880        1.0500969488        9.0843289084
 Ni         0.8322811768       -0.2176056771        7.6402871365
 Ni        -1.4320944740       -0.8291834556        9.4664419169
 Ni        -1.4337965928        8.6068978458        4.0216945872
 Ni         0.8342712242        6.7329608579        3.6295813134
 Ni         3.0879977429        7.3399065049        5.4573619351
  H         2.7860287806        3.5400038993        6.1360832346
  H        -1.7395574976       11.1145064138        6.9686072634
  H        -1.7405219631        0.4780620696       13.1073110998
  H        -1.9396164638        4.2697510779        7.3950322332
  H         2.6011925545       -3.3012522720        5.7009959026
  H         2.6014568487        6.5879348937       -0.0081945422
  C         1.0946867029        2.7123657388        7.1752280168
  C        -1.1677842410       -2.7053985366        7.1615952215
  C         3.3743313320       -0.0104580355       11.8630080019
  C         3.3754731145       10.2776469610        5.9244878372
  C        -1.1677192645        7.5560791083        1.2379504342
  C         1.0958169094        4.8542634290        5.9364676105
  C         1.7480819707        3.7057587069        6.4228214394
  C        -2.7772552143       11.2743295905        6.6780988457
  C        -2.7774261995        0.1446228047       13.1015477835
  C        -0.2807450275        2.9376390739        7.5435113693
  C         4.2564902986       -2.5000253314        6.7792888411
  C         1.9984875173       -0.4405718344       11.8717613676
  C         1.9999764157       10.5011945268        5.5554390856
  C         4.2571496516        7.1212765059        1.2262533776
  C        -0.2790635143        5.0617055053        6.3174260289
  C        -1.1515896227        1.9801444575        8.2373620657
  C         3.3830132943       -1.4200623170        7.2602654421
  C         1.1327948713       -0.5682145470       10.6945249897
  C         1.1316946144        9.5431238035        4.8634362006
  C         3.3840963774        6.9989210187        2.4025284181
  C        -1.1502111363        6.1361568337        5.8274889824
  C        -0.8972484094        4.1127825243        7.1261911484
  C         3.6442820529       -3.4521612084        5.9712503650
  C         3.6438813490        6.8992510998       -0.0026416673
  O         1.7610106306        1.5877352071        7.4683506736
  O        -0.5019069373       -1.8887087283        7.9897431643
  O        -2.7559970662        0.2958334762       10.7418018511
  O        -2.7581891037        9.1511476883        5.6273802296
  O        -0.5034158341        7.8632857819        2.3600399394
  O         1.7603390817        5.6739600167        5.1116663806
  O        -0.7549363940        0.7509908054        8.3759712899
  O         3.7810857069       -0.6822295787        8.2513256699
  O         1.5302740355       -0.0799857893        9.5584477160
  O         1.5255335450        8.3121990908        4.7290268817
  O         3.7778324338        7.4888451332        3.5377415504
  O        -0.7599189308        6.8545368067        4.8181783569
  O        -2.2994873056        2.3479362263        8.6434066157
  O         2.2311431586       -1.2549521599        6.7431520981
  O        -0.0157189426       -1.0989159158       10.8095562410
  O        -0.0149997145        9.9069354777        4.4554862860
  O         2.2321465710        6.4694476643        2.2859043806
  O        -2.2952223699        6.3116790721        6.3529488846
      54
 i =        7, E =     -1444.4773833028
 Ni         3.0839135173        1.0499348200        9.0829610622
 Ni         0.8340107454       -0.2189709464        7.6459828642
 Ni        -1.4332946075       -0.8257968247        9.4667278270
 Ni        -1.4333140584        8.6076478401        4.0208555199
 Ni         0.8337953768        6.7282046685        3.6325933277
 Ni         3.0850115414        7.3396495292        5.4529655554
  H         2.7845271649        3.5374454493        6.1322504278
  H        -1.7412176425       11.1122333657        6.9726256510
  H        -1.7425514744        0.4818850027       13.1074132606
  H        -1.9407597860        4.2696820869        7.3962500803
  H         2.6012812247       -3.3011428642        5.6998550406
  H         2.6009305043        6.5872320572       -0.0080424480
  C         1.0943635684        2.7125804734        7.1758181373
  C        -1.1672357340       -2.7049290331        7.1599028873
  C         3.3748750795       -0.0106892946       11.8623608206
  C         3.3753479040       10.2766428846        5.9243204413
  C        -1.1672816421        7.5554125039        1.2389696964
  C         1.0951744936        4.8538672248        5.9378974170
  C         1.7466392953        3.7028672359        6.4185287334
  C        -2.7788765156       11.2711487335        6.6820820279
  C        -2.7798684060        0.1501459541       13.1019373704
  C        -0.2815443951        2.9376462013        7.5436793158
  C         4.2560031078       -2.5003974396        6.7810029279
  C         1.9992768049       -0.4426450222       11.8724025850
  C         1.9994751234       10.5014253199        5.5555928748
  C         4.2566976431        7.1235462285        1.2260978364
  C        -0.2807982082        5.0608761254        6.3160483291
  C        -1.1508885505        1.9803786436        8.2389755335
  C         3.3836653175       -1.4200649362        7.2617167069
  C         1.1324148392       -0.5664903540       10.6960083528
  C         1.1312838312        9.5442336963        4.8622902411
  C         3.3845355833        7.0000680868        2.4018677408
  C        -1.1506089937        6.1375808250        5.8285447457
  C        -0.8989503971        4.1121525491        7.1250378357
  C         3.6437305813       -3.4524686870        5.9725914832
  C         3.6430016599        6.9000910525       -0.0023327537
  O         1.7609956685        1.5886781841        7.4704563711
  O        -0.5028505931       -1.8891743546        7.9887329206
  O        -2.7595460125        0.2969277437       10.7400648284
  O        -2.7577840142        9.1511981037        5.6276092542
  O        -0.5028491412        7.8656700537        2.3592552693
  O         1.7640007745        5.6720689207        5.1158301922
  O        -0.7544322023        0.7514195057        8.3761564798
  O         3.7816398176       -0.6828115917        8.2531882408
  O         1.5301250718       -0.0734291881        9.5626320199
  O         1.5295601215        8.3157990975        4.7206391772
  O         3.7826606394        7.4897217874        3.5358754022
  O        -0.7612539205        6.8563665418        4.8190460997
  O        -2.2995734683        2.3455132172        8.6438178086
  O         2.2317139360       -1.2550511243        6.7442982599
  O        -0.0159204704       -1.0988483290       10.8079635339
  O        -0.0164055170        9.9076303450        4.4556667773
  O         2.2325981894        6.4694916591        2.2861003285
  O        -2.2970575200        6.3132111125        6.3511656007
      54
 i =        8, E =     -1444.4774231749
 Ni         3.0809421680        1.0516112915        9.0843126638
 Ni         0.8320924099       -0.2231817464        7.6486984897
 Ni        -1.4343601700       -0.8199848441        9.4682220022
 Ni        -1.4326839329        8.6069253444        4.0227892983
 Ni         0.8326404004        6.7288281063        3.6322652359
 Ni         3.0798276995        7.3375458357        5.4509203194
  H         2.7810603448        3.5321298563        6.1243304353
  H        -1.7435464450       11.1077143882        6.9812350112
  H        -1.7448494138        0.4914363742       13.1081743047
  H        -1.9425134554        4.2700481391        7.3977716765
  H         2.6016048859       -3.3012664332        5.6982626068
  H         2.6012490384        6.5865939775       -0.0081032546
  C         1.0924241363        2.7118191821        7.1732537366
  C        -1.1684244522       -2.7071068596        7.1641073667
  C         3.3746175654       -0.0078528659       11.8633490045
  C         3.3750526148       10.2763374907        5.9262174268
  C        -1.1684444047        7.5601043395        1.2397743711
  C         1.0936509404        4.8531966301        5.9369670557
  C         1.7441847588        3.6998652798        6.4127629296
  C        -2.7800199058       11.2685848568        6.6876092977
  C        -2.7810455213        0.1561190992       13.1029934799
  C        -0.2826607413        2.9381004286        7.5437383530
  C         4.2561318153       -2.5008057082        6.7813618112
  C         1.9997322927       -0.4432213159       11.8727327755
  C         1.9990733372       10.5007223093        5.5563524392
  C         4.2563557340        7.1253093558        1.2263634792
  C        -0.2824180767        5.0597527548        6.3149794896
  C        -1.1511791034        1.9814865240        8.2401071806
  C         3.3843696625       -1.4203542132        7.2616620509
  C         1.1323777005       -0.5663729299       10.6968039730
  C         1.1324894342        9.5459011325        4.8576876194
  C         3.3843693526        6.9998085119        2.4014300451
  C        -1.1519279987        6.1372250684        5.8289633984
  C        -0.9014267007        4.1114562441        7.1236457726
  C         3.6431013747       -3.4537200741        5.9743532403
  C         3.6431280043        6.9004930857       -0.0019960374
  O         1.7582615513        1.5872090263        7.4669260174
  O        -0.5030795330       -1.8900452410        7.9896849384
  O        -2.7564970260        0.2986735567       10.7433450629
  O        -2.7558996646        9.1523810265        5.6317486871
  O        -0.5008079380        7.8640626961        2.3591952373
  O         1.7609633996        5.6697022327        5.1119649814
  O        -0.7544766444        0.7530814059        8.3787530907
  O         3.7820370360       -0.6824448382        8.2528281895
  O         1.5294749463       -0.0745108219        9.5626927735
  O         1.5312650579        8.3183894347        4.7106551331
  O         3.7842255078        7.4889445071        3.5350855566
  O        -0.7598292954        6.8575899837        4.8214420267
  O        -2.2996261711        2.3463442368        8.6444930669
  O         2.2315238919       -1.2565258513        6.7453230388
  O        -0.0158332203       -1.0991827878       10.8083600185
  O        -0.0170855441        9.9093751084        4.4564257309
  O         2.2319880765        6.4695109005        2.2860111599
  O        -2.2976667249        6.3135601628        6.3527344936
      54
 i =        9, E =     -1444.4774970707
 Ni         3.0812196404        1.0506333661        9.0849886934
 Ni         0.8316127146       -0.2220988483        7.6492778148
 Ni        -1.4351281758       -0.8228421132        9.4673675622
 Ni        -1.4344733121        8.6071796286        4.0239090471
 Ni         0.8329323348        6.7294726836        3.6311905756
 Ni         3.0821332270        7.3376074830        5.4519755096
  H         2.7793948157        3.5305424598        6.1214630090
  H        -1.7446571075       11.1054993009        6.9836860187
  H        -1.7451845489        0.4949120492       13.1082244539
  H        -1.9426530671        4.2698444631        7.3972767729
  H         2.6014461142       -3.3010467608        5.6984738219
  H         2.6011806139        6.5865436005       -0.0073920523
  C         1.0915940902        2.7102709319        7.1714317734
  C        -1.1686843242       -2.7082160066        7.1660431925
  C         3.3744325343       -0.0072221054       11.8631410943
  C         3.3745745827       10.2761735594        5.9268547225
  C        -1.1685303668        7.5603443149        1.2390420258
  C         1.0931448180        4.8525086998        5.9350328713
  C         1.7434791588        3.6998639255        6.4128694683
  C        -2.7804293579       11.2680330042        6.6883930500
  C        -2.7808378155        0.1577353587       13.1025269258
  C        -0.2829490054        2.9376615808        7.5439478432
  C         4.2562516675       -2.5009801714        6.7819108500
  C         1.9991294021       -0.4417071074       11.8727262095
  C         1.9988127924       10.5010740945        5.5561137720
  C         4.2560154499        7.1260047479        1.2261543657
  C        -0.2824893003        5.0596124517        6.3149280926
  C        -1.1522502972        1.9815810524        8.2404355360
  C         3.3842363450       -1.4204411658        7.2610804675
  C         1.1329159876       -0.5674941564       10.6964642307
  C         1.1331904950        9.5456003202        4.8571732224
  C         3.3849005841        6.9994431364        2.4013914422
  C        -1.1521384683        6.1372295935        5.8295190877
  C        -0.9011257135        4.1116103546        7.1243127821
  C         3.6430010484       -3.4535150196        5.9744027024
  C         3.6433396722        6.8997257706       -0.0021148678
  O         1.7600837589        1.5882525870        7.4695037116
  O        -0.5013341362       -1.8901282766        7.9889887306
  O        -2.7570753731        0.2989014271       10.7426999341
  O        -2.7570516717        9.1524669696        5.6316840605
  O        -0.5029891101        7.8653324652        2.3594194122
  O         1.7609180250        5.6720347782        5.1125865412
  O        -0.7558033390        0.7530561443        8.3793656000
  O         3.7812943281       -0.6822544115        8.2523220948
  O         1.5301815970       -0.0755209823        9.5622546259
  O         1.5299540362        8.3167228924        4.7162493749
  O         3.7816890842        7.4888986912        3.5360948684
  O        -0.7589018407        6.8593972563        4.8235810912
  O        -2.3009328426        2.3459741801        8.6448815851
  O         2.2308917986       -1.2566154036        6.7458491975
  O        -0.0160231721       -1.0987005424       10.8085034004
  O        -0.0167218099        9.9080117984        4.4555584130
  O         2.2327591812        6.4690004799        2.2848600428
  O        -2.2973431538        6.3123886861        6.3543077155
      54
 i =       10, E =     -1444.4775400826
 Ni         3.0818277494        1.0506185409        9.0853461687
 Ni         0.8306971552       -0.2232364511        7.6510318653
 Ni        -1.4351474301       -0.8235744289        9.4681271340
 Ni        -1.4346371895        8.6079052159        4.0227515357
 Ni         0.8325372955        6.7307256823        3.6321676094
 Ni         3.0830196289        7.3370600903        5.4519487864
  H         2.7767410003        3.5273734827        6.1159479780
  H        -1.7471692246       11.1012370055        6.9887409098
  H        -1.7469824705        0.5016630940       13.1081725963
  H        -1.9430751635        4.2696944264        7.3969037264
  H         2.6012897668       -3.3003434475        5.6988887120
  H         2.6015725646        6.5860319395       -0.0065254777
  C         1.0914185785        2.7103809662        7.1722460254
  C        -1.1685982299       -2.7081378372        7.1659908456
  C         3.3740854023       -0.0051910401       11.8631106212
  C         3.3744556363       10.2744739358        5.9281416737
  C        -1.1689788761        7.5621079713        1.2390675802
  C         1.0923031214        4.8523607161        5.9336860371
  C         1.7414202134        3.6979519533        6.4089136985
  C        -2.7822228918       11.2655870424        6.6919268971
  C        -2.7816581132        0.1612771250       13.1025587055
  C        -0.2839020777        2.9362708648        7.5432357552
  C         4.2555173586       -2.5019507056        6.7837029882
  C         1.9991559783       -0.4414790118       11.8727954756
  C         1.9994896041       10.5019656963        5.5550016650
  C         4.2558584849        7.1259089412        1.2264721853
  C        -0.2833109242        5.0586892400        6.3143520899
  C        -1.1535925137        1.9813860386        8.2411204456
  C         3.3836200488       -1.4212779947        7.2620374804
  C         1.1328035918       -0.5671026557       10.6969635922
  C         1.1321913003        9.5449427111        4.8605331623
  C         3.3845841508        7.0002820419        2.4013764576
  C        -1.1515407311        6.1383799850        5.8312494079
  C        -0.9012428378        4.1112260790        7.1249509934
  C         3.6430791776       -3.4532489307        5.9738244865
  C         3.6433583565        6.9006392544       -0.0020187618
  O         1.7604314092        1.5885014331        7.4697115801
  O        -0.5029903663       -1.8902644373        7.9903750146
  O        -2.7583311403        0.2972077943       10.7411357567
  O        -2.7580188779        9.1515491747        5.6294951916
  O        -0.5030097911        7.8644521026        2.3597502111
  O         1.7603855183        5.6730435945        5.1118409584
  O        -0.7576029843        0.7525746590        8.3792096157
  O         3.7819048388       -0.6827871344        8.2529250268
  O         1.5313442179       -0.0760384312        9.5624314190
  O         1.5297198613        8.3163387779        4.7194730866
  O         3.7806014847        7.4889781726        3.5370022418
  O        -0.7584457174        6.8637537980        4.8276167196
  O        -2.3022461034        2.3471304986        8.6446682773
  O         2.2310333463       -1.2565950422        6.7453418333
  O        -0.0157450431       -1.0990745613       10.8091832065
  O        -0.0158264765        9.9075364731        4.4534978912
  O         2.2328749431        6.4687662411        2.2856681190
  O        -2.2975857642        6.3118402452        6.3536125320
