      57
 i =        1, E =     -1480.4339583347
 Ni         3.1346494511        0.9475804885        9.0411680147
 Ni         0.8365868960       -0.2042879501        7.6230413368
 Ni        -1.4060043527       -0.8675087469        9.4590000603
 Ni        -1.4268667696        8.6083645586        3.9900223927
 Ni         0.8417387286        6.7167417388        3.6486563908
 Ni         3.1071155476        7.3658411489        5.4619707413
  H         2.8003765729        3.5586682412        6.1645723185
  H        -1.7353972896       11.1224225317        6.9335377115
  H        -1.7394074369        0.4396776487       13.0984074687
  H        -1.9441482448        4.2661774698        7.3889028213
  H         2.5849183439       -3.2922719138        5.7079104648
  H         2.5913996832        6.5915596096        0.0011924215
  C         1.1066931588        2.7237950748        7.1827365859
  C        -1.1582855048       -2.7014966847        7.1439848087
  C         3.3718894833       -0.0321411910       11.8637446721
  C         3.3724530133       10.2833924146        5.9078102527
  C        -1.1641221208        7.5355316717        1.2416574417
  C         1.1088185671        4.8706004628        5.9539007558
  C         1.7622786688        3.7279034442        6.4470999663
  C        -2.7731107080       11.2840047289        6.6486286628
  C        -2.7779334296        0.1126624300       13.1025215174
  C        -0.2749785863        2.9422640488        7.5437817367
  C         4.2655502643       -2.5207288545        6.7520462773
  C         1.9900219208       -0.4470675690       11.8720164356
  C         1.9916712612       10.4920296081        5.5442439910
  C         4.2551352717        7.1166373124        1.2307613422
  C        -0.2761141092        5.0685296328        6.3201724286
  C        -1.1279094876        1.9723245428        8.2273566383
  C         3.3888594157       -1.4563568463        7.2275828320
  C         1.1195019205       -0.5691241426       10.7005184163
  C         1.1185808371        9.5365551786        4.8626212768
  C         3.3921027725        7.0002510713        2.4071271073
  C        -1.1451661272        6.1427975154        5.8306502184
  C        -0.8973951584        4.1167967565        7.1270289890
  C         3.6306705462       -3.4652113962        5.9567777908
  C         3.6365642593        6.8956630015        0.0005483889
  O         1.7708342046        1.5935067168        7.4473684565
  O        -0.4860933877       -1.8966277433        7.9706031642
  O        -2.7558184801        0.2640138515       10.7475509557
  O        -2.7570301115        9.1646410459        5.6247903081
  O        -0.4905298381        7.8512372163        2.3507470025
  O         1.7785479541        5.6733736853        5.1206366038
  O        -0.7435112540        0.7366437715        8.3559721184
  O         3.8219408276       -0.7958836913        8.2545488907
  O         1.5190732404       -0.0943790930        9.5567396528
  O         1.5231845877        8.3090833228        4.7438735558
  O         3.7857172394        7.5198295118        3.5321559399
  O        -0.7473943685        6.8607332426        4.8227386929
  O        -2.2870872852        2.3253251179        8.6321503382
  O         2.2348004364       -1.2479070085        6.7256568967
  O        -0.0272541703       -1.1119901096       10.8266928749
  O        -0.0302508378        9.9018253578        4.4490892133
  O         2.2401871650        6.4629361376        2.3007541945
  O        -2.2931911714        6.3231855496        6.3542716766
  O         3.0227591564        1.8727676330        9.5001851814
  C         2.8017604057        2.6689667171        9.8418415067
  O         2.5451502186        3.3413452600       10.4480718215
      57
 i =        2, E =     -1481.5430407198
 Ni         3.1583320379        0.9294342604        8.9211596267
 Ni         0.8465736736       -0.2359917362        7.6128532518
 Ni        -1.4175164835       -0.9274940635        9.4480389769
 Ni        -1.4317403144        8.6187788427        3.9954748116
 Ni         0.8346805932        6.7042830962        3.6358628272
 Ni         3.1048812418        7.3609603188        5.4674745032
  H         2.8144402940        3.5571703388        6.1559300449
  H        -1.7302587336       11.1171853583        6.9367902428
  H        -1.7375899836        0.4424421848       13.1032427490
  H        -1.9436973636        4.2704386568        7.3889868579
  H         2.5902431096       -3.3027319485        5.7000830638
  H         2.5948743317        6.5912349797        0.0018922273
  C         1.1220783227        2.7321678727        7.1548542194
  C        -1.1590878132       -2.7173753501        7.1238453981
  C         3.3737354320       -0.0421065954       11.8554171511
  C         3.3734692896       10.2734325881        5.9026643311
  C        -1.1617032564        7.5404847453        1.2383402255
  C         1.1085539269        4.8738919028        5.9437483378
  C         1.7809027212        3.7461687158        6.4396464307
  C        -2.7696519313       11.2653954894        6.6515715584
  C        -2.7805996237        0.1304927003       13.0955303908
  C        -0.2540567535        2.9483040911        7.5139439822
  C         4.2728646705       -2.5262597226        6.7150321817
  C         1.9890249366       -0.4461671248       11.8768571544
  C         1.9941751130       10.4788640243        5.5359082441
  C         4.2610779263        7.1114455513        1.2322798604
  C        -0.2747355157        5.0742264005        6.3206133880
  C        -1.0806992336        1.9591703265        8.1781974210
  C         3.3965975123       -1.4951487629        7.2327080632
  C         1.1262916108       -0.6048085422       10.7001196108
  C         1.1267389125        9.5244466238        4.8527150814
  C         3.3847083492        7.0106681573        2.4032858556
  C        -1.1455489451        6.1468382402        5.8293293510
  C        -0.8971386654        4.1212697389        7.1211854510
  C         3.6383967973       -3.4784549600        5.9395789542
  C         3.6379574593        6.9034465131        0.0054532595
  O         1.7502696669        1.5711554306        7.3576281572
  O        -0.4852361362       -1.9186131351        7.9564518256
  O        -2.7521898388        0.1947842513       10.7162315551
  O        -2.7534422010        9.1535734211        5.6254170659
  O        -0.5004061579        7.8539907942        2.3561789430
  O         1.7789120545        5.6840528683        5.1162173603
  O        -0.7262792768        0.7149099887        8.3697408566
  O         3.8023636154       -0.8314534823        8.2598132889
  O         1.5486937973       -0.1718271193        9.5484086557
  O         1.5171889971        8.2929843173        4.7328425792
  O         3.7840338099        7.5105240515        3.5344498996
  O        -0.7568298424        6.8645153229        4.8180985120
  O        -2.2019107752        2.3999206313        8.6246856678
  O         2.2577833250       -1.2670791702        6.7089489654
  O        -0.0386692051       -1.1033705715       10.8381181470
  O        -0.0222648168        9.8998909494        4.4537912581
  O         2.2410781217        6.4621224914        2.2901956647
  O        -2.2948539923        6.3113098291        6.3517244442
  O         2.9581833709        1.9980529176        9.6548644186
  C         2.7144870054        2.7801611478        9.9895527914
  O         2.3326457799        3.5398522205       10.6980718215
      57
 i =        3, E =     -1481.8895494348
 Ni         3.1828423293        0.9754739190        8.8386004907
 Ni         0.8595178571       -0.2633615189        7.6253573547
 Ni        -1.4150560349       -0.9316459378        9.4395835884
 Ni        -1.4308391767        8.6131843646        3.9954695110
 Ni         0.8335112195        6.7124122806        3.6400423051
 Ni         3.0973868316        7.3519744682        5.4651362307
  H         2.8259870626        3.5678279642        6.1417403145
  H        -1.7316049849       11.1051117035        6.9388259521
  H        -1.7405398145        0.4471667205       13.1023994187
  H        -1.9219868575        4.2670389745        7.3837860349
  H         2.6014153649       -3.3196069392        5.6900478788
  H         2.5980626953        6.5943221860        0.0038816977
  C         1.1313462249        2.7163177444        7.1096468241
  C        -1.1553815080       -2.7266031958        7.1108191237
  C         3.3820246024       -0.0601107453       11.8377940199
  C         3.3767336531       10.2581617095        5.9009004031
  C        -1.1639937744        7.5542340130        1.2314538614
  C         1.1168139783        4.8828465632        5.9533898544
  C         1.7941489870        3.7498045240        6.4313124740
  C        -2.7681533970       11.2553621030        6.6427754795
  C        -2.7839901956        0.1369685372       13.0847350025
  C        -0.2316445950        2.9332286026        7.4841296164
  C         4.2710556672       -2.5316115783        6.7256694939
  C         1.9942366939       -0.4523460427       11.8711187555
  C         2.0010019492       10.4762168281        5.5278856112
  C         4.2585778378        7.1240044851        1.2260431889
  C        -0.2689928473        5.0772102533        6.3170117771
  C        -1.0461386340        1.9842033840        8.2141105389
  C         3.4100440334       -1.4811960024        7.2226368858
  C         1.1410448075       -0.5990608740       10.6850272993
  C         1.1271683976        9.5211856560        4.8538343565
  C         3.3905364119        6.9938892042        2.4040858530
  C        -1.1474450074        6.1459055441        5.8280569541
  C        -0.8769928576        4.1141959001        7.1114580629
  C         3.6528915972       -3.4767213520        5.9280440968
  C         3.6414283876        6.9054548095       -0.0002587453
  O         1.7538572459        1.5561129696        7.3121515526
  O        -0.4929476763       -1.9206391617        7.9476637505
  O        -2.7461007102        0.1289743042       10.6838122284
  O        -2.7498635984        9.1372964721        5.6232487329
  O        -0.4950835661        7.8516110332        2.3523389604
  O         1.7725749060        5.6829366822        5.1081121715
  O        -0.7126216573        0.7269112321        8.3505172475
  O         3.7892578046       -0.8100848719        8.2583533522
  O         1.5992634478       -0.2090521261        9.5291979546
  O         1.5195262263        8.2928320263        4.7244282336
  O         3.7803129302        7.5036024319        3.5324694776
  O        -0.7599868052        6.8636718063        4.8193027595
  O        -2.1770824064        2.4450053790        8.6048512233
  O         2.2663397668       -1.2861717089        6.6987216395
  O        -0.0239060305       -1.0959602794       10.8204576135
  O        -0.0174581393        9.8953424100        4.4462589306
  O         2.2362485829        6.4708510182        2.2926835191
  O        -2.2932052407        6.3167910151        6.3523560228
  O         2.9188939969        2.0077808796        9.8212734084
  C         2.6374037049        2.8491810139       10.1785005904
  O         2.0826457799        3.5845039393       10.8579014863
      57
 i =        4, E =     -1482.0541712207
 Ni         3.2094303698        1.0268195345        8.7835918732
 Ni         0.8532053675       -0.2675017103        7.6036050732
 Ni        -1.4151549173       -0.9488841473        9.4371185100
 Ni        -1.4315511014        8.6213328807        3.9952637364
 Ni         0.8313824056        6.7008060704        3.6211540635
 Ni         3.0956919668        7.3457633736        5.4702490998
  H         2.8397318852        3.5847185863        6.1230787674
  H        -1.7267566932       11.0907764462        6.9399671355
  H        -1.7316435792        0.4538657520       13.0955087176
  H        -1.9012413776        4.2581690577        7.3833300444
  H         2.6054630425       -3.3281163369        5.6742754340
  H         2.5970367709        6.5965421149        0.0000271006
  C         1.1491977251        2.7072004869        7.0984356726
  C        -1.1504435922       -2.7388250415        7.1161273745
  C         3.3942506337       -0.0926808548       11.8306836007
  C         3.3835061034       10.2576579361        5.8930620434
  C        -1.1666134387        7.5565327235        1.2165887837
  C         1.1234751193        4.8727154157        5.9390609852
  C         1.8037107237        3.7385510980        6.4133300680
  C        -2.7609940930       11.2483672472        6.6406156920
  C        -2.7756388258        0.1463384378       13.0758104259
  C        -0.2035859975        2.9441702067        7.4929994962
  C         4.2836818414       -2.5314426698        6.7097123647
  C         1.9965222649       -0.4473621653       11.8609972937
  C         2.0067376156       10.4728278090        5.5238662333
  C         4.2591965629        7.1176992715        1.2178360085
  C        -0.2548054276        5.0816035934        6.3146047336
  C        -1.0710766261        1.9888025062        8.1477315710
  C         3.4009285040       -1.5028206949        7.2218756959
  C         1.1760355770       -0.6209727109       10.6514274577
  C         1.1336639218        9.5248485468        4.8378492577
  C         3.3791937813        7.0174546520        2.3920088855
  C        -1.1430224207        6.1488901837        5.8323815801
  C        -0.8600134343        4.1109000572        7.0959957920
  C         3.6515094933       -3.4862382435        5.9316654976
  C         3.6389199898        6.9133185407       -0.0102843478
  O         1.7798113082        1.5475480365        7.2898013001
  O        -0.4777347027       -1.9254573020        7.9381762259
  O        -2.7356198010        0.0664128432       10.6755658522
  O        -2.7469730438        9.1325769972        5.6249714500
  O        -0.5045089793        7.8720321325        2.3378392570
  O         1.7790812489        5.6851695655        5.1096296064
  O        -0.6986726701        0.7530717391        8.3682233277
  O         3.8063483316       -0.7763334945        8.2121037021
  O         1.6292818378       -0.2337685457        9.4946655148
  O         1.5186446715        8.2920892058        4.7189848863
  O         3.7895303927        7.4846071104        3.5335484472
  O        -0.7641328945        6.8659618343        4.8192541625
  O        -2.1601277957        2.4697067734        8.6297994016
  O         2.2700294291       -1.2870699713        6.6730419025
  O        -0.0012381803       -1.0862840112       10.8007448335
  O        -0.0170279527        9.9047116677        4.4525639457
  O         2.2447693641        6.4523942604        2.2760048289
  O        -2.2913525663        6.2997775183        6.3592663692
  O         2.8780666524        2.0026501471       10.0030789650
  C         2.5523206693        2.8949923066       10.3671874818
  O         1.8326457799        3.6140908858       11.0012766808
      57
 i =        5, E =     -1482.1634372609
 Ni         3.2244644940        1.0569038258        8.8018535325
 Ni         0.8524649351       -0.2593829861        7.6035406753
 Ni        -1.3961967425       -0.9199471505        9.4215329369
 Ni        -1.4299388081        8.6043781285        3.9948206096
 Ni         0.8336267809        6.7302545209        3.6304501383
 Ni         3.0908980412        7.3407232119        5.4395821450
  H         2.8519860791        3.6037188266        6.0942820256
  H        -1.7253162334       11.0711343005        6.9393281548
  H        -1.7285009079        0.4613215403       13.0802484059
  H        -1.8662005402        4.2430904537        7.3728697686
  H         2.6184528579       -3.3392763575        5.6621820337
  H         2.5983766336        6.6075479408       -0.0164531514
  C         1.1779400833        2.6936047488        7.0943638995
  C        -1.1375643470       -2.7293697964        7.0974677452
  C         3.4161207140       -0.1236816180       11.8349301070
  C         3.3931312580       10.2440637156        5.8939892251
  C        -1.1695274579        7.5760481232        1.2182925644
  C         1.1429444640        4.8807885053        5.9245737671
  C         1.8090740778        3.7262055858        6.3832964118
  C        -2.7593752416       11.2387246732        6.6436284292
  C        -2.7656401735        0.1326023830       13.0819007341
  C        -0.2014566277        2.9074466244        7.4323721685
  C         4.2748154876       -2.5628668097        6.7422772513
  C         2.0192841695       -0.4746941681       11.8336019563
  C         2.0222190200       10.4661528113        5.5084968448
  C         4.2508713386        7.1524563386        1.1943719552
  C        -0.2354895688        5.0791722256        6.2991024923
  C        -1.0429485615        2.0367439670        8.2543797437
  C         3.4313429767       -1.4529136982        7.1601679405
  C         1.1854242522       -0.6128780539       10.6282066043
  C         1.1291362798        9.5229890815        4.8420391595
  C         3.4033906894        6.9752361022        2.3887554664
  C        -1.1383326026        6.1445202873        5.8269780483
  C        -0.8194476338        4.1196059879        7.1025957708
  C         3.6653512922       -3.4937920026        5.9161269087
  C         3.6416189937        6.9202951101       -0.0380566660
  O         1.8316694222        1.5392549737        7.2990368104
  O        -0.4715643623       -1.9129370825        7.9263683614
  O        -2.6750141073       -0.0296737165       10.7037430100
  O        -2.7412682674        9.1207188841        5.6052457977
  O        -0.4963040123        7.8630748563        2.3448454602
  O         1.7876348556        5.6991471599        5.0940406587
  O        -0.7064256568        0.7826979929        8.3408951886
  O         3.8451367016       -0.7265496784        8.1501912216
  O         1.6591215297       -0.2914610590        9.4579723751
  O         1.5267512964        8.2996258189        4.7064616950
  O         3.7837873205        7.4951278265        3.5147546762
  O        -0.7594556876        6.8700085514        4.8235624998
  O        -2.1974014626        2.4463961996        8.6232284652
  O         2.2551836458       -1.3051637288        6.6850651280
  O         0.0210963001       -1.1028429802       10.7595825175
  O        -0.0180338992        9.8909298842        4.4403207774
  O         2.2370328325        6.4746635887        2.2830373082
  O        -2.2874040069        6.3105365834        6.3469614163
  O         2.7543160260        2.0059415873       10.1913003531
  C         2.3023206693        2.9509860999       10.5475081021
  O         1.6917927398        3.6820553098       11.1998333491
      57
 i =        6, E =     -1482.1961470416
 Ni         3.2283718627        1.0856121858        8.8593628299
 Ni         0.8839447002       -0.2619725702        7.6220455045
 Ni        -1.4000875677       -0.9256219324        9.3975144219
 Ni        -1.4325650082        8.6241965136        3.9858844771
 Ni         0.8449798318        6.7347216941        3.6215000284
 Ni         3.0977571720        7.3262235590        5.4262887882
  H         2.8694332004        3.6054727555        6.0620842435
  H        -1.7206295872       11.0559019868        6.9416627212
  H        -1.7229372584        0.4586477381       13.0741540308
  H        -1.8380268520        4.2415715601        7.3793415460
  H         2.6322252780       -3.3459630656        5.6475002678
  H         2.6001306486        6.6222313844       -0.0475101337
  C         1.1748496571        2.6747776932        7.0385708536
  C        -1.1441531269       -2.7532367202        7.1102604958
  C         3.4454148024       -0.1928539012       11.8317195788
  C         3.3937857045       10.2375757998        5.8837339242
  C        -1.1622099715        7.5753995212        1.2110915602
  C         1.1500273703        4.8800198266        5.9048066134
  C         1.8289506736        3.7285371797        6.3654345838
  C        -2.7524781777       11.2274924351        6.6357111805
  C        -2.7612525895        0.1305064015       13.0791834902
  C        -0.1675980973        2.9459866160        7.5304521365
  C         4.2883204672       -2.5233477856        6.7084690307
  C         2.0265063117       -0.4748559185       11.8164458154
  C         2.0233499858       10.4709045437        5.5068873596
  C         4.2585222324        7.1462448772        1.1837264203
  C        -0.2223373944        5.0847291638        6.2986455244
  C        -1.0763569490        1.9977536047        8.1748522590
  C         3.4072528517       -1.4631134269        7.1836759417
  C         1.2206595811       -0.6840880835       10.5905985408
  C         1.1481989290        9.5238516774        4.8231381064
  C         3.3793446354        7.0285238903        2.3605093906
  C        -1.1304331462        6.1503230987        5.8221717888
  C        -0.8109586832        4.0897940895        7.0562055364
  C         3.6710047677       -3.4937722978        5.9350988662
  C         3.6461939496        6.9267284028       -0.0537085404
  O         1.8560967233        1.5507586145        7.3440481887
  O        -0.4593044433       -1.8991079560        7.8887973287
  O        -2.6402896148       -0.0809426490       10.7346581496
  O        -2.7440167456        9.1085933245        5.6055437665
  O        -0.4974785210        7.8637312138        2.3441644831
  O         1.8115135539        5.6994578950        5.0885100094
  O        -0.6661044261        0.7827972824        8.3629811374
  O         3.8902804562       -0.6206466006        8.0607322739
  O         1.6772860398       -0.3155749191        9.4456551063
  O         1.5326334613        8.2933372785        4.7071919994
  O         3.7951424435        7.4783878812        3.5085460197
  O        -0.7532364454        6.8813824282        4.8208563799
  O        -2.1986523170        2.3995425848        8.6544854085
  O         2.2565539400       -1.2955721870        6.6649215225
  O         0.0205818565       -1.0977395352       10.7318206361
  O        -0.0058018121        9.8989065667        4.4455854369
  O         2.2461296904        6.4519922022        2.2710352877
  O        -2.2771813722        6.3000813806        6.3544047679
  O         2.6333270741        2.0212631223       10.3665138522
  C         2.0639934691        3.0104085949       10.7052178930
  O         1.5144987883        3.7660638579       11.3510396711
      57
 i =        7, E =     -1482.2104748204
 Ni         3.2148600291        1.1013319542        8.8938034380
 Ni         0.8875973224       -0.2621225451        7.5943088930
 Ni        -1.4013352401       -0.9377927070        9.4039023749
 Ni        -1.4297169589        8.6348695254        3.9819640278
 Ni         0.8443986601        6.7221624447        3.6071299187
 Ni         3.1071896848        7.3292992084        5.4196295319
  H         2.8722521446        3.5970610615        6.0485833992
  H        -1.7188074930       11.0519597782        6.9425209278
  H        -1.7179173140        0.4525177061       13.0764982324
  H        -1.8484320842        4.2419878894        7.3764757268
  H         2.6283778341       -3.3442179408        5.6452335498
  H         2.5984287905        6.6331848427       -0.0668169405
  C         1.2005030213        2.7182969422        7.1167320227
  C        -1.1356999333       -2.7383917238        7.0777112070
  C         3.4459229327       -0.1751950809       11.8326514918
  C         3.3959195831       10.2346806207        5.8818116157
  C        -1.1592764212        7.5591398213        1.2015719864
  C         1.1594113401        4.8802183779        5.8986085791
  C         1.8237147793        3.7076457236        6.3290877926
  C        -2.7536609828       11.2179338171        6.6445052791
  C        -2.7529634258        0.1109990890       13.0764671635
  C        -0.1843962098        2.9364137191        7.4890643081
  C         4.2805555341       -2.5363603302        6.7241415076
  C         2.0481275790       -0.5292140554       11.8107622387
  C         2.0251222674       10.4707202135        5.5117240860
  C         4.2516487725        7.1589276380        1.1793710851
  C        -0.2219084385        5.0674549978        6.2745547519
  C        -1.0488949347        1.9846769466        8.1934068986
  C         3.4379246285       -1.4141882404        7.1451809185
  C         1.2143924993       -0.6691679364       10.5950659039
  C         1.1508916345        9.5234542145        4.8269709243
  C         3.3839205302        7.0201957427        2.3592335269
  C        -1.1225466768        6.1532146089        5.8255996128
  C        -0.8082046688        4.1164088259        7.0922672619
  C         3.6693838158       -3.4878298534        5.9238425342
  C         3.6473256477        6.9279645679       -0.0607615066
  O         1.8678539290        1.5656019955        7.3441372348
  O        -0.4637381737       -1.9100218506        7.8862715923
  O        -2.6384615347       -0.0907116710       10.7378628810
  O        -2.7400401638        9.1062892001        5.6052950646
  O        -0.5085664780        7.8810018369        2.3332590238
  O         1.8379701152        5.7021069117        5.0949811850
  O        -0.6514409537        0.7673102111        8.3711254333
  O         3.9037716415       -0.5807556131        8.0285926143
  O         1.6856577759       -0.3389390749        9.4339457506
  O         1.5344610459        8.2907916623        4.7030048332
  O         3.7966200514        7.4821982788        3.5044965652
  O        -0.7499020000        6.8834265351        4.8220769076
  O        -2.1951980143        2.3675536872        8.6292314050
  O         2.2595599445       -1.3153359420        6.6665004225
  O         0.0316548540       -1.1191253971       10.7375539001
  O         0.0013316973        9.9107648177        4.4458155355
  O         2.2461722789        6.4566961705        2.2477857571
  O        -2.2735910887        6.2907120472        6.3525323944
  O         2.6018298736        2.0219367221       10.4814471730
  C         2.0226327715        3.0377932856       10.8012140163
  O         1.3432104045        3.8171397370       11.3805475345
      57
 i =        8, E =     -1482.2170059813
 Ni         3.1816625592        1.0979953342        8.9078159428
 Ni         0.8868116263       -0.2617226062        7.5855224340
 Ni        -1.3924678823       -0.9128516696        9.3961620263
 Ni        -1.4263763267        8.6127437278        3.9749057961
 Ni         0.8448099450        6.7389083953        3.6013063608
 Ni         3.1055765527        7.3307826990        5.4103543056
  H         2.8614235112        3.5827595067        6.0417757966
  H        -1.7233267065       11.0529788166        6.9445453170
  H        -1.7193866099        0.4427849590       13.0809278498
  H        -1.8503367420        4.2485744001        7.3737934684
  H         2.6270581913       -3.3395014440        5.6473574692
  H         2.5973150357        6.6413565059       -0.0739676715
  C         1.1915780504        2.7108236359        7.1032149221
  C        -1.1337611328       -2.7341226979        7.0903945428
  C         3.4560592390       -0.1876243160       11.8247587854
  C         3.3978167967       10.2309848744        5.8925984626
  C        -1.1637316994        7.5708176855        1.2034691520
  C         1.1559546153        4.8677267569        5.8864860927
  C         1.8260610780        3.7180689126        6.3546137522
  C        -2.7539433146       11.2288516034        6.6377931454
  C        -2.7547289901        0.1019817712       13.0770814756
  C        -0.1853186693        2.9315724999        7.4887150061
  C         4.2896164993       -2.5319148749        6.7126477405
  C         2.0491628932       -0.5235485492       11.8154365272
  C         2.0290901244       10.4690139049        5.5122094198
  C         4.2491660159        7.1631928150        1.1769745441
  C        -0.2164017903        5.0717060440        6.2884336647
  C        -1.0325684196        1.9809381005        8.2192584897
  C         3.4477896335       -1.4064842390        7.1383064462
  C         1.2154974100       -0.6876123020       10.6001089958
  C         1.1438333872        9.5245807059        4.8353769948
  C         3.3917074657        7.0026947722        2.3597948161
  C        -1.1231047968        6.1399566929        5.8145172755
  C        -0.8102320525        4.1112344297        7.0945212417
  C         3.6679833969       -3.4894607037        5.9249598792
  C         3.6535319631        6.9093886006       -0.0619561075
  O         1.8581766784        1.5738307048        7.3709552406
  O        -0.4622534649       -1.8965921390        7.8886362661
  O        -2.6444408003       -0.0718630151       10.7227303636
  O        -2.7376931234        9.1058920571        5.5924763792
  O        -0.4981938572        7.8719350659        2.3317749118
  O         1.8198181900        5.7085399532        5.0871929787
  O        -0.6283751853        0.7657117623        8.3791128116
  O         3.9079997117       -0.5731504718        8.0192509304
  O         1.6736270463       -0.3382852455        9.4399062129
  O         1.5357324717        8.2959477970        4.6993972297
  O         3.7893003324        7.4862300771        3.4996325086
  O        -0.7385028466        6.8787831055        4.8230587384
  O        -2.1972495404        2.3474097071        8.6157196931
  O         2.2647962423       -1.3072544913        6.6721339116
  O         0.0303122222       -1.1345584406       10.7377798391
  O        -0.0058782463        9.8951446005        4.4394735469
  O         2.2395831673        6.4707082464        2.2417259325
  O        -2.2703066567        6.2986435864        6.3407167966
  O         2.5737184624        2.0255217321       10.4976158959
  C         1.9987511237        3.0425386901       10.8185194136
  O         1.3405558219        3.8347372232       11.3920149752
      57
 i =        9, E =     -1482.2214562856
 Ni         3.1377042680        1.0917792768        8.9419042252
 Ni         0.8831648375       -0.2619350570        7.5752979052
 Ni        -1.3850402773       -0.8952475464        9.3882481379
 Ni        -1.4207507310        8.6040165019        3.9658023156
 Ni         0.8503670682        6.7397184627        3.5926121137
 Ni         3.1001511566        7.3281188327        5.4054508930
  H         2.8485944938        3.5621224031        6.0375751720
  H        -1.7208198810       11.0561582996        6.9479925044
  H        -1.7119537980        0.4269924824       13.0875009982
  H        -1.8552453759        4.2569222216        7.3746835558
  H         2.6290278383       -3.3327917042        5.6523946847
  H         2.5983988770        6.6443321662       -0.0828561595
  C         1.1863674309        2.7080714851        7.1061093039
  C        -1.1271421544       -2.7257233552        7.0839083672
  C         3.4547919931       -0.1836783015       11.8218558583
  C         3.3969966731       10.2413884131        5.8857251998
  C        -1.1605667034        7.5639504662        1.1995521283
  C         1.1601279861        4.8764802387        5.9046396127
  C         1.8188789181        3.7167551199        6.3594313021
  C        -2.7524236602       11.2280633816        6.6446571580
  C        -2.7480661665        0.0898672723       13.0738933956
  C        -0.1835144019        2.9273218391        7.5009381427
  C         4.2985474682       -2.5184682795        6.7071562266
  C         2.0529103992       -0.5481353328       11.8170779493
  C         2.0204671336       10.4648333206        5.5268751034
  C         4.2547749484        7.1478548663        1.1744507020
  C        -0.2213907057        5.0622020404        6.2857486851
  C        -1.0324125824        1.9669273122        8.2216735070
  C         3.4492819094       -1.3950907061        7.1342359301
  C         1.2074329658       -0.6975140416       10.6092178487
  C         1.1439292589        9.5232050276        4.8341923881
  C         3.3868508519        7.0148942330        2.3488516326
  C        -1.1140787563        6.1411863236        5.8146180287
  C        -0.8155067324        4.1008583702        7.0978184469
  C         3.6724163792       -3.4787154770        5.9238988308
  C         3.6548978956        6.9076834598       -0.0631293912
  O         1.8511773767        1.5846672929        7.4104588246
  O        -0.4615111427       -1.8866253945        7.8820384043
  O        -2.6526733934       -0.0473346028       10.7091742303
  O        -2.7505179506        9.1065335958        5.5888227418
  O        -0.4865842536        7.8584264057        2.3253576662
  O         1.8096399264        5.7036306140        5.0773161873
  O        -0.5994791782        0.7628573474        8.4050714363
  O         3.9141625941       -0.5526681276        7.9995911727
  O         1.6720007854       -0.3408146061        9.4492822151
  O         1.5347325547        8.2936914555        4.6950428713
  O         3.7854909188        7.4796403410        3.4980825191
  O        -0.7206758919        6.8698134398        4.8189157876
  O        -2.1957622470        2.3278029841        8.6155876304
  O         2.2680767721       -1.2904846555        6.6689072856
  O         0.0298839766       -1.1618742740       10.7443379898
  O        -0.0068270098        9.8952778041        4.4418627552
  O         2.2333352959        6.4861615689        2.2269027782
  O        -2.2689861338        6.2992344913        6.3239545545
  O         2.5234693260        2.0380513221       10.5171617373
  C         1.9422161822        3.0537937522       10.8399019564
  O         1.3658535488        3.8702233586       11.4155783500
      57
 i =       10, E =     -1482.2262676067
 Ni         3.0862587224        1.0872296459        8.9846808856
 Ni         0.8818885682       -0.2632484736        7.5684917178
 Ni        -1.3906711299       -0.8843341306        9.3814873377
 Ni        -1.4155413720        8.5916001933        3.9702343317
 Ni         0.8535028834        6.7234865319        3.5824940822
 Ni         3.1072928680        7.3327168765        5.3988012113
  H         2.8387226211        3.5380344542        6.0332345326
  H        -1.7205702828       11.0592358901        6.9520566402
  H        -1.7008291292        0.4051884570       13.0913529225
  H        -1.8656428174        4.2597630410        7.3805393483
  H         2.6329013018       -3.3207277433        5.6583658012
  H         2.6008475548        6.6462310337       -0.0892734501
  C         1.1790929115        2.7171817098        7.1294736414
  C        -1.1259325039       -2.7236047785        7.0750434981
  C         3.4572491609       -0.1951046528       11.8135364142
  C         3.3891573008       10.2366453534        5.8929313430
  C        -1.1483989318        7.5319188037        1.1907556376
  C         1.1569665454        4.8693550489        5.9034269694
  C         1.8135725986        3.7110831823        6.3620649996
  C        -2.7504366547       11.2279844235        6.6395381088
  C        -2.7406245490        0.0817566038       13.0643738013
  C        -0.1913205381        2.9280430582        7.5138421282
  C         4.3047289310       -2.4979003389        6.6969645269
  C         2.0525397279       -0.5592985579       11.8177854903
  C         2.0155258509       10.4693509494        5.5265384423
  C         4.2595424572        7.1453752129        1.1677226987
  C        -0.2209529127        5.0652165317        6.2955263365
  C        -1.0328398167        1.9517607250        8.2294979724
  C         3.4534615277       -1.3720508261        7.1260520137
  C         1.2116243135       -0.7299576827       10.6112391202
  C         1.1400031937        9.5190864337        4.8413652556
  C         3.3909699751        7.0241998869        2.3382324143
  C        -1.1117883993        6.1335178421        5.8031382267
  C        -0.8279091976        4.0942265346        7.0927779947
  C         3.6748600987       -3.4717067534        5.9316832192
  C         3.6606076848        6.8940648025       -0.0666956290
  O         1.8466977500        1.6004189020        7.4394211096
  O        -0.4647659916       -1.8805210707        7.8705110199
  O        -2.6694917265       -0.0124582584       10.6878421856
  O        -2.7451251908        9.1147175396        5.5716300099
  O        -0.4980866377        7.8621811032        2.3212991256
  O         1.8223545731        5.6939843078        5.0812521823
  O        -0.5774363770        0.7547631223        8.4335377663
  O         3.9175310347       -0.5121061985        7.9705753614
  O         1.6768034784       -0.3384261235        9.4632327855
  O         1.5397483570        8.2920065136        4.6894966729
  O         3.7925982314        7.4744854134        3.4935344545
  O        -0.6985720956        6.8717656691        4.8213666252
  O        -2.1962086777        2.3042743717        8.6080776909
  O         2.2697638304       -1.2819723874        6.6630554799
  O         0.0278430079       -1.1809475352       10.7473257270
  O        -0.0090727005        9.8925351881        4.4435288125
  O         2.2282770281        6.5180893416        2.2064894380
  O        -2.2683433543        6.2932188650        6.3077635545
  O         2.4741248312        2.0485182672       10.5670074842
  C         1.9001504045        3.0687322524       10.8848150742
  O         1.3427985431        3.9217339872       11.4270726299
      57
 i =       11, E =     -1482.2289916586
 Ni         3.0175013247        1.0703238103        9.0692559371
 Ni         0.8789796827       -0.2661525504        7.5727149908
 Ni        -1.3996752984       -0.8599527783        9.3725911903
 Ni        -1.4097380334        8.5803630026        3.9495228827
 Ni         0.8615208260        6.7152558413        3.5795498444
 Ni         3.1082528171        7.3322769540        5.3908631258
  H         2.8241352013        3.5030569000        6.0302276528
  H        -1.7270849013       11.0628544002        6.9530361783
  H        -1.6864788080        0.3719305511       13.0876905401
  H        -1.8823655856        4.2554271749        7.3842865183
  H         2.6289632491       -3.2997948586        5.6658585876
  H         2.6086525837        6.6433606640       -0.0939634085
  C         1.1641982877        2.7230975283        7.1624316065
  C        -1.1285399875       -2.7080357836        7.0720458808
  C         3.4552786863       -0.2023598859       11.8029124760
  C         3.3922107392       10.2401149276        5.8880355362
  C        -1.1423913641        7.5198383889        1.1756853977
  C         1.1506468831        4.8497192980        5.8972700590
  C         1.8064782976        3.6992344168        6.3722219877
  C        -2.7563046386       11.2380394561        6.6387379266
  C        -2.7233476350        0.0400456384       13.0483400472
  C        -0.2062478230        2.9293087925        7.5346687076
  C         4.3075439456       -2.4752009930        6.6806315786
  C         2.0570927441       -0.5910575111       11.8141774633
  C         2.0124289171       10.4744997030        5.5397282561
  C         4.2702012758        7.1275979105        1.1598202873
  C        -0.2219356286        5.0600188500        6.3007355915
  C        -1.0441665658        1.9333382527        8.2377902528
  C         3.4643753817       -1.3349516364        7.1121502841
  C         1.2095897788       -0.7545601004       10.6172562353
  C         1.1422887504        9.5233311942        4.8435113539
  C         3.3896438801        7.0370086650        2.3216250597
  C        -1.0996569095        6.1278081117        5.7925189562
  C        -0.8419240673        4.0925250762        7.0984233876
  C         3.6700474625       -3.4622131980        5.9357418303
  C         3.6704081474        6.8765258476       -0.0726399641
  O         1.8374256339        1.6162643794        7.4913693478
  O        -0.4625872504       -1.8677207332        7.8669989410
  O        -2.7015369761        0.0227285375       10.6501452965
  O        -2.7380329997        9.1175534608        5.5687149896
  O        -0.4869882759        7.8395172629        2.3056174325
  O         1.8310144721        5.6755412732        5.0819478257
  O        -0.5403817583        0.7526649121        8.4974212934
  O         3.9196883120       -0.4653251842        7.9432557319
  O         1.6834076445       -0.3399388675        9.4781042109
  O         1.5474329547        8.2978115982        4.6837574607
  O         3.8056275645        7.4536874227        3.4855341709
  O        -0.6727848928        6.8758471922        4.8206139148
  O        -2.2081156364        2.2711483536        8.5863795449
  O         2.2687809067       -1.2772004372        6.6628707626
  O         0.0350681580       -1.2271192954       10.7301280445
  O        -0.0114792514        9.8908564650        4.4510861097
  O         2.2181484855        6.5515427077        2.1943746377
  O        -2.2718402405        6.2687434503        6.2666216575
  O         2.4109564390        2.0562137602       10.6647039718
  C         1.8576906519        3.0865175591       10.9636619702
  O         1.2833244636        4.0091124841       11.4246034768
      57
 i =       12, E =     -1482.2320832045
 Ni         3.0342906054        1.0697721189        9.0673189220
 Ni         0.8736085506       -0.2651190253        7.5802833205
 Ni        -1.3996210180       -0.8477489248        9.3770026132
 Ni        -1.4094939197        8.5800903126        3.9606601019
 Ni         0.8582690442        6.7217437602        3.5824973270
 Ni         3.1098122217        7.3266503817        5.3942370032
  H         2.8261899593        3.5089451504        6.0397770613
  H        -1.7267257545       11.0644604131        6.9513723158
  H        -1.6892725793        0.3700014137       13.0746705515
  H        -1.8811014849        4.2488025844        7.3791245987
  H         2.6266859083       -3.3030137402        5.6644063711
  H         2.6069378564        6.6322687430       -0.0856201498
  C         1.1669761126        2.7174258964        7.1639242999
  C        -1.1281321808       -2.7054596344        7.0705872817
  C         3.4533715790       -0.2076769116       11.8026074980
  C         3.3931170275       10.2445476117        5.8852715956
  C        -1.1416521240        7.5111062911        1.1777070046
  C         1.1527744924        4.8519094074        5.9067083302
  C         1.8037157865        3.6918383160        6.3674157229
  C        -2.7566633875       11.2391960842        6.6405448553
  C        -2.7276919376        0.0412887896       13.0471202189
  C        -0.2064842369        2.9295094264        7.5266030856
  C         4.3040249790       -2.4818467049        6.6848771744
  C         2.0554957887       -0.5869384971       11.8130382689
  C         2.0129589403       10.4763683639        5.5363001703
  C         4.2666713196        7.1351669730        1.1598221763
  C        -0.2257055692        5.0520515668        6.2886678843
  C        -1.0526279753        1.9534070000        8.2419994887
  C         3.4533412011       -1.3518017483        7.1221260200
  C         1.2122521022       -0.7462726753       10.6135730624
  C         1.1407176136        9.5257004185        4.8425987303
  C         3.3941366338        7.0247239970        2.3292227188
  C        -1.1055268791        6.1245443465        5.7946323577
  C        -0.8368651395        4.1001801006        7.1063370472
  C         3.6693054881       -3.4614164871        5.9302527971
  C         3.6665518503        6.8742439576       -0.0713794400
  O         1.8400381983        1.6044973482        7.4808200296
  O        -0.4623537771       -1.8731939193        7.8774388905
  O        -2.7003131181        0.0304539315       10.6583932024
  O        -2.7418241525        9.1179558839        5.5744650344
  O        -0.4889693926        7.8400634865        2.3047853653
  O         1.8222139283        5.6755142673        5.0829228759
  O        -0.5541163672        0.7716637311        8.4998783756
  O         3.9169525227       -0.4786985981        7.9535850157
  O         1.6807595723       -0.3434380905        9.4686435678
  O         1.5495646255        8.3017959237        4.6839076827
  O         3.8114589320        7.4568467026        3.4830969179
  O        -0.6874720763        6.8724180867        4.8188128997
  O        -2.2141887712        2.2928896110        8.5955279753
  O         2.2644651494       -1.2802086292        6.6607168293
  O         0.0376660200       -1.2160077181       10.7318290145
  O        -0.0116560494        9.8934454722        4.4477001978
  O         2.2194343938        6.5482984723        2.1962219798
  O        -2.2707386248        6.2694272850        6.2812013282
  O         2.4204848096        2.0587716388       10.6538656720
  C         1.8642102089        3.0821146464       10.9561621072
  O         1.2952949831        4.0000146231       11.4212759963
      57
 i =       13, E =     -1482.2346621987
 Ni         3.0740623437        1.0729005471        9.0766338452
 Ni         0.8624602386       -0.2565133601        7.5907166790
 Ni        -1.4089332987       -0.8314175329        9.3905447156
 Ni        -1.4125282684        8.5746855310        3.9691450658
 Ni         0.8522284049        6.7237837381        3.5894121171
 Ni         3.1078567439        7.3144183992        5.4104271067
  H         2.8300169695        3.5155956397        6.0603438999
  H        -1.7253547486       11.0702331819        6.9499074083
  H        -1.6924401578        0.3607783749       13.0431914421
  H        -1.8779152973        4.2384348628        7.3711880050
  H         2.6239162560       -3.3095113234        5.6610272638
  H         2.6041161093        6.6028148672       -0.0706101212
  C         1.1668313287        2.7019501134        7.1542041896
  C        -1.1306309029       -2.7086450067        7.0720562426
  C         3.4391649904       -0.1976072546       11.8079455024
  C         3.3896313744       10.2492206289        5.8877380222
  C        -1.1419022277        7.5052403615        1.1796770641
  C         1.1457843890        4.8403404539        5.9011456388
  C         1.8020473743        3.6863304470        6.3722724519
  C        -2.7534291063       11.2444136247        6.6340147817
  C        -2.7295120778        0.0244134914       13.0444555544
  C        -0.2044730383        2.9339919085        7.5285254399
  C         4.2946879495       -2.4944910967        6.7006535387
  C         2.0535112393       -0.5927850292       11.8053113159
  C         2.0142931436       10.4847591518        5.5203523634
  C         4.2697433730        7.1232337356        1.1561170402
  C        -0.2285652461        5.0478067815        6.2851763425
  C        -1.0671115338        1.9972060592        8.2693804967
  C         3.4437311022       -1.3605853714        7.1210265355
  C         1.2123044687       -0.7338073066       10.6042798071
  C         1.1400327518        9.5297550300        4.8355900420
  C         3.3947586326        7.0245355657        2.3327882807
  C        -1.1177304242        6.1152517169        5.7960166099
  C        -0.8348113030        4.0990015949        7.0992158981
  C         3.6690872345       -3.4589278364        5.9226445055
  C         3.6574416550        6.8724326343       -0.0718074061
  O         1.8451151621        1.5828128590        7.4607294872
  O        -0.4621460050       -1.8815682624        7.8891983991
  O        -2.7012299668        0.0580876256       10.6811601792
  O        -2.7465304409        9.1228309220        5.5786972606
  O        -0.4807238994        7.8277317207        2.2987385504
  O         1.8113594633        5.6732456850        5.0888618892
  O        -0.5985714938        0.8051551735        8.5075682347
  O         3.9052377968       -0.5004458039        7.9728159183
  O         1.6810639687       -0.3550898527        9.4486870565
  O         1.5457154038        8.3050217813        4.6804971665
  O         3.8186868405        7.4507720497        3.4816568993
  O        -0.7174087500        6.8659798626        4.8137664212
  O        -2.2317660908        2.3510418179        8.6064806045
  O         2.2507709382       -1.2961034599        6.6625465925
  O         0.0378873239       -1.1974621773       10.7448600950
  O        -0.0140195872        9.8934716641        4.4432017277
  O         2.2271184933        6.5374330442        2.2019713526
  O        -2.2655528559        6.2753237233        6.3138586559
  O         2.4335094715        2.0732978564       10.6484192871
  C         1.8652341607        3.0807979651       10.9567611686
  O         1.3060650849        3.9959550869       11.4186165632
