      59
 i =        1, E =     -1480.5802760400
 Ni         3.1392804368        0.9176631210        9.0410836018
 Ni         0.8328320878       -0.2023723393        7.6121247514
 Ni        -1.3987422493       -0.8691384092        9.4595591960
 Ni        -1.4278809139        8.6095552181        3.9915770431
 Ni         0.8427529560        6.7148323498        3.6502902143
 Ni         3.1079827342        7.3649860542        5.4609070952
  H         2.7988653835        3.5583724083        6.1652406778
  H        -1.7361486240       11.1223398665        6.9333784328
  H        -1.7395559092        0.4393866274       13.0982932391
  H        -1.9442499123        4.2663032698        7.3879838470
  H         2.5848517966       -3.2913743805        5.7087519213
  H         2.5917601991        6.5911785959        0.0011743685
  C         1.1069771383        2.7193386808        7.1788611516
  C        -1.1585684272       -2.6998893560        7.1436617058
  C         3.3733652961       -0.0350590912       11.8664029354
  C         3.3721761840       10.2840458721        5.9096056977
  C        -1.1636019167        7.5360260928        1.2437636023
  C         1.1052541353        4.8704077543        5.9540840373
  C         1.7617464615        3.7297401157        6.4503915742
  C        -2.7739296837       11.2848608982        6.6496375212
  C        -2.7784668852        0.1137254744       13.1048353231
  C        -0.2710990881        2.9444213374        7.5428251883
  C         4.2657270193       -2.5217902777        6.7497701163
  C         1.9901222339       -0.4474526153       11.8735767141
  C         1.9918821139       10.4918975330        5.5440995699
  C         4.2557224154        7.1158298874        1.2303616128
  C        -0.2777796792        5.0709285562        6.3200622298
  C        -1.1196673118        1.9718403446        8.2293856708
  C         3.3855248310       -1.4593230943        7.2201992330
  C         1.1159097975       -0.5719491144       10.7038328582
  C         1.1186302353        9.5367545881        4.8622644041
  C         3.3903431451        7.0011520632        2.4062914562
  C        -1.1458888780        6.1437919108        5.8294657012
  C        -0.8971751510        4.1179598067        7.1252961633
  C         3.6297975191       -3.4673274755        5.9578432977
  C         3.6364414363        6.8977716442        0.0015030941
  O         1.7744079586        1.5936983662        7.4487534227
  O        -0.4844688310       -1.8988142039        7.9710157075
  O        -2.7447146064        0.2445348423       10.7526093127
  O        -2.7585966196        9.1654286102        5.6242715110
  O        -0.4902844151        7.8531134773        2.3516351490
  O         1.7786145915        5.6716223503        5.1229618410
  O        -0.7398437044        0.7357635024        8.3555894927
  O         3.8294707300       -0.8108633861        8.2509236815
  O         1.5121452499       -0.1088943977        9.5564858724
  O         1.5225393643        8.3094158625        4.7459984364
  O         3.7867820842        7.5194003357        3.5294685877
  O        -0.7468807918        6.8612078254        4.8229991033
  O        -2.2841464936        2.3077265099        8.6312961055
  O         2.2312461829       -1.2484919779        6.7212921745
  O        -0.0284396484       -1.1174070354       10.8357235453
  O        -0.0289807766        9.9023314899        4.4460890104
  O         2.2408753381        6.4607911414        2.3009464974
  O        -2.2931464125        6.3245968786        6.3548449880
  O         3.0321000413        1.8249314731        9.4873843192
  C         2.8254897243        2.5763154942        9.8084442794
  O         2.5749584992        3.2296723900       10.3920638182
  H         2.8293697231        3.2782843463        9.3925813735
  H         2.4791453861        3.9463781301       10.3740375915
      59
 i =        2, E =     -1482.1046050304
 Ni         3.1936238726        0.8320797864        8.9229188478
 Ni         0.8459902684       -0.2294571990        7.5979307171
 Ni        -1.3927780067       -0.9293025415        9.4608056863
 Ni        -1.4339509828        8.6215703661        3.9961132409
 Ni         0.8325400492        6.7069724391        3.6358625705
 Ni         3.1091261192        7.3600816063        5.4650625473
  H         2.8138511118        3.5577880518        6.1555171819
  H        -1.7299702616       11.1177994312        6.9370179970
  H        -1.7333328570        0.4383195238       13.1030073767
  H        -1.9441006825        4.2661775436        7.3878531300
  H         2.5894643935       -3.3010575461        5.7013192373
  H         2.5923020155        6.5911848925        0.0023158397
  C         1.1130540823        2.7262078183        7.1364385241
  C        -1.1663971086       -2.7286811880        7.1245109222
  C         3.3851887226       -0.0799397452       11.8858246378
  C         3.3724726512       10.2688895694        5.9046931758
  C        -1.1652314115        7.5502301320        1.2552078533
  C         1.1077840298        4.8811173016        5.9506031378
  C         1.7807156806        3.7483472542        6.4394848424
  C        -2.7693834622       11.2605644026        6.6501188131
  C        -2.7772201524        0.1297718198       13.1216566183
  C        -0.2504952260        2.9535392093        7.5230469037
  C         4.2694780069       -2.5347377136        6.7066761727
  C         1.9861439284       -0.4408993386       11.8858805871
  C         1.9934845483       10.4733133736        5.5371108813
  C         4.2597200532        7.1127595618        1.2359988839
  C        -0.2785054212        5.0729876407        6.3163469921
  C        -1.0791335694        1.9572936556        8.1751337946
  C         3.3886286651       -1.5098593219        7.2167914946
  C         1.1282689646       -0.6288267840       10.7098938885
  C         1.1261821097        9.5210165362        4.8532282510
  C         3.3871134280        7.0045939291        2.4051931617
  C        -1.1461424065        6.1455907385        5.8284497121
  C        -0.8944899855        4.1237881659        7.1260012180
  C         3.6390860176       -3.4803803670        5.9281917834
  C         3.6353582266        6.9009738643        0.0105372814
  O         1.7374018871        1.5726727120        7.3581566709
  O        -0.4874551989       -1.9073561615        7.9245198808
  O        -2.7321636195        0.1471229756       10.7629586328
  O        -2.7501939143        9.1547913294        5.6230919240
  O        -0.4950703008        7.8548281432        2.3684018980
  O         1.7720453949        5.6857795502        5.1143706444
  O        -0.7095498280        0.7197698973        8.3604396978
  O         3.8301873287       -0.8795023267        8.2488939049
  O         1.5369257427       -0.1954953904        9.5613251836
  O         1.5192551793        8.2914306375        4.7365992992
  O         3.7839588147        7.5145098393        3.5314686096
  O        -0.7551659979        6.8642544263        4.8208099867
  O        -2.2043372063        2.3675816419        8.6145419795
  O         2.2519672154       -1.2655558135        6.6986135460
  O        -0.0385118494       -1.1253406982       10.8698444431
  O        -0.0223242500        9.8996903398        4.4541736324
  O         2.2386052892        6.4639811624        2.2934562985
  O        -2.2941750799        6.3156708121        6.3565564322
  O         2.9799036758        1.8797220145        9.5665582710
  C         2.7254694104        2.6289681211        9.8486515474
  O         2.3698417156        3.3906983405       10.5731980993
  H         2.8158257440        3.4472858536        9.3876904055
  H         2.4353353687        4.1963781301       10.5531391264
      59
 i =        3, E =     -1482.4729463115
 Ni         3.2428557822        0.8216080941        8.9045130945
 Ni         0.8528863515       -0.2405594641        7.6000992217
 Ni        -1.3937306947       -0.9423052045        9.4586693813
 Ni        -1.4346185335        8.6216988437        3.9965537541
 Ni         0.8309987183        6.7068896980        3.6341865526
 Ni         3.1068160614        7.3573345104        5.4654669744
  H         2.8183608127        3.5618473113        6.1492009693
  H        -1.7306686041       11.1136253550        6.9370058941
  H        -1.7335475877        0.4380587778       13.1059912034
  H        -1.9388033250        4.2650977155        7.3862927004
  H         2.5929385213       -3.3086728354        5.6947866774
  H         2.5931156223        6.5921560120        0.0053529165
  C         1.1204878125        2.7207128300        7.1246096605
  C        -1.1629521469       -2.7300013090        7.1138123807
  C         3.3849158966       -0.0869449031       11.8887661714
  C         3.3739150834       10.2626741770        5.9025149221
  C        -1.1658221981        7.5522007009        1.2552810226
  C         1.1098975297        4.8817190735        5.9489907689
  C         1.7858855927        3.7499925167        6.4357761901
  C        -2.7702902406       11.2539982930        6.6492606769
  C        -2.7777358689        0.1301944339       13.1232777181
  C        -0.2419575783        2.9484957599        7.5093764681
  C         4.2702480032       -2.5403666808        6.7039388194
  C         1.9876811739       -0.4525934041       11.8857799552
  C         1.9965664624       10.4702908769        5.5316452314
  C         4.2588772987        7.1160011711        1.2370460392
  C        -0.2757677963        5.0756419234        6.3179475764
  C        -1.0683346409        1.9655721420        8.1819216128
  C         3.3971560344       -1.5123792489        7.2124631222
  C         1.1344171339       -0.6283584457       10.7043887375
  C         1.1273609540        9.5177514779        4.8533017945
  C         3.3867073852        7.0028112848        2.4057304561
  C        -1.1468269607        6.1455715809        5.8292703786
  C        -0.8889583190        4.1218573961        7.1235035561
  C         3.6432708558       -3.4838159787        5.9220261492
  C         3.6353077950        6.9039328079        0.0116244202
  O         1.7394182435        1.5642746765        7.3395316740
  O        -0.4889263104       -1.9130852455        7.9216363149
  O        -2.7127609812        0.1044772814       10.7726636243
  O        -2.7485131896        9.1474963685        5.6251337789
  O        -0.4953777909        7.8575338253        2.3684722324
  O         1.7714907884        5.6868512319        5.1126099994
  O        -0.7033548570        0.7232620862        8.3571846972
  O         3.8274061716       -0.8852246769        8.2510180131
  O         1.5687850982       -0.2203186847        9.5532428621
  O         1.5190182292        8.2886845821        4.7337872491
  O         3.7818733260        7.5109785034        3.5331471450
  O        -0.7578753873        6.8637313197        4.8215630596
  O        -2.1874190393        2.4027599170        8.6168836035
  O         2.2604079075       -1.2750600086        6.6933826078
  O        -0.0322178804       -1.1264014703       10.8616858666
  O        -0.0194765740        9.8982695410        4.4525108742
  O         2.2375879561        6.4645025741        2.2920955062
  O        -2.2950465096        6.3148646452        6.3567960839
  O         2.9525492324        1.8666973226        9.6229456126
  C         2.6439072640        2.6513924413        9.8706568857
  O         2.1198417156        3.4100975187       10.5655103881
  H         2.8590340849        3.4907862270        9.3964051290
  H         2.5193445338        4.2731658845       10.6058661024
