      61
 i =        1, E =     -1480.7556927299
 Ni         3.1482233905        0.9011309655        9.0269993468
 Ni         0.8337926086       -0.2062736172        7.6088727981
 Ni        -1.4006506874       -0.8757173258        9.4635170703
 Ni        -1.4271696854        8.6077391508        3.9927552117
 Ni         0.8433183512        6.7164906902        3.6500082029
 Ni         3.1070154427        7.3650931346        5.4620658343
  H         2.8003503090        3.5578299873        6.1650806893
  H        -1.7366555699       11.1222001168        6.9331322493
  H        -1.7404872243        0.4395825243       13.0985669238
  H        -1.9459965421        4.2667998536        7.3886349287
  H         2.5852115156       -3.2913849159        5.7088838356
  H         2.5917167542        6.5918162971        0.0020227997
  C         1.1133520281        2.7236845457        7.1837237545
  C        -1.1574142190       -2.6989102015        7.1444677859
  C         3.3734575619       -0.0324794441       11.8650034179
  C         3.3730316360       10.2849450190        5.9084881733
  C        -1.1637989339        7.5358675652        1.2432968201
  C         1.1036237625        4.8693155456        5.9517715533
  C         1.7629196294        3.7302100102        6.4471333566
  C        -2.7738639253       11.2864333895        6.6492078245
  C        -2.7793901507        0.1139122413       13.1043362144
  C        -0.2648086661        2.9494007573        7.5407194308
  C         4.2667193741       -2.5243626050        6.7496648205
  C         1.9906942793       -0.4473718319       11.8725105834
  C         1.9925075142       10.4914946063        5.5439709450
  C         4.2551088644        7.1168240406        1.2299522504
  C        -0.2785868979        5.0729963381        6.3203551697
  C        -1.1057462989        1.9663536148        8.2200199227
  C         3.3853747781       -1.4639251381        7.2171189049
  C         1.1154242406       -0.5702651348       10.7031776942
  C         1.1194848777        9.5369351855        4.8606868333
  C         3.3900804215        7.0021209469        2.4062406976
  C        -1.1463112384        6.1464237332        5.8301950574
  C        -0.8989470936        4.1193786908        7.1241079292
  C         3.6299135772       -3.4685223610        5.9576605734
  C         3.6377751079        6.8944302291        0.0005671049
  O         1.7723646563        1.5901494372        7.4418027188
  O        -0.4839234348       -1.8972407227        7.9722724296
  O        -2.7385126771        0.2437295031       10.7532367532
  O        -2.7586627795        9.1658684832        5.6252912430
  O        -0.4903908939        7.8521898186        2.3516171587
  O         1.7784272523        5.6698608835        5.1227893904
  O        -0.7360735077        0.7297756981        8.3564476702
  O         3.8347612355       -0.8185113558        8.2465363604
  O         1.5115093929       -0.1180331281        9.5502237729
  O         1.5229361339        8.3093539717        4.7481533946
  O         3.7857470456        7.5198051178        3.5304566034
  O        -0.7467999512        6.8611322864        4.8219681291
  O        -2.2736893893        2.3027953159        8.6032035640
  O         2.2314932492       -1.2485797492        6.7191604050
  O        -0.0265548985       -1.1191126053       10.8364886859
  O        -0.0289310703        9.9021531611        4.4471955091
  O         2.2410766046        6.4606909022        2.3006753373
  O        -2.2946310655        6.3230525480        6.3542135201
  O         3.0413197891        1.8264028686        9.4557077595
  C         2.8317181380        2.5866436057        9.7635301788
  O         2.6023922721        3.2286193915       10.3465684092
  H         2.8337067745        3.2952153023        9.3318468630
  H         2.4841320803        3.9463781301       10.3528696938
  H         2.7099620854        2.1981262529       10.3479225353
  H         2.4966046269        2.8505328328       10.9468816202
      61
 i =        2, E =     -1482.5891408852
 Ni         3.1968566923        0.8063274756        8.9383663560
 Ni         0.8428183898       -0.2176140157        7.5997857507
 Ni        -1.3956920141       -0.9192721661        9.4609953106
 Ni        -1.4301861689        8.6137154117        3.9971587098
 Ni         0.8349659005        6.7106300845        3.6417310759
 Ni         3.1051202007        7.3641991918        5.4618126050
  H         2.8099521996        3.5597853306        6.1549729789
  H        -1.7321344217       11.1200320350        6.9359212186
  H        -1.7361552768        0.4386924360       13.1010941209
  H        -1.9398101115        4.2643888529        7.3866535020
  H         2.5855544018       -3.2976775571        5.7041412154
  H         2.5920266080        6.5910235802        0.0020851154
  C         1.1152190627        2.7174187684        7.1355625129
  C        -1.1573968861       -2.7164783412        7.1309670681
  C         3.3789556772       -0.0542877201       11.8819357411
  C         3.3740524825       10.2747545335        5.9029716526
  C        -1.1666284521        7.5442389911        1.2538231674
  C         1.1098084238        4.8767675439        5.9516268890
  C         1.7764239625        3.7414446479        6.4400834848
  C        -2.7702804588       11.2691029959        6.6487502744
  C        -2.7794773804        0.1266163025       13.1199720095
  C        -0.2460708820        2.9506789207        7.5262366711
  C         4.2744183159       -2.5387183868        6.7139612743
  C         1.9876485071       -0.4445004629       11.8748163051
  C         1.9950144935       10.4772699845        5.5358037136
  C         4.2561300996        7.1127982654        1.2329554165
  C        -0.2750202194        5.0732122589        6.3193544005
  C        -1.0729126749        1.9607392328        8.1913382431
  C         3.3919822851       -1.5053909830        7.2034550064
  C         1.1270351743       -0.6214894097       10.6973186700
  C         1.1221810247        9.5258855224        4.8582502941
  C         3.3879691566        7.0027352576        2.4060775887
  C        -1.1447595767        6.1451894658        5.8300557641
  C        -0.8907610331        4.1207474207        7.1252569219
  C         3.6335664700       -3.4825066488        5.9364006673
  C         3.6355907169        6.9017786856        0.0034766907
  O         1.7574734253        1.5834513777        7.4072638675
  O        -0.4750605973       -1.9175014210        7.9549430916
  O        -2.7220565075        0.1951750405       10.7721168820
  O        -2.7507286324        9.1567220809        5.6246343761
  O        -0.4929868930        7.8552121471        2.3643485388
  O         1.7745157086        5.6817764718        5.1162624241
  O        -0.7184629960        0.7189815708        8.3604812076
  O         3.8454706464       -0.8845606594        8.2388002380
  O         1.5235714228       -0.1813891065        9.5402835132
  O         1.5166667102        8.2961358708        4.7386342421
  O         3.7843922622        7.5151712430        3.5331126546
  O        -0.7536605898        6.8632913830        4.8208734703
  O        -2.2234344744        2.3379417068        8.5724703273
  O         2.2440754116       -1.2588429991        6.7049254429
  O        -0.0368567236       -1.1180398565       10.8616377600
  O        -0.0242521205        9.9007718231        4.4489476821
  O         2.2382067087        6.4642999583        2.2973324408
  O        -2.2939702609        6.3213579726        6.3513278939
  O         3.0070391562        1.8525067374        9.4169146949
  C         2.7295071516        2.6268599017        9.7222309446
  O         2.8402789254        3.3783420967       10.5530170368
  H         2.7617607704        3.4251366436        9.2833276443
  H         2.3898984971        4.1156250428       10.4964548273
  H         2.4599620854        2.1460436223       10.3490449743
  H         2.4606762238        2.9223924910       11.0388895607
      61
 i =        3, E =     -1483.2166242279
 Ni         3.2181300099        0.7688470369        8.9082119259
 Ni         0.8451702298       -0.2201433115        7.5960095101
 Ni        -1.3915059443       -0.9333486780        9.4596554888
 Ni        -1.4311575117        8.6162311353        3.9987141261
 Ni         0.8320847413        6.7084681741        3.6386274754
 Ni         3.1043587499        7.3629460967        5.4617889669
  H         2.8131186095        3.5617374919        6.1506089776
  H        -1.7303632951       11.1187454757        6.9370174362
  H        -1.7344622878        0.4384769610       13.1019858605
  H        -1.9352470116        4.2629086298        7.3854676977
  H         2.5856029239       -3.3006031453        5.7017651552
  H         2.5911013807        6.5905286121        0.0023002924
  C         1.1167279008        2.7132325577        7.1199702508
  C        -1.1566978078       -2.7231999692        7.1253877993
  C         3.3818663437       -0.0632065423       11.8894108518
  C         3.3745413023       10.2704703559        5.9008901982
  C        -1.1681945511        7.5472000776        1.2583971548
  C         1.1124630412        4.8780119874        5.9518598015
  C         1.7806932730        3.7434267189        6.4374443936
  C        -2.7687136516       11.2622571030        6.6481123899
  C        -2.7793225270        0.1310620106       13.1270672621
  C        -0.2393992795        2.9488917223        7.5195421457
  C         4.2774493377       -2.5450245728        6.7008807688
  C         1.9875258791       -0.4451184038       11.8768972097
  C         1.9961470423       10.4716701019        5.5323938377
  C         4.2557496423        7.1120078133        1.2343991427
  C        -0.2729124541        5.0732593972        6.3192459074
  C        -1.0641924282        1.9614549594        8.1820828129
  C         3.3952937164       -1.5203680091        7.1972221405
  C         1.1317143209       -0.6374741548       10.6962755448
  C         1.1231246935        9.5218494272        4.8569965725
  C         3.3867392340        7.0024853996        2.4062680119
  C        -1.1439313127        6.1442331853        5.8301575629
  C        -0.8857795073        4.1202324487        7.1253275396
  C         3.6350406424       -3.4879277636        5.9277423055
  C         3.6339394278        6.9040555672        0.0051145583
  O         1.7547228187        1.5798522156        7.3944044949
  O        -0.4705664959       -1.9252488918        7.9475706869
  O        -2.7121090041        0.1806996684       10.7836845551
  O        -2.7480482143        9.1526153458        5.6245465925
  O        -0.4936576233        7.8570022397        2.3689156026
  O         1.7724017644        5.6856560474        5.1143883922
  O        -0.7128021747        0.7188052278        8.3620989776
  O         3.8517143059       -0.9097003422        8.2353064387
  O         1.5313340546       -0.2089918740        9.5358561008
  O         1.5146694184        8.2914541203        4.7350118807
  O         3.7838509327        7.5131293918        3.5340721896
  O        -0.7561939207        6.8637574845        4.8206524334
  O        -2.2051617753        2.3545109889        8.5681259806
  O         2.2488687487       -1.2625292677        6.6999622353
  O        -0.0385280830       -1.1186448016       10.8697290589
  O        -0.0224586931        9.9009596934        4.4495272752
  O         2.2367338905        6.4653547048        2.2955183777
  O        -2.2932965711        6.3203894589        6.3508807909
  O         2.9888984022        1.8639721337        9.3919282107
  C         2.6718035192        2.6458976511        9.6992731386
  O         3.0902789254        3.4560491135       10.6734284482
  H         2.7072534044        3.4768423322        9.2592465101
  H         2.3361292165        4.1706327569       10.5523580777
  H         2.3005773549        2.1206549844       10.3260952935
  H         2.4057734833        2.9368911372       11.0623382308
      61
 i =        4, E =     -1483.5651578250
 Ni         3.2836852779        0.7416082880        8.9058895681
 Ni         0.8522015945       -0.2250247269        7.5957133081
 Ni        -1.3858566294       -0.9459172171        9.4604673333
 Ni        -1.4327228398        8.6187276502        3.9991970502
 Ni         0.8319015773        6.7058930549        3.6366440698
 Ni         3.1031219819        7.3594122244        5.4642231535
  H         2.8169411791        3.5646961061        6.1455665835
  H        -1.7295959647       11.1150517619        6.9373299762
  H        -1.7350956120        0.4386821932       13.1043461718
  H        -1.9308452616        4.2619078762        7.3845955961
  H         2.5885751036       -3.3059956126        5.6978473666
  H         2.5904576385        6.5907842836        0.0039916467
  C         1.1279770602        2.7067978929        7.1148606427
  C        -1.1559408305       -2.7284091592        7.1183203286
  C         3.3817795002       -0.0698901195       11.8957747993
  C         3.3750665982       10.2662345646        5.8996509646
  C        -1.1692718129        7.5487863946        1.2602705319
  C         1.1137777533        4.8774961781        5.9509716317
  C         1.7840142635        3.7419322025        6.4317524612
  C        -2.7674361019       11.2568678217        6.6459384610
  C        -2.7800848862        0.1319176289       13.1313880567
  C        -0.2288930866        2.9458475071        7.5060158272
  C         4.2786250951       -2.5491354372        6.6949775282
  C         1.9875309887       -0.4522677665       11.8764460330
  C         1.9977833484       10.4678478469        5.5289908984
  C         4.2546962346        7.1148134618        1.2343153545
  C        -0.2711070859        5.0755764184        6.3199261391
  C        -1.0538292997        1.9682452000        8.1789962871
  C         3.4011905769       -1.5250210071        7.1918155424
  C         1.1344615479       -0.6358648326       10.6923955067
  C         1.1246818507        9.5193862888        4.8547431732
  C         3.3863863133        7.0013183566        2.4059104129
  C        -1.1451488591        6.1440940377        5.8306684626
  C        -0.8808837886        4.1192653047        7.1234060925
  C         3.6389343058       -3.4907505079        5.9209365403
  C         3.6330616601        6.9044767116        0.0054633715
  O         1.7657343253        1.5725885161        7.3880882057
  O        -0.4726115451       -1.9296677726        7.9410709834
  O        -2.6845843477        0.1655340622       10.8082177704
  O        -2.7482197403        9.1476135782        5.6254513573
  O        -0.4945847915        7.8599941049        2.3699639216
  O         1.7732793883        5.6854128109        5.1138762360
  O        -0.7080690097        0.7214807955        8.3616677249
  O         3.8611077455       -0.9268295038        8.2367529628
  O         1.5608856443       -0.2264618305        9.5321899240
  O         1.5150501072        8.2890712846        4.7331355664
  O         3.7820083622        7.5101159875        3.5350431828
  O        -0.7582649784        6.8635303388        4.8209596768
  O        -2.1831821083        2.3943105716        8.5695451640
  O         2.2555593691       -1.2711377889        6.6934717300
  O        -0.0333217564       -1.1219590525       10.8683959242
  O        -0.0206287076        9.9012028915        4.4495405494
  O         2.2366561478        6.4649575278        2.2921172596
  O        -2.2936491124        6.3173552884        6.3544931973
  O         2.9805658741        1.8668063705        9.3837379853
  C         2.5917061952        2.6630481940        9.6870607574
  O         3.1185836753        3.4892928894       10.7185660281
  H         2.6008417933        3.5060019845        9.2369259410
  H         2.4348811762        4.2122088590       10.6240218910
  H         2.0505773549        2.0988722159       10.2818700673
  H         2.4631694533        2.9752974306       11.0903722892
