      60
 i =        1, E =     -1466.1525834935
 Ni         3.0926615576        0.8808233232        9.0392980365
 Ni         0.8180097977       -0.2151750992        7.5906712402
 Ni        -1.4047974324       -0.8810279335        9.4640255571
 Ni        -1.4318863267        8.6177030614        3.9891705693
 Ni         0.8447329567        6.7171324371        3.6458449674
 Ni         3.1091943826        7.3623279370        5.4659918883
  H         2.8022876931        3.5577768406        6.1627225287
  H        -1.7340366170       11.1224040793        6.9338954762
  H        -1.7339311481        0.4395714164       13.0987897107
  H        -1.9447744720        4.2677333256        7.3870014941
  H         2.5840489899       -3.2909153879        5.7087677147
  H         2.5890845986        6.5898781314        0.0012634828
  C         1.1102091581        2.7220710022        7.1715064570
  C        -1.1588596221       -2.7051100853        7.1436028443
  C         3.3751891079       -0.0404533467       11.8754137146
  C         3.3735597201       10.2836855837        5.9077656811
  C        -1.1662290616        7.5377565696        1.2453556115
  C         1.1027973858        4.8720810125        5.9524760507
  C         1.7661872137        3.7324099092        6.4488243265
  C        -2.7716485175       11.2824660701        6.6494273594
  C        -2.7748197941        0.1202284621       13.1114257157
  C        -0.2637950478        2.9525915040        7.5413742947
  C         4.2657864844       -2.5258958198        6.7492882712
  C         1.9901870535       -0.4453482153       11.8758578347
  C         1.9930903145       10.4909503630        5.5441886411
  C         4.2525200916        7.1161829105        1.2340126271
  C        -0.2786317821        5.0722544450        6.3164216939
  C        -1.1040841526        1.9801376874        8.2270268977
  C         3.3867830505       -1.4642698128        7.2153755540
  C         1.1093887435       -0.5799127860       10.7114171571
  C         1.1211242356        9.5356806092        4.8626263986
  C         3.3944104589        6.9975298360        2.4087964084
  C        -1.1430889908        6.1493201054        5.8287223325
  C        -0.8968703765        4.1231412671        7.1266564801
  C         3.6295513521       -3.4683543907        5.9539454952
  C         3.6347915747        6.8918975345        0.0028937432
  O         1.7619460486        1.5838977028        7.4338062901
  O        -0.4904988083       -1.8980895885        7.9695445326
  O        -2.7449557006        0.2493798154       10.7599778882
  O        -2.7603880876        9.1620251494        5.6241928994
  O        -0.4941715630        7.8470587925        2.3566431511
  O         1.7737158087        5.6755272682        5.1252722901
  O        -0.7423485510        0.7371719792        8.3596155375
  O         3.8308039453       -0.8101532218        8.2436403168
  O         1.4820243348       -0.1409172025        9.5419736592
  O         1.5246391087        8.3076917110        4.7490874600
  O         3.7831708748        7.5221232888        3.5353490976
  O        -0.7470571046        6.8641492629        4.8197564809
  O        -2.2902840666        2.3223766603        8.5833309300
  O         2.2309215624       -1.2546505879        6.7175210185
  O        -0.0340791482       -1.1235375200       10.8461003623
  O        -0.0256560786        9.9018685090        4.4443432980
  O         2.2367304276        6.4652832486        2.2978349185
  O        -2.2921848860        6.3179756486        6.3542352276
  O         2.9725597881        1.8459543400        9.4865555451
  C         2.7412472402        2.7079653812        9.8349288288
  H         2.8225197677        3.4171521575        9.3844354470
  H         2.6370156883        2.2613119986       10.4703127392
  H         3.5225396890        2.6172802533        9.8241507653
  H         3.6945700505        1.8493774027        9.5063373563
      60
 i =        2, E =     -1467.3437134925
 Ni         3.0612028574        0.7697492262        9.0253508529
 Ni         0.7918424527       -0.2303043536        7.5551288356
 Ni        -1.4084828057       -0.9212709026        9.4506238722
 Ni        -1.4269555376        8.6088346195        4.0068211313
 Ni         0.8234687053        6.7093208726        3.6316547180
 Ni         3.1078883207        7.3693211903        5.4609232510
  H         2.8195716910        3.5610411263        6.1449667904
  H        -1.7304554648       11.1152419762        6.9370641148
  H        -1.7344080244        0.4402526012       13.1074441638
  H        -1.9446829971        4.2703707786        7.3876266788
  H         2.5958373499       -3.3058045554        5.6995004063
  H         2.6003272619        6.5906870309        0.0028934840
  C         1.1180084497        2.7249690666        7.1202515650
  C        -1.1656595651       -2.7218827263        7.1220529617
  C         3.3799642040       -0.0790407172       11.9044369031
  C         3.3747150746       10.2677257719        5.9054416404
  C        -1.1663701049        7.5500694184        1.2647102712
  C         1.1171930045        4.8814777287        5.9477133179
  C         1.7880267914        3.7500459034        6.4320605765
  C        -2.7708780506       11.2621433415        6.6519381709
  C        -2.7782432738        0.1262824604       13.1345231562
  C        -0.2399243177        2.9695060713        7.5129168088
  C         4.2673999518       -2.5262693190        6.7084217799
  C         1.9778052849       -0.4490893073       11.8687126329
  C         1.9966049041       10.4731070470        5.5323798476
  C         4.2617539313        7.1053644867        1.2363616825
  C        -0.2705222117        5.0804760646        6.3175902443
  C        -1.0744725524        1.9690900296        8.1271957624
  C         3.3898312873       -1.5011681111        7.2339220476
  C         1.0751646100       -0.6932998884       10.7159045588
  C         1.1271439017        9.5203795593        4.8514557838
  C         3.3766324283        7.0191440740        2.4003630435
  C        -1.1509458471        6.1374327152        5.8239146140
  C        -0.8949404742        4.1352873718        7.1226684871
  C         3.6440922792       -3.4833781114        5.9347104201
  C         3.6392178443        6.9136664061        0.0063290522
  O         1.7279938365        1.5591189228        7.3093164127
  O        -0.4985880788       -1.9213133784        7.9563373290
  O        -2.6926883942        0.1203582882       10.8048646129
  O        -2.7383060274        9.1575717439        5.6183022813
  O        -0.4987150642        7.8625909805        2.3760227824
  O         1.7709292514        5.6892284574        5.1069387672
  O        -0.7279266299        0.7425581329        8.3806838656
  O         3.8102959530       -0.8437425194        8.2575687115
  O         1.4248397259       -0.2915129246        9.5342476703
  O         1.5097146371        8.2867255421        4.7360338528
  O         3.7863457595        7.5099712771        3.5316086174
  O        -0.7576072353        6.8658263595        4.8238068239
  O        -2.1864154328        2.3504941911        8.6064943393
  O         2.2535132859       -1.2566930977        6.7118580473
  O        -0.1063094144       -1.1432326120       10.9161303214
  O        -0.0218813644        9.8970857649        4.4544349614
  O         2.2372691684        6.4594751118        2.2997049282
  O        -2.2962968376        6.3245655414        6.3517087135
  O         2.9229877366        1.9311955486        9.5454761164
  C         2.7176564350        2.8581498046        9.8539713864
  H         2.8743297620        3.6562597630        9.2560880732
  H         2.4820521053        2.3855130710       10.6000657266
  H         3.5627695747        2.7215609200        9.9464828802
  H         3.7441432183        1.8535553354        9.6241397069
      60
 i =        3, E =     -1467.8040631710
 Ni         2.9791161239        0.7172616003        9.0580070383
 Ni         0.8058838347       -0.2557981302        7.5416424337
 Ni        -1.4000393338       -0.9438754888        9.4551059739
 Ni        -1.4351198599        8.6137312681        4.0168821287
 Ni         0.8264795876        6.7054582670        3.6325843679
 Ni         3.1063871710        7.3524250028        5.4652876888
  H         2.8291973995        3.5750239313        6.1235245571
  H        -1.7324670182       11.1040295408        6.9400879482
  H        -1.7470893578        0.4363686969       13.1155373207
  H        -1.9192702059        4.2693779084        7.3802142523
  H         2.6005768919       -3.3261401481        5.6837253630
  H         2.5895909753        6.5929574929        0.0121121990
  C         1.1154245526        2.7085461262        7.0724402546
  C        -1.1631947220       -2.7298153008        7.1120450735
  C         3.3928821884       -0.1203423504       11.8982300349
  C         3.3819237668       10.2611238100        5.8938537865
  C        -1.1700584382        7.5532352658        1.2678927413
  C         1.1206059817        4.8812306253        5.9465245196
  C         1.7984453722        3.7530927204        6.4222036754
  C        -2.7709547277       11.2527306212        6.6473290352
  C        -2.7926902594        0.1292991727       13.1363656521
  C        -0.2495388573        2.9216634483        7.4408375171
  C         4.2629969788       -2.5372679458        6.7221504810
  C         1.9901502426       -0.4944115681       11.8886165211
  C         2.0037000798       10.4720086113        5.5259614417
  C         4.2493954510        7.1433113378        1.2389829869
  C        -0.2682759531        5.0887331711        6.3163086352
  C        -1.0082594078        1.9784219930        8.2269577477
  C         3.4025421880       -1.4800530777        7.2125799963
  C         1.0540674455       -0.6849324119       10.7529914734
  C         1.1273582587        9.5174813217        4.8568522494
  C         3.3889517192        6.9811851024        2.4132463092
  C        -1.1448945060        6.1558443218        5.8377088006
  C        -0.8697287562        4.1311938631        7.1202325961
  C         3.6527337079       -3.4795167620        5.9187426870
  C         3.6315856654        6.9037179607        0.0189007760
  O         1.7125871739        1.5410575568        7.2383790317
  O        -0.4864489419       -1.9229304248        7.9343930185
  O        -2.6635459799        0.0675564851       10.8183898113
  O        -2.7472964462        9.1370818584        5.6237443797
  O        -0.5040611008        7.8770557535        2.3782878069
  O         1.7778657847        5.6871575091        5.1107880381
  O        -0.6946720066        0.7331974072        8.3391461780
  O         3.7800222926       -0.8446439798        8.2745232160
  O         1.4110802634       -0.4174941347        9.5281803079
  O         1.5190526263        8.2879580301        4.7332381529
  O         3.7745061792        7.5080296390        3.5342753236
  O        -0.7709103639        6.8670169320        4.8181063252
  O        -2.1523204424        2.3173929670        8.6155428629
  O         2.2576138491       -1.2889734760        6.6962165893
  O        -0.1019770159       -1.1782484314       10.9439718010
  O        -0.0160655059        9.8984585133        4.4500283827
  O         2.2312955097        6.4741105924        2.2780293026
  O        -2.2990098012        6.3062564908        6.3576081102
  O         2.8751118200        1.9842445343        9.5772387460
  C         2.7186087921        3.0227433105        9.8194561373
  H         3.0026340119        3.8074957872        9.1095369896
  H         2.2320521053        2.5761001542       10.6116236583
  H         3.6080388285        2.7775042261       10.0875341277
  H         3.7445060334        1.8087643636        9.7554520467
      60
 i =        4, E =     -1468.0570108269
 Ni         2.9036456548        0.6721265317        9.1192613582
 Ni         0.8133364178       -0.2653982497        7.5332282955
 Ni        -1.4116873434       -0.9526190277        9.4540233990
 Ni        -1.4304561533        8.6079227878        4.0168687619
 Ni         0.8238820279        6.7181762913        3.6370476871
 Ni         3.0981331856        7.3451252840        5.4734083674
  H         2.8334397975        3.5884410149        6.1073630289
  H        -1.7308037993       11.0914364820        6.9427812823
  H        -1.7521586024        0.4371681748       13.1234258228
  H        -1.9049189167        4.2709452152        7.3876307851
  H         2.6053937535       -3.3363712519        5.6667053319
  H         2.5954164936        6.5992270243        0.0228706165
  C         1.1199952135        2.6753163496        7.0257508822
  C        -1.1583235938       -2.7381404673        7.1096979709
  C         3.3891702323       -0.1410644456       11.9004874305
  C         3.3828180571       10.2518106364        5.8980962671
  C        -1.1818382800        7.5784506107        1.2638214725
  C         1.1303125125        4.8842493595        5.9421226247
  C         1.7974937509        3.7429770888        6.4008163818
  C        -2.7655181857       11.2475064815        6.6400308675
  C        -2.7931310199        0.1153942721       13.1348928877
  C        -0.2197473818        2.9272140073        7.4670295453
  C         4.2750810207       -2.5293505140        6.7045520989
  C         1.9817510179       -0.5031813760       11.8907283200
  C         2.0105021045       10.4734716833        5.5164861978
  C         4.2526991353        7.1229230653        1.2503025746
  C        -0.2544655894        5.0873562699        6.3294223223
  C        -1.0205938816        1.9285641695        8.1271969974
  C         3.3878596138       -1.5056600575        7.2312297332
  C         1.0709271678       -0.7818617886       10.7429105722
  C         1.1326956844        9.5211479679        4.8458801471
  C         3.3600180862        7.0221378643        2.4066276518
  C        -1.1411081921        6.1406050459        5.8335018054
  C        -0.8676490184        4.1034511170        7.0936542854
  C         3.6533041286       -3.4848821732        5.9222678972
  C         3.6371257882        6.9061684151        0.0278684047
  O         1.7403903902        1.5252461395        7.1913732776
  O        -0.4922576174       -1.9242079661        7.9363783105
  O        -2.6597937546        0.0032673574       10.8198114280
  O        -2.7415059397        9.1309858986        5.6248635813
  O        -0.4996458147        7.8626799836        2.3758846059
  O         1.7742891186        5.6862094298        5.0921299362
  O        -0.6459670396        0.7156147389        8.3563522205
  O         3.7711580803       -0.8363866523        8.2710619018
  O         1.4046357050       -0.5021063773        9.5320131907
  O         1.5168598379        8.2898251745        4.7294385299
  O         3.7798116518        7.4843367402        3.5430039286
  O        -0.7656683233        6.8674549975        4.8266212043
  O        -2.0869429165        2.2749155133        8.6911898046
  O         2.2656287130       -1.2879763280        6.6738926999
  O        -0.1289294460       -1.1700519850       10.9608815638
  O        -0.0153970496        9.9001952619        4.4527974714
  O         2.2294298254        6.4565481809        2.2946170538
  O        -2.2863064219        6.3144326150        6.3629070105
  O         2.8405151118        2.0379592484        9.6157862795
  C         2.7369771701        3.1910047897        9.7684583701
  H         3.1350475365        3.9298871641        8.9402982069
  H         1.9820521053        2.8012355962       10.5901689709
  H         3.6545649561        2.8354270515       10.2232439346
  H         3.7441019635        1.7615736130        9.9045267407
      60
 i =        5, E =     -1468.1955359036
 Ni         2.8146314641        0.6376562727        9.1949678763
 Ni         0.8238396437       -0.2935944487        7.5118895934
 Ni        -1.4097701794       -0.9495405839        9.4560181124
 Ni        -1.4343940898        8.6143606581        4.0252950557
 Ni         0.8217047095        6.7097352381        3.6321750820
 Ni         3.0868257345        7.3415660351        5.4714251941
  H         2.8414145355        3.5958851176        6.0844683111
  H        -1.7288440514       11.0782521181        6.9445260063
  H        -1.7550812146        0.4335848642       13.1283550956
  H        -1.8908202126        4.2548757532        7.3879328927
  H         2.6121461047       -3.3430976033        5.6545909267
  H         2.5883467203        6.6007794860        0.0351640701
  C         1.1460570441        2.6679226557        7.0372946909
  C        -1.1522594648       -2.7352247124        7.1004868390
  C         3.3827835057       -0.1673789744       11.9011464266
  C         3.3879039598       10.2535603854        5.8931544878
  C        -1.1784047938        7.5472660512        1.2630206401
  C         1.1311651258        4.8741968182        5.9292312678
  C         1.7960645889        3.7193237532        6.3633588763
  C        -2.7626821331       11.2421609565        6.6448145828
  C        -2.7994764992        0.1216504169       13.1312749053
  C        -0.2264945446        2.8695500046        7.3929436211
  C         4.2757295114       -2.5397755384        6.7168280162
  C         1.9833175688       -0.5529386654       11.8844626578
  C         2.0169272912       10.4715941803        5.5136536869
  C         4.2363528933        7.1583502679        1.2441249299
  C        -0.2526193519        5.0700430862        6.3175216767
  C        -0.9676209963        1.9026813791        8.1964717417
  C         3.4025358070       -1.4905380861        7.2193935510
  C         1.0428459597       -0.7892949136       10.7561413737
  C         1.1369917751        9.5230823817        4.8412688499
  C         3.3761632028        6.9906027498        2.4176385589
  C        -1.1354030714        6.1443997122        5.8490633843
  C        -0.8473077721        4.0973282937        7.1141367717
  C         3.6610723687       -3.4819407477        5.9103778682
  C         3.6322900074        6.8975273943        0.0248658806
  O         1.7657239229        1.4985966838        7.1478608340
  O        -0.4966795179       -1.9275958710        7.9424604746
  O        -2.6835755404       -0.0380838936       10.8054319120
  O        -2.7472664656        9.1245701449        5.6328347609
  O        -0.5058078045        7.8837094695        2.3664708697
  O         1.7831209899        5.6917870575        5.0990269834
  O        -0.6042688059        0.6708517458        8.3268751328
  O         3.7682258881       -0.8345682548        8.2802104145
  O         1.4223391504       -0.6194818128        9.5210255996
  O         1.5145137643        8.2907877309        4.7175072912
  O         3.7691858597        7.4923924006        3.5430175228
  O        -0.7617274776        6.8655977829        4.8363740430
  O        -2.0473319637        2.2283141298        8.7123824809
  O         2.2726105174       -1.3095003277        6.6673306820
  O        -0.1405380198       -1.1983340472       10.9650405207
  O        -0.0098357106        9.9057668554        4.4498175664
  O         2.2243651569        6.4734136023        2.2837121781
  O        -2.2907975841        6.3079267294        6.3606634414
  O         2.8075051900        2.1008242314        9.6726169352
  C         2.7648006067        3.3595154081        9.7466780912
  H         3.1430723393        4.0282564635        8.7979939709
  H         1.8590172360        3.0512355962       10.6013638890
  H         3.6958896337        2.9442496845       10.2840881067
  H         3.7336660200        1.7464335117       10.0078726322
      60
 i =        6, E =     -1468.2964612038
 Ni         2.7188494104        0.6224522845        9.2526612373
 Ni         0.8523905201       -0.3248704626        7.4961266381
 Ni        -1.4132317624       -0.9574368585        9.4520257181
 Ni        -1.4363711547        8.6180484481        4.0203440899
 Ni         0.8266228751        6.7082192723        3.6394984234
 Ni         3.0769686030        7.3284166536        5.4740382270
  H         2.8517841262        3.5928724917        6.0493660908
  H        -1.7288055734       11.0653015983        6.9496595658
  H        -1.7677025213        0.4291343493       13.1265722656
  H        -1.8630301007        4.2292822373        7.4004506444
  H         2.6224396599       -3.3452813038        5.6408412747
  H         2.5691678201        6.5988864180        0.0477483262
  C         1.1399355044        2.6151064431        6.9452298559
  C        -1.1513214946       -2.7496888279        7.1176407722
  C         3.3718742486       -0.2116018448       11.8910508816
  C         3.3914847758       10.2480090771        5.8925202183
  C        -1.1903870188        7.5812475683        1.2574363095
  C         1.1222233635        4.8507192730        5.9079968513
  C         1.8124357856        3.7139542719        6.3514272913
  C        -2.7569369805       11.2407068054        6.6367409164
  C        -2.8054712311        0.0922107335       13.1170177393
  C        -0.1982891607        2.8464919350        7.4151823214
  C         4.2877553081       -2.5360398514        6.7134563038
  C         1.9668222268       -0.5797358097       11.8975041287
  C         2.0257182927       10.4756193235        5.5042752447
  C         4.2407917564        7.1391695573        1.2467812092
  C        -0.2469308127        5.0633159583        6.3288680926
  C        -0.9435132053        1.8539504969        8.1970125920
  C         3.4100786665       -1.4888223150        7.2226402951
  C         1.0481905772       -0.8652910396       10.7570849913
  C         1.1380651953        9.5276729818        4.8391264723
  C         3.3631561528        7.0159268544        2.4114042242
  C        -1.1359803452        6.1364364842        5.8527348703
  C        -0.8355986400        4.0445228769        7.0814598304
  C         3.6685258535       -3.4800062459        5.9090735424
  C         3.6148613270        6.8870508263        0.0372972026
  O         1.7853924906        1.4778689712        7.1251352033
  O        -0.4813216806       -1.9232394518        7.9296756784
  O        -2.7378846975       -0.0435891421       10.7738829477
  O        -2.7483487371        9.1159043880        5.6322090683
  O        -0.5016907210        7.8684547127        2.3652577021
  O         1.7851358950        5.6881318522        5.1040164948
  O        -0.5467209057        0.6195185718        8.3126904762
  O         3.7623456208       -0.8184160405        8.2807140325
  O         1.4473849079       -0.7378497731        9.5220039033
  O         1.5202391476        8.2980962364        4.7073219720
  O         3.7756635650        7.4773108167        3.5465132246
  O        -0.7588153266        6.8668225770        4.8453640751
  O        -1.9993129514        2.2108077802        8.7380671512
  O         2.2853557811       -1.3254380875        6.6558318315
  O        -0.1612731298       -1.2036976282       10.9821142412
  O        -0.0078924597        9.9084586674        4.4439757739
  O         2.2240016675        6.4661128306        2.2875552652
  O        -2.2887523683        6.2955037937        6.3718314154
  O         2.7746997728        2.1741624133        9.7386604948
  C         2.7931211306        3.5261233438        9.7716252667
  H         2.9992615244        4.1168753711        8.7174833287
  H         1.8693593685        3.3012355962       10.6648774077
  H         3.7350042911        3.1117675098       10.2773325662
  H         3.7178392417        1.7686650642       10.0570976081
