      62
 i =        1, E =     -1468.1708367008
 Ni         3.0801615994        0.9702700043        9.0867276527
 Ni         0.8229098229       -0.2037066558        7.6082099073
 Ni        -1.4121325448       -0.8666192825        9.4542100715
 Ni        -1.4258762129        8.6082878065        3.9926404357
 Ni         0.8403558474        6.7142817188        3.6493917423
 Ni         3.1073916710        7.3656798305        5.4610321510
  H         2.7985635772        3.5578692429        6.1639817067
  H        -1.7358000218       11.1222875254        6.9339311639
  H        -1.7354721124        0.4412025143       13.0985469053
  H        -1.9460266100        4.2665198846        7.3886321368
  H         2.5880007640       -3.2938002621        5.7086704093
  H         2.5930630033        6.5921183046        0.0009973198
  C         1.1048199502        2.7217041581        7.1748224430
  C        -1.1609633373       -2.7005167383        7.1418832358
  C         3.3731641661       -0.0363684153       11.8727199518
  C         3.3723585849       10.2830551786        5.9083683450
  C        -1.1641500369        7.5366061565        1.2451933127
  C         1.1065836942        4.8712118064        5.9528400089
  C         1.7623386812        3.7311740162        6.4495118925
  C        -2.7741845279       11.2836139711        6.6495941358
  C        -2.7751424481        0.1157896175       13.1089948031
  C        -0.2707966048        2.9494400599        7.5380923795
  C         4.2610837485       -2.5103038121        6.7590464446
  C         1.9878201249       -0.4473249466       11.8712809573
  C         1.9915099865       10.4950907608        5.5454188013
  C         4.2553682143        7.1156714571        1.2310015959
  C        -0.2761857767        5.0716387304        6.3193070878
  C        -1.1208388685        1.9802674088        8.2216647858
  C         3.3891229117       -1.4408032047        7.2419485788
  C         1.0997143526       -0.5814937738       10.7094096574
  C         1.1203555926        9.5374699718        4.8619830765
  C         3.3886769251        7.0011899007        2.4069863312
  C        -1.1449767334        6.1444821386        5.8304646100
  C        -0.8988354944        4.1219785132        7.1251617450
  C         3.6335584144       -3.4611566292        5.9620793994
  C         3.6381134973        6.8970128854        0.0014130634
  O         1.7636194242        1.5903708227        7.4338972354
  O        -0.4873962493       -1.9006210029        7.9717278653
  O        -2.7477883748        0.2509977702       10.7610530699
  O        -2.7571748056        9.1643625503        5.6230230400
  O        -0.4917301436        7.8518426868        2.3545246002
  O         1.7780558244        5.6731209937        5.1211524628
  O        -0.7469370001        0.7430379834        8.3610877660
  O         3.8068634692       -0.7538498924        8.2603416379
  O         1.4887732950       -0.1369683870        9.5513012252
  O         1.5214135844        8.3083282504        4.7445057650
  O         3.7868200262        7.5164850572        3.5314054697
  O        -0.7484351738        6.8609031199        4.8221660987
  O        -2.2751253343        2.3378283067        8.6281953812
  O         2.2358552089       -1.2467368963        6.7335466420
  O        -0.0458514627       -1.1242316987       10.8403504548
  O        -0.0279902285        9.9030017807        4.4482589564
  O         2.2391017216        6.4621351397        2.3000736314
  O        -2.2931677421        6.3217961869        6.3534088145
  O         2.9233902200        1.9674663206        9.5543201682
  H         3.6919870343        1.9171691238        9.5812168425
  H         2.8964552774        2.7364048727        9.5231292763
  C        -0.6813761804        6.8049315333       11.7887837580
  H        -0.8086044679        6.3703949996       12.5298303784
  H        -0.5533926005        7.2403356488       11.0483030687
  H        -0.8088639957        7.6640214300       11.7826176966
  H        -0.5533167105        5.9461318847       11.7954569969
      62
 i =        2, E =     -1468.9904356773
 Ni         3.0533960086        0.9410835899        9.1014509123
 Ni         0.8166973854       -0.2179620222        7.5892417367
 Ni        -1.4277213355       -0.8948380668        9.4476049168
 Ni        -1.4369292809        8.6234278891        3.9947727301
 Ni         0.8321518414        6.7038566739        3.6308805927
 Ni         3.1019269313        7.3592948503        5.4679008521
  H         2.8122960125        3.5595167371        6.1493152703
  H        -1.7331230692       11.1172832979        6.9372285626
  H        -1.7370586071        0.4394710603       13.1043582232
  H        -1.9389842612        4.2717690981        7.3848670209
  H         2.5944427160       -3.3040176576        5.7026149786
  H         2.5908032835        6.5911135182        0.0042957200
  C         1.1155096228        2.7176967006        7.1308849317
  C        -1.1667600278       -2.7151751173        7.1355780456
  C         3.3777646976       -0.0681689458       11.8859409337
  C         3.3746553056       10.2762477464        5.9036058574
  C        -1.1647934673        7.5485694819        1.2553254181
  C         1.1079067288        4.8766012281        5.9501546215
  C         1.7791754192        3.7428802186        6.4365163594
  C        -2.7733941814       11.2701867066        6.6527568612
  C        -2.7816753758        0.1283557911       13.1218940108
  C        -0.2479477563        2.9528626551        7.5173988198
  C         4.2601683967       -2.5033224867        6.7459873334
  C         1.9786381524       -0.4470737060       11.8791685743
  C         1.9939153354       10.4926632684        5.5431240110
  C         4.2600210348        7.1129335919        1.2350449067
  C        -0.2760010772        5.0799553459        6.3204922761
  C        -1.0730522211        1.9712193657        8.1961219479
  C         3.3902543958       -1.4495387958        7.2595942898
  C         1.1062702031       -0.6630726394       10.7057287393
  C         1.1310944927        9.5300173244        4.8592736860
  C         3.3867755580        7.0028701206        2.4043216916
  C        -1.1472394729        6.1487636899        5.8277727339
  C        -0.8907285553        4.1244194867        7.1221408040
  C         3.6428544681       -3.4596529975        5.9527442551
  C         3.6333834978        6.9019857531        0.0097428110
  O         1.7438855916        1.5708274248        7.3624708517
  O        -0.4992431683       -1.9041321764        7.9600190838
  O        -2.7086721325        0.1656692848       10.7886321131
  O        -2.7542219341        9.1523252938        5.6312317863
  O        -0.4950999095        7.8586337128        2.3688735686
  O         1.7699258328        5.6825631865        5.1158296942
  O        -0.7298838825        0.7348627731        8.3689001804
  O         3.7909955777       -0.7315486999        8.2618933990
  O         1.4827495826       -0.2546373305        9.5335748038
  O         1.5173753493        8.2965829788        4.7335241414
  O         3.7779946554        7.5066200085        3.5373221448
  O        -0.7580396348        6.8668366957        4.8180385388
  O        -2.1877003047        2.3440730428        8.6880171405
  O         2.2473588492       -1.2572224139        6.7346468130
  O        -0.0794041499       -1.1150165181       10.8672718086
  O        -0.0171976908        9.9006917012        4.4530491199
  O         2.2389869509        6.4636936710        2.2872390541
  O        -2.2954880998        6.3144398416        6.3539939389
  O         2.7979789387        2.1123666344        9.5731485633
  H         3.5818066855        1.9785551628        9.7704886706
  H         2.9015668962        2.9511453453        9.4502798198
  C        -0.6879536683        6.8028343406       11.7860652691
  H        -0.8309972463        6.3285993388       12.6377063750
  H        -0.5272224639        7.2836176799       10.9409707178
  H        -0.8336566929        7.7774352545       11.7978393244
  H        -0.5268841466        5.8311136146       11.7804495850
      62
 i =        3, E =     -1469.3089797110
 Ni         3.0657705457        0.9202240931        9.1341602453
 Ni         0.8261674112       -0.2208849076        7.5731003017
 Ni        -1.4104999345       -0.8904751524        9.4620455129
 Ni        -1.4315062104        8.6150055530        4.0038405698
 Ni         0.8306310203        6.7228712164        3.6377904976
 Ni         3.0977717677        7.3543130290        5.4616170012
  H         2.8148057023        3.5712319818        6.1351123049
  H        -1.7353481599       11.1117201376        6.9400539886
  H        -1.7411526074        0.4408002201       13.1073671140
  H        -1.9273716035        4.2706507172        7.3837532097
  H         2.5963797928       -3.3107329498        5.6949761185
  H         2.5914782672        6.5921656265        0.0111028452
  C         1.1229049620        2.7008506323        7.1203933899
  C        -1.1640420710       -2.7130578059        7.1259646053
  C         3.3714040004       -0.0764764016       11.8968667996
  C         3.3767428705       10.2651362387        5.9106046866
  C        -1.1703031849        7.5503031604        1.2594229685
  C         1.1170145257        4.8772008130        5.9490780520
  C         1.7795499560        3.7341027128        6.4274778359
  C        -2.7749888835       11.2656579095        6.6528010682
  C        -2.7855926193        0.1280233448       13.1287200353
  C        -0.2485542774        2.9285203723        7.4894550740
  C         4.2563290549       -2.5144661682        6.7530828326
  C         1.9852537726       -0.4919796801       11.8780121340
  C         2.0014268822       10.4906893054        5.5370927789
  C         4.2517480388        7.1257358672        1.2386367963
  C        -0.2680901173        5.0772276784        6.3210014210
  C        -1.0414057134        1.9679070477        8.2386732941
  C         3.4001490474       -1.4384950947        7.2492524468
  C         1.0884876553       -0.6279850593       10.7135840901
  C         1.1278494308        9.5333633665        4.8607238400
  C         3.3826105914        6.9950898690        2.4085972529
  C        -1.1458712840        6.1441677771        5.8298194418
  C        -0.8794905555        4.1184687383        7.1210713763
  C         3.6448588898       -3.4633229540        5.9464977850
  C         3.6325950064        6.9050482834        0.0117898000
  O         1.7663128105        1.5534244224        7.3151703172
  O        -0.4934185180       -1.9116062524        7.9605791929
  O        -2.6985059254        0.1580909127       10.8132469251
  O        -2.7501215078        9.1449718742        5.6195482720
  O        -0.4995088931        7.8604454303        2.3726155353
  O         1.7665651171        5.6848725206        5.1067291113
  O        -0.6965718377        0.7332874425        8.3508117416
  O         3.7997025415       -0.7489470941        8.2736946634
  O         1.5238989604       -0.3270528980        9.5169595678
  O         1.5242442080        8.3056540525        4.7299427949
  O         3.7811968807        7.4992650852        3.5373708415
  O        -0.7617071836        6.8625180276        4.8218799823
  O        -2.1197823977        2.3240455207        8.8233988906
  O         2.2490242386       -1.2702987996        6.7314767178
  O        -0.0642082182       -1.1431069098       10.8786741538
  O        -0.0173857280        9.9038247364        4.4485213581
  O         2.2301761318        6.4662353785        2.2942987077
  O        -2.2941569665        6.3180933874        6.3526162386
  O         2.6359709011        2.2374736509        9.4881980759
  H         3.4515633360        2.0169643251       10.0204886706
  H         2.8892438235        3.1193064182        9.2048190813
  C        -0.7125099860        6.7982420264       11.7787726847
  H        -0.8400168581        6.3258592750       12.6929943834
  H        -0.5010092038        7.2895991573       10.8896036861
  H        -0.8496632604        7.8252199285       11.8193778991
  H        -0.5045607126        5.7825729259       11.7603120789
      62
 i =        4, E =     -1469.4425711944
 Ni         3.1455482077        0.8875788933        9.2077733895
 Ni         0.8560978089       -0.2351747655        7.5894466080
 Ni        -1.4160981208       -0.8973983591        9.4478667264
 Ni        -1.4389842057        8.6342433253        4.0044657234
 Ni         0.8327025599        6.7102416595        3.6228246159
 Ni         3.0906908850        7.3457350326        5.4748147078
  H         2.8193938604        3.5782131789        6.1166598171
  H        -1.7333928414       11.1052817053        6.9447105359
  H        -1.7518372932        0.4424507795       13.1128088690
  H        -1.9130814700        4.2656036910        7.3892946148
  H         2.5975691335       -3.3152077962        5.6851387289
  H         2.5817125322        6.5956015120        0.0194174652
  C         1.1226877532        2.6572184778        7.0743573458
  C        -1.1606570267       -2.7233466866        7.1445965002
  C         3.3749720175       -0.1030263046       11.9003441198
  C         3.3781682361       10.2771785726        5.9016882451
  C        -1.1786291832        7.5526827936        1.2595729450
  C         1.1132134607        4.8650719433        5.9457099543
  C         1.7857636517        3.7277141536        6.4281107759
  C        -2.7709983461       11.2637838027        6.6568637004
  C        -2.7932104194        0.1211371065       13.1314930533
  C        -0.2370274522        2.9065297128        7.5060890398
  C         4.2743430846       -2.5093715537        6.7370628590
  C         1.9708995465       -0.4567142802       11.8807461511
  C         1.9994585021       10.4923761884        5.5425934089
  C         4.2461927326        7.1246444527        1.2349742364
  C        -0.2682773128        5.0693070774        6.3291316294
  C        -1.0202226821        1.9555363710        8.2926855058
  C         3.3963269421       -1.4684110093        7.2673564507
  C         1.1459644769       -0.7283745439       10.6729889930
  C         1.1371572597        9.5397735548        4.8484080236
  C         3.3761212248        7.0062087987        2.4044985187
  C        -1.1434794666        6.1434127349        5.8370734949
  C        -0.8713555306        4.0899666820        7.1143595207
  C         3.6432009610       -3.4617144684        5.9512641340
  C         3.6294086836        6.8854971775        0.0104674958
  O         1.7945155464        1.5276640862        7.2893431540
  O        -0.4827932038       -1.9025335686        7.9544340339
  O        -2.6575279830        0.1625466169       10.8456638695
  O        -2.7567871749        9.1441685130        5.6432599794
  O        -0.5017848528        7.8755169015        2.3634410639
  O         1.7698723900        5.6726993077        5.1100520607
  O        -0.6701732370        0.7123271814        8.3328862413
  O         3.8200400342       -0.7577725415        8.2637972744
  O         1.5629723531       -0.3315375052        9.5231774708
  O         1.5239195965        8.3078453552        4.7227581392
  O         3.7785127175        7.4836995527        3.5431509196
  O        -0.7638534478        6.8622202251        4.8260316983
  O        -2.0590265471        2.3395684909        8.9475054130
  O         2.2649694540       -1.2650379692        6.7205940275
  O        -0.0739211308       -1.0938845426       10.8578577068
  O        -0.0116608298        9.9174455698        4.4544189008
  O         2.2348107953        6.4579990507        2.2741644045
  O        -2.2931012579        6.3019103234        6.3651921150
  O         2.4727654194        2.3466134287        9.4067926821
  H         3.2929589728        2.1350447557       10.1923315299
  H         2.7605420412        3.2298501396        8.9548190813
  C        -0.7935848537        6.7850009944       11.7565892077
  H        -0.8243264089        6.3370286795       12.7474213614
  H        -0.4459294111        7.2894131044       10.8528825779
  H        -0.8668065984        7.8616257861       11.8458683585
  H        -0.4786595906        5.7456956607       11.7354293890
