197
07c07d3 s1_to_s2 B (s2 augmented)
  Zn        3.8319814078        3.7096135094        6.8299005185
  Zn        2.1776638592        4.9053222552        8.8037394659
  Zn        8.2654097941       -1.3288467948       15.3714455182
  Zn       -2.1253481540        9.8219087091        0.0838189634
  Zn       -8.2191857942       12.5101909679        8.6464005616
  Zn        8.4631636950       13.5421603676        6.7564147459
  H        -2.9485489343        6.8552952721        4.3045948883
  H         5.0486954498        6.7514647576        4.3530982686
  H         6.2478363339        6.2000987560        5.5729680252
  H         6.5316436753        7.7250837946        4.6539182158
  H         1.9666818576        1.4200582306       10.5981318186
  H         2.8052473766        0.0115098538       11.3451645829
  H         3.4631363515        0.7862465015        9.8696109494
  H         4.5870756097        0.1713989882       15.1250342339
  H         5.0081654378       -0.4703601358       13.5128219488
  H         3.5081337722        0.5118663024       13.7205707639
  H         9.6973650209        3.4712801021       10.9574736250
  H         7.0050625710        3.7280500449        8.2749752331
  H        -2.5176562646        3.9231931945        7.4921105908
  H        -1.9721931720        2.7777749067        6.2329105763
  H        -0.7771691918        3.8000420455        7.1112912796
  H        13.5881382763       -0.0757292591        7.5285525683
  H        -3.5239422496       -0.1613618603        6.2572429698
  H        -3.7700324974        1.3668552144        7.1907936189
  H         2.5227257274       -3.8320199692        8.3922929306
  H         1.3268802337       -3.1341793925        9.5338385298
  H         2.7585832097       -2.1608934068        9.0071224454
  H         4.2798763249       -0.1997588812        6.4600325858
  H         2.8448336264        0.4490981085        5.5988437669
  H         2.9397962866       -1.3111983800        6.0008412648
  H        -4.3800355022       13.3350151716        1.9907866874
  H        12.4819357729       13.9268951787        1.2057397740
  H        13.7966659565       13.1837844238        0.2186430938
  H        -0.8604577832        6.5878664143        6.8614915077
  H        -5.2879692838       14.3832493261        3.8521116545
  H        -6.2513150266       13.7635989390        5.2267753787
  H        -1.0133736381       -2.4145646773        4.2531602005
  H        10.0040789319        9.7564294607        6.3928587004
  H        12.4429893177        5.9442589395        3.8217237363
  H        11.6625121028        6.8600355010        2.4876407474
  H        10.9265901157        6.8317920720        4.1476475604
  H        -5.5780399173        0.4543019847       13.3879302625
  H        -3.9017416570       -0.1869047542       13.2200726081
  H        -4.6508444555       -0.0129949171       14.8447375282
  H        -2.4387838685       -0.8792989600       11.6633018072
  H        -3.3138910395       -1.2295047360       10.1467602402
  H        -2.0443971517       -2.3505677268       10.7129601199
  H        11.0703951383       -1.4010979918        7.7438537254
  H         9.5404275489       -1.2749277285        8.6950490220
  H         9.6506566183       -2.4042458406        7.2996600232
  H         7.3358030742       -3.2586298282       10.8906390865
  H         8.4969989509       -3.9541604080       12.0714905609
  H         8.7729349948       -4.1560823349       10.2962879249
  H         2.6980464909        9.4648489470        4.6080556825
  H         1.3653618029        9.7610224225        5.7815776670
  H         1.7853343173       11.0066483597        4.5537468325
  H         2.7678426911        9.0014527778        2.0964381053
  H         3.0878817227        7.5072058785        1.1478642659
  H         4.4171102036        8.2944811291        2.0635752070
  H         2.0186714400        5.3282562992        0.8480406718
  H        -0.1788205357        3.3605704025        4.4368232135
  H         6.2996678694        7.5774360541       11.7517113511
  H        -9.0431094676        8.9414283215       11.9626712746
  H        -8.6639411385        8.6848366020       10.2254656186
  H         8.7855353354        7.4367959146       11.1436506482
  H         7.8121200375       10.1425066864        5.5813008235
  C         4.5685595562        6.2629674233        8.2929967210
  C         0.7858700688        6.2762913593        2.4333847525
  C         0.3142976866        5.3459239782        3.6160384227
  C         1.2794707308        6.1084326915        4.6281701790
  C         6.2140422259        7.7530398429        9.5717085558
  C         7.1217690979        8.8361173371        9.5558940110
  C         7.3135758705        9.5715659226        8.3711595852
  C         6.5847781959        9.2527262954        7.2044867404
  C         5.7174982983        8.1486785399        7.2113039975
  C         5.5411704238        7.4034179220        8.3855549515
  C         5.0138694424        2.0214380632       11.4881217350
  C         2.0921645205        5.4070584451        5.6684683694
  C         5.8342191066        1.8089049315       12.6109669757
  C         7.2332976429        1.9053795270       12.4967805336
  C         7.8221287811        2.3276261363       11.2990775651
  C         6.9975438161        2.6210611157       10.1905873977
  C         5.5957075526        2.4439430175       10.2764210376
  C        -0.8861693158        1.1281605077        8.0013881143
  C        -1.5469779825       -0.1157387097        8.0067547294
  C        -0.8034821377       -1.3016762976        7.8833463262
  C         0.5878281156       -1.2782868722        7.7404943083
  C         1.2489399486       -0.0443532483        7.6829088788
  C         1.2823641247        2.4350439349        7.7883337532
  C         0.5146052082        1.1561425610        7.8110404986
  C        13.6064024442        9.2886346511        1.6624363582
  C        -1.2361797969        7.9723609422        1.8145194988
  C        10.1951009330       -1.5213087242       13.5911153051
  C         8.0208939677        1.3650753371       13.6551559052
  C        10.3221025425       11.9964359163        5.5699711710
  C         8.1964639847       10.7667951744        8.3099188201
  C        13.4948250964       -3.2298943292        9.1513259024
  C        -1.5224254369       -2.6029396068        7.8539535035
  C        12.3398932110       11.2928367495        2.4423805302
  C         4.7052299466        2.8432658938        9.1421089993
  C        11.6078752017       11.9722170591        3.4412982185
  C        11.0950519808       11.2433918033        4.5216339891
  C        11.3554668767        9.8564893336        4.6871489690
  C        12.1895429785        9.2139682010        3.7361745468
  C        12.6476489038        9.9253986029        2.6189673972
  C        -5.9391834704       -1.9554663868       12.5822650608
  C        -5.1207149662       -2.3616742547       11.5146814050
  C        12.6638095790       -2.7019815958       10.2648534615
  C        11.2546533261       -2.6559296938       10.1264633782
  C        10.4437873571       -2.3164179838       11.2220046816
  C         0.1322655176        7.1266234440        4.9803851893
  C        11.0348553573       -1.9723117150       12.4472786081
  C        -0.8322629071        6.3452045742        3.9642174263
  C        -0.3485316374        7.3200151171        2.8216710486
  C         0.6250924067        8.0642007016        3.7976853681
  C         1.7750472763        7.0060155942        3.4418395781
  C        -2.2394128423        5.9967202069        4.2724856954
  C         5.7682570841        7.0738743694        5.1100668728
  C         2.9407608333        0.9672224412       10.8160548518
  C         4.5459956396        0.3703041515       14.0487527287
  C         9.3197776630        2.4579678348       11.2142186275
  C         7.6493326345        3.1648001091        8.9763766074
  C        -1.7163268921        3.2361968307        7.1992871826
  C        -3.7868738628        0.2705714869        7.2339643238
  C         2.0151085061       -2.9127961667        8.7048083058
  C         3.1961394586       -0.2937154088        6.3288644441
  C        13.2698944743       13.1658250469        1.1793283452
  C        -0.3218953945        7.4304649874        6.3654043687
  C        -6.3094929579       14.1884391210        4.2163046493
  C        10.7388486166        9.1444977776        5.8251102606
  C        11.8581542013        6.8353240298        3.5684601917
  C        -4.8398459837       -0.2533060160       13.7911923805
  C        -2.8508827350       -1.6806781756       11.0299856337
  C        10.2002677847       -1.9509393543        8.1324710825
  C         8.3909477230       -3.4873568205       11.0810971752
  C         1.7144971368        9.9328486413        4.7547206784
  C         3.3460226395        8.0668609699        2.0612630711
  C         0.9786119467        5.6462058785        1.0884789227
  C         0.3267697446        3.8633062659        3.5825229454
  C         5.9959520707        7.0186432157       10.8409992974
  C        -9.4034700470        8.5167594680       11.0198057386
  C         6.7599260433       10.0405184628        5.9316837730
  O         4.9392196317        5.2905094483        7.5624572951
  O        -3.6735274180        9.8959671746        1.4666459699
  O        -2.2760564954        7.3393231069        1.4672593895
  O        -0.8512475784        9.1244671993        1.3925490634
  O         9.2279247449       -2.2812962298       13.9770831778
  O        -7.8702218060       -0.4036541217       14.1004760223
  O         7.7149647439        0.1831532808       13.9765737057
  O         8.9139564349        2.0923333906       14.2264357655
  O        -7.5724302714       11.9616594019        6.7439730083
  O         9.2676472535       12.6299150802        5.2074446946
  O        -9.1033653121       10.8030268544        9.0173208112
  O         3.4569514036        6.4089696459        8.8904925263
  O         7.8268652700       11.6725050071        7.4970174672
  O        -3.8633384239       -3.9279827596        9.4694123725
  O        13.1490360504       -2.9801236957        7.9314969411
  O        -1.1566025314       -3.4947725394        8.7063580327
  O        -2.4364132813       -2.7221500930        6.9868768904
  O         3.0921945758        4.7106895705        5.2727040544
  O         1.6821872525        5.5379532559        6.8619245724
  O         2.1545503691        2.5559456436        6.8703850251
  O         1.0107235548        3.2975027847        8.6920716720
  O         5.0220060358        2.5148028416        7.9397336650
  O         3.6862021844        3.5254005303        9.4580647142
  O        13.2604024997        8.1718382531        1.1204444549
  O        -2.6127994290        4.8530271825        4.5074437530
  O         4.9969948990        7.7993651724        6.0972465416
  O         3.6599958210        1.8774306246       11.6850662346
  O         5.3241659881        1.5728249029       13.8502162737
  O        10.0742212027        1.5419054883       11.4963218562
  O         8.8556163120        3.0491112508        8.7653334589
  O        -1.6526882792        2.2395022820        8.2422381871
  O        -2.8918040235       -0.2271457988        8.2519096029
  O         1.2685918823       -2.4607688184        7.5523811899
  O         2.6240928735       -0.0169238531        7.6282840999
  O        12.7199443699       11.8339252029        1.2651897469
  O        -0.1783147707        8.5020622822        6.9289878321
  O        11.3623330054       13.3165193552        3.2974362666
  O        10.9426685586        7.9847351555        6.1636540393
  O        12.6937199286        7.9574682903        3.9377584747
  O        -5.3611971883       -1.5973083922       13.7778498409
  O        -3.7919755647       -2.4376047466       11.8109403573
  O        10.6384994124       -3.0500649430        8.9614580192
  O         9.0801860487       -2.2175148705       11.0554352707
  O         0.7329635640        9.4234977932        3.8081558189
  O         3.1055310890        7.2626775666        3.2366272261
  O         0.0520465464        5.4499914806        0.3218871191
  O         0.9163882350        3.2334164922        2.7191746544
  O         5.5238252910        5.8897614297       10.9191967113
  O         7.7362229855        9.2144269267       10.7235452484
  O         5.8312397704       10.4744468063        5.2730890934
  O         1.3316967214        4.6505027802       12.8406819948
  O         1.3411533638        5.2829022824       10.7161979294
  C         1.8503912343        4.6135124124       11.6123359934
  H         1.8645247695        4.0730596667       13.4246204040
  H         2.7213932594        3.9560545044       11.4611987590
