197
07c07d3 s1_to_s2 A (s1 augmented)
  Zn        3.8631655790        3.7410908559        6.8494507112
  Zn        2.2313842638        4.8542022964        8.7561652281
  Zn        8.3190178461       -1.3486842978       15.4041116919
  Zn       -2.1123936428        9.8366989065        0.0968756005
  Zn       -8.2224354527       12.5000902796        8.5955618711
  Zn        8.4479275498       13.5527682748        6.7496086720
  H        -2.8913138589        6.9535470289        4.2745080828
  H         5.0390357521        6.7594998706        4.4256975552
  H         6.2301940884        6.2510935125        5.6732180271
  H         6.4971224444        7.7640276658        4.7311542318
  H         2.0642978625        1.6290154085       10.4911146317
  H         2.5740502071        0.1486342292       11.3732450479
  H         3.5138270393        0.7284571943        9.9621811605
  H         4.7036398582        0.0434961270       15.0992546066
  H         4.7509297562       -0.3895606278       13.3666733704
  H         3.4516855452        0.7013371013       13.9742529825
  H         9.7081971942        3.4600803138       10.9063336130
  H         6.9751280723        3.8669254604        8.3780308005
  H        -2.5496257729        3.8937675393        7.4375833055
  H        -1.9376763082        2.7390444086        6.2195902141
  H        -0.7955134805        3.8073711918        7.1103415353
  H        13.5956212151       -0.0760754521        7.5077092821
  H        -3.5158975050       -0.2867902486        6.2508713968
  H        -3.7250001532        1.3109615114        7.0712942358
  H         2.5732573537       -3.7808161347        8.3850126296
  H         1.3181100026       -3.1586301808        9.5075023950
  H         2.7429040350       -2.1307539426        9.0740047383
  H         4.2995079134       -0.1231976527        6.5304981582
  H         2.8658868543        0.5375688831        5.6746261331
  H         2.9684039734       -1.2298727301        6.0358737181
  H        -5.9919298428       13.8967413610        1.0869697811
  H        11.0117546605       12.8041159668        0.6965619239
  H        12.4252189154       12.8900171432       -0.4048561132
  H        -0.8316721252        6.5683180495        6.8417365849
  H        -5.0612664895       13.8704720115        3.5382576928
  H        -6.0316880131       13.8347293509        5.0504128431
  H        -0.4640132441       -2.4238497450        3.8311719656
  H         9.9238406407        9.7177127622        6.3316949862
  H        12.4945403065        5.9414008497        3.8003063842
  H        11.6475976828        6.8533505037        2.5057049901
  H        10.9661379289        6.7843442496        4.1882086042
  H        -5.5481546536        0.4469078708       13.3453528334
  H        -3.8672362075       -0.2040078679       13.2836809960
  H        -4.7094170565       -0.0003442623       14.8594938798
  H        -2.5087472539       -0.8236380916       11.5914409782
  H        -3.3058726358       -1.3279093605       10.0784268391
  H        -2.0108250182       -2.3431272917       10.7719611877
  H        11.0627375886       -1.3949912492        7.7516928378
  H         9.5334032579       -1.2792002258        8.7049977623
  H         9.6457530549       -2.4009706438        7.3035752335
  H         7.3355458414       -3.2583709805       10.8944736770
  H         8.4975918089       -3.9512880889       12.0756965858
  H         8.7723508110       -4.1572448826       10.3006320581
  H         2.7604241208        9.4785648099        4.6503417531
  H         1.4048346441        9.7508133921        5.8042037564
  H         1.8412128385       11.0171255462        4.6034337414
  H         2.8672672273        9.0244249247        2.1406980522
  H         3.1376164318        7.5400486990        1.1611756853
  H         4.4953640616        8.2725801930        2.0794655880
  H         2.0533013164        5.3781741745        0.8278182720
  H        -0.2116685072        3.3860551966        4.4192176495
  H         6.1748224533        7.6069875813       11.8279069194
  H        -9.2284271182        9.1019781475       12.0973360416
  H        -8.7875377024        8.7985116245       10.3820772525
  H         8.6389707430        7.5704177999       11.3048204646
  H         7.7978566378       10.1060447203        5.6267547955
  C         4.4814684985        6.3288430665        8.3820364072
  C         0.8359988179        6.2957246259        2.4499280934
  C         0.3473287065        5.3653663315        3.6253575461
  C         1.3203314090        6.1206843673        4.6355348150
  C         6.1023272088        7.8412145298        9.6446575228
  C         7.0140477292        8.9193131451        9.6237289228
  C         7.2466729361        9.6168527515        8.4230630068
  C         6.5270480291        9.2872716714        7.2541703013
  C         5.6360491041        8.2025286744        7.2742841312
  C         5.4328855547        7.4843592458        8.4612878498
  C         5.0161192736        2.0357330633       11.5459379412
  C         2.1127220322        5.4074957278        5.6740060411
  C         5.8580323121        1.8142580036       12.6590699795
  C         7.2531750037        1.9187103135       12.5269120954
  C         7.8244485287        2.3529486375       11.3228025889
  C         6.9800362654        2.6667308190       10.2361709789
  C         5.5793392177        2.4876752774       10.3360812626
  C        -0.8904193483        1.1356370739        8.0304063686
  C        -1.5426369461       -0.1131443339        8.0151261019
  C        -0.7901631922       -1.2949233410        7.8855428802
  C         0.6045775989       -1.2491458503        7.7578740689
  C         1.2587716918       -0.0092409494        7.7335015774
  C         1.2556825160        2.4715397125        7.8718603499
  C         0.5122959816        1.1822793307        7.8735462572
  C        13.6356877463        9.2699836346        1.6787341075
  C        -1.2004721814        7.9729226643        1.8346936040
  C        10.2012719211       -1.5200376262       13.5912130103
  C         8.0577854715        1.3752263661       13.6733014115
  C        10.2590696953       11.9757928173        5.5241547769
  C         8.1729555435       10.7791124192        8.3298262114
  C        13.4849892881       -3.2540291344        9.1539744623
  C        -1.5117004900       -2.6019623811        7.8476783971
  C        12.2965457404       11.2665019966        2.3997766676
  C         4.6843095246        2.9022851499        9.2132310966
  C        11.5049900846       11.9281184579        3.3742966741
  C        10.9897669448       11.2034187470        4.4532199309
  C        11.2886288919        9.8265581259        4.6411317498
  C        12.1759826186        9.2056980122        3.7239935811
  C        12.6549583619        9.9134916144        2.6131582120
  C        -5.9378022047       -1.9550914353       12.5798307767
  C        -5.1207824328       -2.3666974573       11.5139445051
  C        12.6613230898       -2.7135151390       10.2672293504
  C        11.2532696793       -2.6601803455       10.1271833968
  C        10.4432024899       -2.3148729822       11.2210658686
  C         0.1855036101        7.1489312550        4.9932228247
  C        11.0362320199       -1.9688023002       12.4442064639
  C        -0.7864254570        6.3797765939        3.9764816255
  C        -0.2918498107        7.3451015459        2.8374143498
  C         0.6884028737        8.0843533245        3.8094233667
  C         1.8309726180        7.0149469928        3.4532607984
  C        -2.2041692047        6.0762496786        4.2877537736
  C         5.7401921977        7.1067888237        5.1883580261
  C         2.9231431868        1.0408774431       10.8320885150
  C         4.5018444902        0.4044440032       14.0841040763
  C         9.3205533329        2.4627360657       11.2061078206
  C         7.6098299305        3.2289591172        9.0230178585
  C        -1.7228629584        3.2215149931        7.1842604509
  C        -3.7702066425        0.2211976836        7.1923637748
  C         2.0308628624       -2.8880253699        8.7149650070
  C         3.2171534289       -0.2196181438        6.3899294399
  C        12.0987128664       12.9366754494        0.6385426949
  C        -0.2753823921        7.4214557698        6.3840276096
  C        -6.0547683125       14.0628845214        3.9739243630
  C        10.6911739511        9.1209295178        5.7896423007
  C        11.8780069010        6.8197787386        3.5795474873
  C        -4.8374477220       -0.2573745334       13.8003284645
  C        -2.8584555024       -1.6908380836       11.0085781958
  C        10.1947286785       -1.9499124162        8.1379835648
  C         8.3908622538       -3.4867138517       11.0843237894
  C         1.7722034055        9.9401469666        4.7863012049
  C         3.4182606247        8.0751447564        2.0823923720
  C         1.0163449591        5.6779104845        1.1020529545
  C         0.3298538881        3.8815227790        3.5823697009
  C         5.9166723663        7.0626575458       10.8947524302
  C        -9.5522514988        8.6474393512       11.1551459050
  C         6.7387600188       10.0379336606        5.9628777492
  O         4.8573237013        5.3848100255        7.6208659800
  O        -3.6318337515        9.8631918728        1.5248480607
  O        -2.2312746410        7.3086520198        1.5178835535
  O        -0.8431028421        9.1249449246        1.3946827433
  O         9.2373735407       -2.2853715621       13.9792779542
  O        -7.8639384707       -0.4060122228       14.1054997188
  O         7.7846334111        0.1834167258       13.9811549411
  O         8.9325836745        2.1172882855       14.2588028277
  O        -7.5976853108       11.9325660652        6.6836991655
  O         9.2026464912       12.6264542672        5.1997308238
  O        -9.1130980238       10.7979906322        9.0164950081
  O         3.3763747925        6.4164873183        9.0145599971
  O         7.8246355983       11.6736264951        7.4964725880
  O        -3.9001728852       -3.9895867542        9.4686512271
  O        13.1509463250       -2.9773589678        7.9350768508
  O        -1.1558002819       -3.4978726708        8.7010111182
  O        -2.4301418538       -2.7202361578        6.9853746475
  O         3.1076386687        4.7005764274        5.2830131253
  O         1.6921484480        5.5376335172        6.8644699450
  O         2.1429005429        2.6190808383        6.9791903117
  O         0.9583969228        3.3441145657        8.7676239060
  O         5.0257216939        2.6138000637        8.0019532167
  O         3.6443354524        3.5516421601        9.5312282276
  O        13.2938366620        8.1658065654        1.1039004485
  O        -2.6112506206        4.9561363157        4.5708690092
  O         4.9399071584        7.8325587934        6.1530770852
  O         3.6877965941        1.8388677371       11.7598740412
  O         5.3782160545        1.5420526545       13.9028183339
  O        10.0709231175        1.5453460014       11.4989752782
  O         8.7961457504        3.0516145985        8.7573153195
  O        -1.6624596020        2.2470486465        8.2489553098
  O        -2.8897529402       -0.2246051258        8.2473271316
  O         1.3162421543       -2.4075436714        7.5528014142
  O         2.6349857009        0.0237245776        7.6924121605
  O        12.7904221576       11.8389506921        1.2820652691
  O        -0.1263486184        8.4682703885        6.9899293386
  O        11.2973157201       13.2901828807        3.2965755663
  O        10.9420829868        7.9816849473        6.1646050239
  O        12.6960732082        7.9575686308        3.9373701652
  O        -5.3613633632       -1.5999440875       13.7769405077
  O        -3.7906848876       -2.4391816790       11.8078700461
  O        10.6373162257       -3.0517612285        8.9611856954
  O         9.0796754695       -2.2169641869       11.0554538875
  O         0.8113650799        9.4399497902        3.8139690608
  O         3.1666631105        7.2566404499        3.2456902828
  O         0.0684767847        5.4776542887        0.3652993070
  O         0.9196369452        3.2414002951        2.7265675358
  O         5.5275769445        5.9003500059       10.9214265926
  O         7.5938629850        9.3275493220       10.7964658515
  O         5.8311909834       10.4744334275        5.2767751280
  O         0.1754936487        3.8825727393       12.2553594726
  O         0.9235444809        5.4555000078       10.6782140873
  C         0.5497422830        4.6533804978       11.4616984207
  H        -3.8051705698        5.6427104558       12.1271759026
  H        -3.5820151615        6.3482610661       12.1271759026
