89
52ef7e9 s0_to_s1 A (s0 augmented)
  Al       -0.2691573366        6.9325193812       12.0926330316
  Al       -0.2651523606       -6.9722327280       20.1196844895
  H         0.3988962766       -3.8315184800       17.1845543077
  H         1.0356707241       -1.7072198963       16.0616090867
  H         4.2874446323       -1.2197248168       18.7618721315
  H         3.6906060884       -3.3891186718       19.8222541446
  H         4.2853618653        1.1529855401       13.4147139993
  H         1.0337934321        1.6357810469       16.1162514007
  H         0.3974680442        3.7618810024       14.9974786004
  H         3.6900957402        3.3256031580       12.3599353687
  H         0.3859470627      -11.0867014739       18.8730027557
  H         0.9992521748       14.7527830189       17.5986477334
  H         4.2662477739       16.8184306185       15.8156121200
  H         3.6929349485       -9.0539244964       17.1629910877
  H         4.2701581752       11.0217004149       16.4141790950
  H         1.0036466965       13.0795660943       14.6232582337
  H         0.3879851932       11.0357118394       13.3586082686
  H         3.6940912216        9.0092966575       15.0782124004
  H         0.3828139828       -5.9970470479       24.3086560560
  H         0.9956210198        7.8519603907        2.5687011196
  H         4.2624755784        5.2769075397        1.6680171195
  H         3.6896770375       -8.4944669579       23.4002561390
  H         4.2697536843        8.6705913982        6.4055681750
  H         1.0036174092        6.0992712690        5.4917038159
  H         0.3871234907        6.0012862955        7.8932287632
  H         3.6928196240        8.4940666734        8.8143104176
  C         1.7533260028        7.2753239481       10.0032307956
  C         1.7528554032        4.9523550741       12.8355452100
  C         1.7541440024        8.5727203236       13.4304404641
  C         1.7537575543       -5.0162874925       19.3499927419
  C         1.7542726549       -8.6209908466       18.8121642405
  C         1.7533248692       -7.2775805904       22.2019262290
  C         1.9666290688       -3.7047639277       18.6736373578
  C         1.1948005721       -3.2157453473       17.5936002276
  C         1.6703909603       -2.1230994604       16.8444872487
  C         2.7489758752       -1.3935565779       17.2437333803
  C         3.5087905476       -1.8511166308       18.3397794581
  C         3.0597552837       -2.9714633807       19.0455583457
  C         3.5064118785        1.7831806910       13.8378628254
  C         2.7464588925        1.3231774184       14.9323865567
  C         1.6684284359        2.0525711397       15.3335477673
  C         1.1929909830        3.1468938170       14.5865241775
  C         1.9651754654        3.6381771061       13.5074203517
  C         3.0583435464        2.9057484894       13.1348210006
  C         1.9620144511       -9.8695620478       18.0193898251
  C         1.1870215570       16.8298202622       18.1406671648
  C         1.6436932973       15.6314290262       17.5603098016
  C         2.7140855645       15.6015055367       16.7174193700
  C         3.4797077506       16.7748872111       16.5657562088
  C         3.0506650713       17.9490704859       17.1921283776
  C         3.4850614075       11.0615037679       15.6622884288
  C         2.7198711897       12.2346648768       15.5041446481
  C         1.6477273602       12.2007282034       14.6637107744
  C         1.1886487824       10.9993223866       14.0917166899
  C         1.9633465591        9.8227193490       14.2196387529
  C         3.0532497201        9.8835695901       15.0447025459
  C         1.9600423607       -7.3429133007       23.6796572503
  C         1.1837030121        7.2864346226        0.4974752701
  C         1.6406135164        7.3818167046        1.8256689516
  C         2.7120250542        6.6671888617        2.2716632497
  C         3.4767762400        5.9490752714        1.3307211589
  C         3.0474924062        5.9056229911        0.0009114240
  C         3.4843232388        7.9962978227        6.7396130829
  C         2.7187358172        7.2826805001        5.7956829588
  C         1.6468569332        6.5667966765        6.2376467746
  C         1.1870620569        6.6585299362        7.5646559532
  C         1.9617719794        7.3476793467        8.5266696276
  C         3.0519979101        8.0363044159        8.0688063419
  N         2.9492157374       -0.0859169594       16.7151335859
  N         2.9471367886        0.0145048276       15.4588232650
  N         2.9022850627       14.4899922828       15.8407865479
  N         2.9087192732       13.3488538574       16.3756295276
  N         2.9008808286        6.4606347639        3.6710658410
  N         2.9074189846        7.4912475229        4.3963752846
  O         2.6588333974        7.6643363744       13.5417341693
  O         2.6592419167        7.8206510536       10.7361225144
  O         2.6591930301        5.3156484320       11.9983746698
  O         0.7369315356        8.4873044978       12.6583539972
  O         0.7363444956        5.6610808562       13.1549680785
  O         0.7371154564        6.6459780484       10.4607148193
  O         2.6574628027       -7.8287906697       21.4716715892
  O         2.6576576031       -5.3757370857       20.1902675519
  O         2.6573944627       -7.7120622055       18.6990003260
  O         0.7389844615       -6.6496351181       21.7374832721
  O         0.7391582170       -8.5324999178       19.5871326695
  O         0.7385686457       -5.7289832372       19.0342190389
  O        -1.0736089176        3.1320425225        9.0159434260
  O         1.2428957734        3.2593453759        9.0159434260
  C         0.0846434279        3.1956939492        9.0159434260
